!  MCSCF test case correlating 10 pi electrons in 9 pi orbitals.
!  Electronic state is 1A', there are 15,876 determinants, 
!  There are 165 Aos, and all active MOs are a'' symmetry.
!  See M.S.Gordon, J.Phys.Chem. 100, 3974-3979(1996).
!
!                CH
!              // \
!            HC    C----CH    7-azaindole
!             |    ||  ||     ("normal" form, i.e. H in 5MR)
!            HC    C    CH
!              \\ /  \ /
!                N    NH
!
!  The FINAL energy=-377.6365487626 after 9 iterations.
!
!  This run takes 90 seconds on 2.66 GHz Cloverton (26 Apr 2015)
!  the results have not changed since 2005
!                   
 $CONTRL SCFTYP=mcscf RUNTYP=ENERGY MOLPLT=.T. PLTORB=.T. $END
 $SYSTEM mwords=4 memddi=0 $END
 $BASIS  GBASIS=DH NDFUNC=1 NPFUNC=1 $END
...pi  orbitals at 22,27,29,30,31 in occupied space
...pi* orbitals at 32,33,34,42 in canonical virtuals
 $GUESS  GUESS=MOREAD NORB=165 norder=1
         iorder(22)=23,24,25,26,28,22,27
         iorder(35)=42,35,36,37,38,39,40,41 $END
 $mcscf  cistep=aldet soscf=.true. $end
--- $DRT    NMCC=26 NDOC=5 NVAL=4 FORS=.T. GROUP=Cs $END
 $det    ncore=26 nact=9 nels=10 $end
 $DATA
DZP for 7-AZAINDOLE
Cs
 
CARBON      6.0   1.6898109071  -1.4725871496    .0000000000
CARBON      6.0    .3242224692  -1.7050656019    .0000000000
CARBON      6.0   -.5179063077   -.5950596630    .0000000000
CARBON      6.0    .0983476636    .6700620693    .0000000000
NITROGEN    7.0   1.3961937448    .9169162786    .0000000000
CARBON      6.0   2.1667073707   -.1535215501    .0000000000
CARBON      6.0  -1.9434949797   -.3610059787    .0000000000
CARBON      6.0  -2.1107295085    .9828597830    .0000000000
NITROGEN    7.0   -.8872762791   1.6157518138    .0000000000
HYDROGEN    1.0   2.3913941778  -2.2856115434    .0000000000
HYDROGEN    1.0   -.0667201403  -2.7071943202    .0000000000
HYDROGEN    1.0  -2.7248100824  -1.0929282069    .0000000000
HYDROGEN    1.0  -3.0178665745   1.5516524695    .0000000000
HYDROGEN    1.0   -.7271460929   2.5955769462    .0000000000
HYDROGEN    1.0   3.2278316320    .0267026533    .0000000000
 $END

--- RHF ORBITALS --- GENERATED AT 15:43:57 CST 23-MAY-1996
DZP for 7-AZAINDOLE
E(RHF)=     -377.5370702209, E(NUC)=  407.3890027119,    2 ITERS
 $VEC
 1  1-1.64834594E-07-1.27452084E-06 8.75177917E-05 4.71380440E-06 3.62916412E-06
 1  2 0.00000000E+00-4.72395834E-05-2.61745370E-04 0.00000000E+00 1.65089988E-06
 1  3-3.56799098E-07 2.92241388E-07 2.43690226E-06 0.00000000E+00 0.00000000E+00
 1  4-1.35447776E-06-6.92577353E-06 1.21345217E-04-5.42574672E-06 7.37373061E-06
 1  5 0.00000000E+00-2.61338870E-04 1.62524279E-04 0.00000000E+00-6.54433672E-07
 1  6 7.33586963E-06-3.78215735E-06-2.92523055E-06 0.00000000E+00 0.00000000E+00
 1  7 8.24072225E-06 5.12380431E-05-2.43449755E-04 1.01195632E-05 2.71526558E-06
 1  8 0.00000000E+00-3.68025318E-05 2.99575476E-04 0.00000000E+00-2.91920974E-06
 1  9 7.48238652E-07 1.87391176E-05 2.38753254E-05 0.00000000E+00 0.00000000E+00
 1 10 1.71864148E-05 1.54031515E-04-4.66817321E-04-2.18280364E-04 2.65192761E-04
 1 11 0.00000000E+00 4.72678664E-04-1.98465709E-04 0.00000000E+00 7.17185376E-05
 1 12 9.47270237E-05-1.11505861E-05-2.08154394E-04 0.00000000E+00 0.00000000E+00
 1 13-2.04455895E-04 2.78321487E-05-1.33815890E-04-1.04530794E-05 7.33444724E-07
 1 14 0.00000000E+00 7.34655049E-05-3.59637486E-06 0.00000000E+00 2.48025846E-05
 1 15 5.71532536E-06 2.38683841E-05-2.17082613E-05 0.00000000E+00 0.00000000E+00
 1 16 1.46564209E-07 5.97374753E-07 4.35814107E-05 7.70271232E-08-5.62221205E-06
 1 17 0.00000000E+00 4.02347672E-05-1.11174233E-04 0.00000000E+00 1.48769938E-05
 1 18-9.36708358E-06 2.38329586E-06 1.69854689E-06 0.00000000E+00 0.00000000E+00
 1 19 2.78397665E-06 2.80081407E-05 1.00838643E-04-6.25586160E-06 7.68196214E-06
 1 20 0.00000000E+00 6.67621101E-05-7.39675012E-06 0.00000000E+00-1.76430216E-05
 1 21 4.21183212E-06 4.58231152E-06-1.07215494E-05 0.00000000E+00 0.00000000E+00
 1 22 9.64007697E-06 1.13579197E-04-1.53013684E-04 2.77594239E-04 1.73108671E-04
 1 23 0.00000000E+00-2.02098402E-04 4.96033650E-05 0.00000000E+00 1.45637206E-04
 1 24-1.63119553E-05-2.39943802E-05 1.73771448E-04 0.00000000E+00 0.00000000E+00
 1 25 9.99099561E-01 2.51563067E-03 1.36277303E-03-4.65235329E-05-1.64480089E-04
 1 26 0.00000000E+00 7.68642993E-05-2.59541229E-04 0.00000000E+00-2.34867364E-04
 1 27-3.27172568E-04-9.04219187E-05-1.87098016E-05 0.00000000E+00 0.00000000E+00
 1 28 2.31900266E-06-1.13011635E-04 3.17290507E-06 2.07167993E-07 0.00000000E+00
 1 29-7.58094878E-06 3.07091838E-05 3.95349317E-06-2.95657126E-06 0.00000000E+00
 1 30 2.63030569E-06 1.46858398E-05 8.35511363E-07 4.83129744E-06 0.00000000E+00
 1 31 3.58013141E-05-9.89872149E-05 1.96882735E-05 2.77009667E-06 0.00000000E+00
 1 32 4.90019708E-04 6.91725315E-05-5.24850317E-05-2.79317352E-04 0.00000000E+00
 1 33-6.58395276E-06 8.04155151E-08 3.79723986E-06 3.94801846E-06 0.00000000E+00
 2  1 1.92833325E-06-4.96529122E-05-2.81392597E-05-3.44781884E-06 7.93561664E-06
 2  2 0.00000000E+00-2.23070225E-04 2.10865710E-04 0.00000000E+00 1.05970282E-05
 2  3 6.81867195E-05-7.18891174E-06-1.17927188E-05 0.00000000E+00 0.00000000E+00
 2  4-1.29419019E-06-2.21181845E-06-4.80178112E-05-1.11092230E-05-2.48333106E-05
 2  5 0.00000000E+00-3.40203170E-04-4.10840990E-04 0.00000000E+00 7.12020648E-06
 2  6-9.12254382E-06-1.43125362E-05 3.37440075E-06 0.00000000E+00 0.00000000E+00
 2  7 1.30875692E-06-6.46821255E-05 2.35476593E-05 6.07665593E-06-1.98578481E-06
 2  8 0.00000000E+00 7.67476963E-04 6.47935408E-04 0.00000000E+00 4.80393891E-05
 2  9 5.77704758E-05-1.63865312E-05 2.71020029E-05 0.00000000E+00 0.00000000E+00
 2 10-6.79576165E-06 3.64562057E-04-1.37624667E-03 2.42994910E-06 2.26313430E-05
 2 11 0.00000000E+00-1.17694885E-03-3.43245466E-04 0.00000000E+00-4.42158945E-04
 2 12-1.61357700E-04-1.12984929E-05 6.57011687E-05 0.00000000E+00 0.00000000E+00
 2 13 9.99286634E-01 1.78277402E-03 2.15432461E-03-8.07916470E-04-1.63888386E-03
 2 14 0.00000000E+00-2.45150143E-05 7.48595712E-04 0.00000000E+00 5.06478214E-04
 2 15 4.15530299E-04-1.57759793E-04 2.01854916E-06 0.00000000E+00 0.00000000E+00
 2 16-1.50671728E-05 2.45040276E-04 9.94303783E-05 2.51283817E-06 3.23480476E-05
 2 17 0.00000000E+00-2.02189902E-04-3.76600291E-04 0.00000000E+00-3.41281817E-04
 2 18-1.69487515E-04-3.46275880E-05 6.88154745E-05 0.00000000E+00 0.00000000E+00
 2 19-1.84766165E-06 2.87212058E-06 5.26452281E-04-1.30705699E-05-8.36508659E-07
 2 20 0.00000000E+00-2.29711770E-04-7.26298223E-04 0.00000000E+00-1.92858996E-05
 2 21 6.15514288E-07 9.34555262E-07-3.78553019E-06 0.00000000E+00 0.00000000E+00
 2 22 1.43138435E-06 2.58615573E-05 1.98965067E-04-2.45618602E-05-1.42507276E-06
 2 23 0.00000000E+00-3.14637698E-04 2.37697253E-04 0.00000000E+00-2.64133002E-05
 2 24 4.20362049E-06 9.31244016E-06 1.12838634E-05 0.00000000E+00 0.00000000E+00
 2 25 2.20946287E-04-2.97553563E-05 1.28835358E-04 3.94293007E-05-2.37440135E-05
 2 26 0.00000000E+00 1.96657825E-04-1.93551072E-04 0.00000000E+00 3.15892948E-05
 2 27 1.07983030E-04-1.64322848E-05-5.61748136E-05 0.00000000E+00 0.00000000E+00
 2 28-1.82894053E-05 1.86743049E-04 4.02018453E-06-1.51901682E-05 0.00000000E+00
 2 29 1.18491273E-05-2.73847191E-04-2.91796625E-06 4.03946931E-07 0.00000000E+00
 2 30 9.92403785E-06-5.01586505E-04-1.22477400E-05-2.12262212E-06 0.00000000E+00
 2 31 2.02114994E-05-2.72394928E-04 1.34785380E-06-3.61347237E-06 0.00000000E+00
 2 32-2.32996986E-05 7.00625411E-05 1.74330868E-05 3.35879575E-05 0.00000000E+00
 2 33 7.22841397E-05 1.95936468E-04-7.43286649E-05-2.96062966E-05 0.00000000E+00
 3  1-1.48751023E-04 2.48432911E-05-7.17880685E-05-6.86274118E-06-1.03075038E-05
 3  2 0.00000000E+00 1.15502490E-04 3.81629458E-05 0.00000000E+00 1.59466588E-05
 3  3 1.81518370E-05 1.70491520E-05 1.08501392E-06 0.00000000E+00 0.00000000E+00
 3  4 8.85130575E-05 6.35051441E-05-1.82032689E-04-1.97831134E-05-6.49563470E-07
 3  5 0.00000000E+00 2.42361479E-05-2.96526261E-04 0.00000000E+00-1.02060226E-05
 3  6 1.42151750E-05 2.77040425E-05-2.01446193E-05 0.00000000E+00 0.00000000E+00
 3  7 8.58676119E-03 2.34456923E-04 1.71897002E-04 3.64055872E-04 6.64524150E-04
 3  8 0.00000000E+00 2.31207683E-04-1.86332357E-04 0.00000000E+00 3.61525085E-05
 3  9 3.79618754E-04-3.54473939E-05 3.50971592E-04 0.00000000E+00 0.00000000E+00
 3 10 9.98642544E-01 5.08107121E-03 1.65206562E-03-1.82287404E-04 7.80236608E-04
 3 11 0.00000000E+00-1.58789387E-04 1.99810522E-04 0.00000000E+00-5.20701866E-04
 3 12-7.89403766E-04-1.02272165E-03-5.97487515E-05 0.00000000E+00 0.00000000E+00
 3 13-3.28676546E-04 3.79802493E-04-3.84442050E-04-6.69595003E-04-1.44466102E-04
 3 14 0.00000000E+00 3.02951833E-04-4.35797505E-05 0.00000000E+00 3.29130537E-04
 3 15-6.94990637E-05-1.28070136E-05 1.67956975E-04 0.00000000E+00 0.00000000E+00
 3 16-2.11829527E-04 5.60944587E-05-1.89707541E-04-1.80147598E-05 2.47478365E-05
 3 17 0.00000000E+00-1.01371567E-04-7.51821741E-05 0.00000000E+00-1.21639984E-05
 3 18-2.49259636E-06 1.32015005E-05-2.62611418E-05 0.00000000E+00 0.00000000E+00
 3 19-8.17269463E-05 5.24432166E-05-3.62909058E-04 1.30914036E-05-3.12148270E-05
 3 20 0.00000000E+00-2.50628765E-05-1.54966220E-04 0.00000000E+00 2.94400148E-05
 3 21 5.88155511E-06 2.28836075E-05-1.97937270E-06 0.00000000E+00 0.00000000E+00
 3 22-6.82043693E-04 3.62311621E-05 9.63398887E-05 6.07908843E-05 1.21679106E-05
 3 23 0.00000000E+00 2.52879505E-04-4.98520418E-04 0.00000000E+00 2.64767076E-05
 3 24-1.75295468E-05 1.55506312E-05 1.59689428E-05 0.00000000E+00 0.00000000E+00
 3 25-2.46657423E-04 4.88248571E-04-1.03113254E-03 3.96180154E-04-3.57432878E-04
 3 26 0.00000000E+00-5.32842777E-04 6.99396727E-04 0.00000000E+00 9.54763043E-05
 3 27 2.06851912E-05 8.68510475E-05-1.58980692E-04 0.00000000E+00 0.00000000E+00
 3 28 3.62956324E-06-5.77646515E-05 3.10245965E-06-7.23682448E-06 0.00000000E+00
 3 29 2.11625162E-05-1.79290230E-04-8.87125446E-06 2.34412053E-06 0.00000000E+00
 3 30 1.25949349E-05-4.49319865E-05 6.34294947E-07-5.43598380E-06 0.00000000E+00
 3 31-9.88756052E-06 3.04934164E-04 3.27529854E-06 2.45594293E-06 0.00000000E+00
 3 32 5.54555917E-05-2.25786088E-04 4.59794743E-05-4.36886415E-05 0.00000000E+00
 3 33 1.91260229E-05 7.56240332E-05-7.77589688E-06 1.87036427E-07 0.00000000E+00
 4  1 9.56986299E-06 1.75636702E-05-2.07226303E-04 2.62689897E-07-6.35334004E-06
 4  2 0.00000000E+00 3.68335178E-04 5.89925452E-05 0.00000000E+00 8.06762647E-06
 4  3 1.54373908E-05 7.92509576E-06-2.61730185E-06 0.00000000E+00 0.00000000E+00
 4  4-1.93605006E-05 1.83994994E-05-4.15552184E-05-3.16965555E-06 7.37119796E-06
 4  5 0.00000000E+00 3.12288950E-04-7.47229051E-05 0.00000000E+00 1.13150661E-05
 4  6 7.20332597E-06 4.22039813E-06 1.58867789E-06 0.00000000E+00 0.00000000E+00
 4  7-1.35886678E-05 9.32597414E-05-7.73296246E-04-3.77866186E-05-2.44606108E-05
 4  8 0.00000000E+00 1.26274730E-04-7.22443072E-04 0.00000000E+00 4.54023180E-05
 4  9 6.50797010E-06 4.04543783E-05-2.42786015E-06 0.00000000E+00 0.00000000E+00
 4 10 7.05909232E-04 2.04890447E-05 8.24583042E-04-5.39219930E-05 3.02997319E-05
 4 11 0.00000000E+00-6.08488474E-04-3.90538672E-04 0.00000000E+00 2.57895152E-05
 4 12-9.03159526E-07 3.59704276E-06-2.43704549E-05 0.00000000E+00 0.00000000E+00
 4 13-6.19904767E-07 1.02727958E-05 6.39948959E-06-2.43745664E-06 6.67673266E-06
 4 14 0.00000000E+00 6.81292724E-05 6.27998185E-05 0.00000000E+00-1.39419152E-05
 4 15 2.10409788E-06 1.03949712E-05-4.11304675E-06 0.00000000E+00 0.00000000E+00
 4 16 6.29559215E-05 2.24046973E-06-7.92706699E-05 8.84435925E-08-8.87195153E-06
 4 17 0.00000000E+00-3.05939471E-04 1.50995034E-04 0.00000000E+00 2.04209451E-06
 4 18-4.33032718E-06 2.12086640E-06-4.81189085E-06 0.00000000E+00 0.00000000E+00
 4 19 1.41327828E-02 3.56028800E-04-5.11534035E-06-1.40582974E-04 8.22356579E-04
 4 20 0.00000000E+00 9.05083961E-05 4.14296163E-05 0.00000000E+00-1.53372660E-04
 4 21 5.43048587E-04-3.67630580E-05-1.58585776E-04 0.00000000E+00 0.00000000E+00
 4 22 9.98595529E-01 4.96442737E-03 1.30703998E-03 8.25523364E-04 5.86409878E-04
 4 23 0.00000000E+00 3.92837005E-04-2.21136863E-04 0.00000000E+00-6.54243499E-04
 4 24-7.42239988E-04-9.55470674E-04 7.03359893E-05 0.00000000E+00 0.00000000E+00
 4 25-2.31331630E-04 5.06350938E-04-1.22490676E-03-4.49543624E-04-2.22584353E-04
 4 26 0.00000000E+00 6.40738879E-04 8.00899559E-04 0.00000000E+00 1.22953126E-04
 4 27-2.02930450E-05 9.45897286E-05 1.01145609E-04 0.00000000E+00 0.00000000E+00
 4 28 7.52569969E-06-1.14842612E-04-1.18209875E-06-7.56974560E-06 0.00000000E+00
 4 29 2.92360375E-07-2.86139417E-05 1.05301771E-06-6.27868820E-06 0.00000000E+00
 4 30 3.89930551E-05 3.50621598E-05-1.22128758E-05 2.54398996E-05 0.00000000E+00
 4 31 6.45954650E-04 1.75531427E-04 2.80038555E-04-2.29409580E-04 0.00000000E+00
 4 32 2.53042987E-05-3.29884631E-04-5.70830106E-05-2.13322598E-05 0.00000000E+00
 4 33-1.16345962E-06 1.52626074E-04 2.44992959E-07-6.31142689E-06 0.00000000E+00
 5  1 1.38410652E-02 3.21766794E-04-1.62952961E-04 2.18733449E-04 5.99628892E-04
 5  2 0.00000000E+00 1.08424103E-04-2.49570118E-04 0.00000000E+00-8.12575951E-05
 5  3 3.57588250E-04-2.58722097E-05 2.02718313E-04 0.00000000E+00 0.00000000E+00
 5  4 2.78030939E-04 4.43624172E-05 8.79038030E-05 2.15445625E-05 3.39554811E-06
 5  5 0.00000000E+00-2.07079536E-05-3.11071389E-06 0.00000000E+00 6.92682963E-06
 5  6-1.45218301E-06 2.44918521E-05 2.83791073E-05 0.00000000E+00 0.00000000E+00
 5  7-2.93326793E-04 3.30429714E-05-3.16278458E-04 4.56571298E-06-1.12031187E-05
 5  8 0.00000000E+00-2.22415123E-04-1.23794013E-04 0.00000000E+00 1.93688270E-05
 5  9 1.65651526E-05 2.22483429E-05-1.96834011E-06 0.00000000E+00 0.00000000E+00
 5 10 2.37046861E-04 4.34490396E-05 1.86647985E-04 3.97332068E-05 5.10984063E-06
 5 11 0.00000000E+00-7.80673735E-05-1.98602822E-04 0.00000000E+00 2.04900843E-05
 5 12-1.48239534E-05 1.25947244E-05 9.44897588E-06 0.00000000E+00 0.00000000E+00
 5 13-3.34605248E-04 4.41842423E-04-6.54735608E-04 3.64667686E-04-5.11699496E-04
 5 14 0.00000000E+00-2.09744084E-04 3.65244092E-04 0.00000000E+00-1.75521999E-05
 5 15 1.95866836E-04 2.60136425E-05-1.90951878E-04 0.00000000E+00 0.00000000E+00
 5 16 9.98609062E-01 4.96281938E-03 1.04279572E-03-4.16352484E-04 3.58579008E-04
 5 17 0.00000000E+00-3.37618976E-04 3.61906694E-05 0.00000000E+00-7.99701217E-04
 5 18-5.71961561E-04-9.86503701E-04-1.18495362E-04 0.00000000E+00 0.00000000E+00
 5 19 9.53664389E-06 1.15657887E-05-1.14114716E-04-1.92235950E-06-9.59283280E-07
 5 20 0.00000000E+00 3.05263449E-05 1.48774736E-04 0.00000000E+00 1.97782413E-06
 5 21 5.20439764E-06 4.65578085E-06 2.50627222E-07 0.00000000E+00 0.00000000E+00
 5 22-6.00866467E-05 9.29927077E-06-1.69491050E-04-8.30687974E-06-1.99579319E-06
 5 23 0.00000000E+00-1.84054739E-05-7.46621069E-06 0.00000000E+00 6.89263730E-06
 5 24 1.42092346E-06 5.90075957E-06-1.79706510E-06 0.00000000E+00 0.00000000E+00
 5 25-5.23028589E-07 8.05455205E-06 1.84400786E-05 1.25853954E-05-3.21627849E-06
 5 26 0.00000000E+00-6.80662110E-05 2.98927679E-05 0.00000000E+00 3.63772485E-06
 5 27 1.16733318E-06 4.79015980E-06 1.05614692E-06 0.00000000E+00 0.00000000E+00
 5 28 4.78463107E-05-1.55855537E-04 1.01946617E-05 2.13984022E-05 0.00000000E+00
 5 29 2.49648917E-06-6.20327839E-05 5.33141438E-06-9.62598512E-06 0.00000000E+00
 5 30-8.47115045E-07 8.45328793E-05 7.64650260E-07-2.54062468E-07 0.00000000E+00
 5 31 3.93180329E-06 9.10293825E-06-7.29087271E-07 1.29217959E-06 0.00000000E+00
 5 32 4.74530902E-06-4.94623768E-06 5.84981647E-06 1.25378939E-06 0.00000000E+00
 5 33 6.94132039E-04 1.37844589E-04-3.71812193E-04-7.93235695E-05 0.00000000E+00
 6  1 2.38123286E-02 4.01048674E-04-7.09662738E-05-6.34165151E-04-1.12535541E-04
 6  2 0.00000000E+00 2.31984685E-04 1.69117830E-05 0.00000000E+00 3.53921283E-04
 6  3-1.63648883E-04-4.06652179E-05 1.09212939E-04 0.00000000E+00 0.00000000E+00
 6  4 9.97938017E-01 5.13198020E-03 7.34225044E-04-4.88542384E-05 1.55502163E-04
 6  5 0.00000000E+00 4.20875281E-05 1.19964739E-04 0.00000000E+00-6.72288355E-04
 6  6-7.81097244E-04-1.05259418E-03-7.07318060E-05 0.00000000E+00 0.00000000E+00
 6  7 2.93810842E-02 4.61635827E-04-4.52487106E-04 3.12967230E-04-4.80205779E-04
 6  8 0.00000000E+00 1.51898196E-04 2.19812908E-04 0.00000000E+00 3.35830973E-05
 6  9 1.56516499E-04-4.04427358E-05-2.70156956E-04 0.00000000E+00 0.00000000E+00
 6 10-3.25277732E-04 5.22023942E-05-1.07837324E-04-1.55664778E-05-2.85223708E-05
 6 11 0.00000000E+00-3.11880417E-04 1.15142033E-04 0.00000000E+00-1.67768511E-05
 6 12 2.89008567E-05 2.62931028E-05 1.04935040E-05 0.00000000E+00 0.00000000E+00
 6 13 8.89590244E-06 1.31021151E-05 1.73755431E-05-2.28342365E-06-1.37427386E-05
 6 14 0.00000000E+00-6.67409621E-05 6.05628614E-05 0.00000000E+00 1.47404857E-05
 6 15 1.16880244E-05 1.87817777E-05 1.36092075E-06 0.00000000E+00 0.00000000E+00
 6 16-5.91348974E-04 3.31688977E-05 4.16911771E-05-5.94608382E-06-2.31399570E-05
 6 17 0.00000000E+00-5.63563162E-05 1.07295359E-04 0.00000000E+00 4.91380257E-06
 6 18 6.80334524E-06 1.89999428E-05 3.02922850E-05 0.00000000E+00 0.00000000E+00
 6 19 1.93546957E-04 5.02254190E-06 1.66290180E-04 1.41249686E-05 1.42451944E-06
 6 20 0.00000000E+00 2.72473514E-04-8.36769924E-05 0.00000000E+00-3.27397432E-05
 6 21-3.31255348E-06 1.36215836E-06-4.62392027E-05 0.00000000E+00 0.00000000E+00
 6 22 2.28200832E-05 3.33592907E-06-5.11939173E-05 1.33286247E-06 7.43878806E-06
 6 23 0.00000000E+00-2.37074259E-04-5.01078965E-05 0.00000000E+00 1.91226484E-05
 6 24 7.18485562E-06 4.01404326E-06-1.97903308E-05 0.00000000E+00 0.00000000E+00
 6 25 2.72321704E-06 1.40964831E-05-6.88276120E-05 5.65118259E-06-6.33603292E-06
 6 26 0.00000000E+00-8.92147790E-05 7.47579430E-05 0.00000000E+00 8.30779975E-06
 6 27 2.08231955E-05 7.33635032E-06-2.93004854E-07 0.00000000E+00 0.00000000E+00
 6 28 5.36681584E-05-7.03604141E-05-3.26499698E-05 5.75392707E-07 0.00000000E+00
 6 29 6.26739031E-04 4.89057925E-05 1.15537424E-04 2.88068824E-04 0.00000000E+00
 6 30 5.07696969E-06 9.17870523E-05 7.43134447E-06 2.19109580E-05 0.00000000E+00
 6 31-6.72754069E-06-9.03402504E-05-7.91924613E-06 7.73891302E-06 0.00000000E+00
 6 32-8.10843012E-06-3.44197388E-05 5.89982598E-06 5.26751377E-06 0.00000000E+00
 6 33 3.27104736E-08-9.39341512E-06 5.88232266E-06-6.60356234E-06 0.00000000E+00
 7  1-3.97780885E-03 4.73924844E-06-4.56771013E-05 5.94648377E-06-1.02918633E-05
 7  2 0.00000000E+00 6.13692322E-05 2.89835479E-05 0.00000000E+00 1.26582486E-05
 7  3-4.51013721E-06 2.42698680E-05-2.47621880E-05 0.00000000E+00 0.00000000E+00
 7  4-2.96258925E-02 1.14060853E-04-8.23765786E-05-3.65127010E-04 4.50965994E-04
 7  5 0.00000000E+00 1.21990794E-04-1.59245272E-04 0.00000000E+00 6.76710452E-05
 7  6 1.39095432E-04 9.03949999E-06-2.82213732E-04 0.00000000E+00 0.00000000E+00
 7  7 9.96901771E-01 5.54541741E-03 8.79576269E-04 1.55230136E-06 1.25474867E-04
 7  8 0.00000000E+00 6.66433645E-05-1.85618165E-05 0.00000000E+00-8.12609576E-04
 7  9-7.87248815E-04-1.11536640E-03-8.33407559E-05 0.00000000E+00 0.00000000E+00
 7 10-8.89688358E-03 2.66281748E-04-1.75997393E-05-2.43572123E-04-5.22390330E-04
 7 11 0.00000000E+00-1.14864208E-04 2.37002964E-04 0.00000000E+00-6.64076063E-05
 7 12 2.66720236E-04-3.10953035E-06 2.21945814E-04 0.00000000E+00 0.00000000E+00
 7 13 1.35613111E-05 2.28919232E-05-1.73798093E-05 1.09382946E-06 4.50716867E-06
 7 14 0.00000000E+00-1.88020979E-05-1.81777951E-05 0.00000000E+00-8.57043623E-06
 7 15 1.31924262E-05 3.29240226E-05 3.40084978E-05 0.00000000E+00 0.00000000E+00
 7 16 3.78726920E-04 1.00228462E-05-5.06618286E-06 1.09986173E-06 3.79372653E-06
 7 17 0.00000000E+00 1.09992291E-05 4.85162517E-05 0.00000000E+00-3.79886570E-06
 7 18 2.33796525E-05 6.20494234E-06-2.04536886E-06 0.00000000E+00 0.00000000E+00
 7 19 4.87911668E-02 4.71996242E-04-1.54481569E-04 5.00232084E-04-1.35812541E-04
 7 20 0.00000000E+00-1.32336745E-04 3.44871758E-05 0.00000000E+00 2.37832158E-04
 7 21-1.27901853E-04-7.12351142E-05-1.37581327E-04 0.00000000E+00 0.00000000E+00
 7 22-6.61845419E-04 7.24298483E-05 4.56409518E-05 1.64728888E-05-3.91682030E-05
 7 23 0.00000000E+00 1.35130279E-04-6.14905281E-05 0.00000000E+00-2.20455320E-05
 7 24 2.85148706E-05 2.03401808E-05-9.67374734E-06 0.00000000E+00 0.00000000E+00
 7 25 3.28255132E-05 8.13873661E-05-3.71498509E-04 9.33251931E-06-1.75903105E-05
 7 26 0.00000000E+00 7.96880406E-06 3.56140601E-04 0.00000000E+00 4.44417420E-05
 7 27 3.60545898E-05 6.34909609E-05-1.65175368E-05 0.00000000E+00 0.00000000E+00
 7 28-3.00529361E-06-2.85631761E-05 2.40797552E-06-9.96307067E-06 0.00000000E+00
 7 29 2.72267172E-05-6.00291897E-05-1.05027190E-05 2.09802691E-05 0.00000000E+00
 7 30 6.41396567E-05-2.48506263E-07 4.10804054E-05 6.35175364E-06 0.00000000E+00
 7 31-1.15434318E-06 8.73735147E-05-1.96666234E-06-5.48379495E-06 0.00000000E+00
 7 32 1.54553780E-06-2.32789709E-04 4.06730099E-06 6.16246087E-06 0.00000000E+00
 7 33 2.18178107E-06-2.36929569E-05 8.84710401E-07-1.92752777E-06 0.00000000E+00
 8  1 9.98227899E-01 5.41508719E-03 5.92227565E-04-1.16256589E-04 1.11685549E-04
 8  2 0.00000000E+00 2.60244181E-06 1.01137473E-04 0.00000000E+00-8.12124030E-04
 8  3-8.64332069E-04-1.05123563E-03 9.87077570E-05 0.00000000E+00 0.00000000E+00
 8  4-2.43000234E-02 1.76641821E-04-2.99663197E-04 6.05003230E-04 9.44417395E-05
 8  5 0.00000000E+00-5.68857244E-06-1.06416925E-05 0.00000000E+00 3.48602838E-04
 8  6-1.26657091E-04 1.11983881E-05 9.80415101E-05 0.00000000E+00 0.00000000E+00
 8  7 3.27726599E-03 5.84619973E-05-1.73037217E-04-9.73422463E-08-4.74156413E-06
 8  8 0.00000000E+00-2.49998685E-05-3.90626214E-04 0.00000000E+00 1.92126979E-05
 8  9-8.35688403E-06 2.38663778E-05-1.78491832E-05 0.00000000E+00 0.00000000E+00
 8 10 1.36293521E-04 8.31077548E-06 3.32098162E-04-9.46302476E-08-1.75800987E-06
 8 11 0.00000000E+00-1.70949888E-04 8.24084618E-05 0.00000000E+00 9.51871428E-06
 8 12 9.60866052E-06 7.72997419E-06 1.66422382E-05 0.00000000E+00 0.00000000E+00
 8 13 2.05863975E-05 4.09233688E-05-1.53953051E-04 2.68646846E-06 5.95408156E-06
 8 14 0.00000000E+00 2.28052520E-05 2.33029498E-05 0.00000000E+00-1.73170448E-05
 8 15 3.76521531E-05 4.27996208E-05 1.04339331E-05 0.00000000E+00 0.00000000E+00
 8 16-1.41711101E-02 1.95273201E-04-1.08935412E-04-2.09926577E-04-5.47029907E-04
 8 17 0.00000000E+00-5.44345272E-05 1.77528985E-04 0.00000000E+00-8.40121339E-05
 8 18 3.12176488E-04-5.07707556E-06 1.95729497E-04 0.00000000E+00 0.00000000E+00
 8 19 6.81267885E-04 8.90461386E-06-8.54995859E-07 1.84404679E-06-1.00057578E-06
 8 20 0.00000000E+00 1.42751250E-04 2.69638613E-04 0.00000000E+00-1.00118686E-05
 8 21-3.39266988E-06-2.48028088E-06-6.49314019E-07 0.00000000E+00 0.00000000E+00
 8 22-1.14066442E-05 1.04132519E-05-2.23427954E-04-8.26235097E-07 6.22633054E-06
 8 23 0.00000000E+00-2.96313233E-05-3.07784724E-05 0.00000000E+00 7.29466358E-06
 8 24 7.05271461E-06 4.63983045E-06-2.16578585E-06 0.00000000E+00 0.00000000E+00
 8 25 2.75510471E-06 1.53333309E-05-1.16689580E-04 6.38770872E-07 6.80800601E-07
 8 26 0.00000000E+00-8.49122575E-05 4.01348463E-05 0.00000000E+00 5.41793471E-06
 8 27 7.18413020E-06 6.28318367E-06-1.34500327E-07 0.00000000E+00 0.00000000E+00
 8 28 6.50391083E-04 2.15916239E-05-2.15092042E-04 2.45999771E-04 0.00000000E+00
 8 29 2.69113076E-05 4.20148270E-06 2.41071493E-05 1.05605159E-06 0.00000000E+00
 8 30-4.38788115E-06 1.87742488E-04 3.48404417E-06 3.17020148E-06 0.00000000E+00
 8 31 2.98078821E-06 2.06244594E-05-5.42148559E-08 1.99546636E-06 0.00000000E+00
 8 32 3.56321092E-06-1.82967977E-05 3.21379082E-06 5.47031767E-07 0.00000000E+00
 8 33 2.27192651E-05 1.87065055E-05-6.95568836E-06-2.44818505E-05 0.00000000E+00
 9  1-4.94585418E-04-7.87792711E-06 6.66226564E-05 7.98666154E-06 3.14293184E-06
 9  2 0.00000000E+00-1.30568656E-05-2.70313749E-04 0.00000000E+00-1.80664427E-06
 9  3 5.70780300E-06-1.16149376E-06-1.31289772E-05 0.00000000E+00 0.00000000E+00
 9  4 1.28084493E-03-7.14470244E-06 7.92664845E-05 2.23671386E-05-2.32195893E-05
 9  5 0.00000000E+00-2.46262679E-04 2.24173855E-04 0.00000000E+00 2.68870609E-05
 9  6-5.57206674E-05 4.34578203E-06 6.96588326E-06 0.00000000E+00 0.00000000E+00
 9  7-4.90522171E-02-1.32269045E-05-6.78648027E-04-4.96340557E-04 4.73588448E-06
 9  8 0.00000000E+00 3.27033766E-04 1.56317834E-04 0.00000000E+00 3.57119660E-04
 9  9-4.93680775E-05 4.91988468E-05-4.03034377E-05 0.00000000E+00 0.00000000E+00
 9 10 5.39091813E-04 5.76664922E-05-1.00757332E-04-5.65943246E-06 2.26683848E-05
 9 11 0.00000000E+00-2.20534654E-05-4.48827105E-05 0.00000000E+00-3.14168177E-06
 9 12 1.97539298E-06 2.71998725E-05-7.81191579E-07 0.00000000E+00 0.00000000E+00
 9 13-1.54409052E-06 1.85389471E-06 3.94848034E-06-4.80976271E-06-3.03362715E-06
 9 14 0.00000000E+00-2.81888067E-05 2.26474357E-05 0.00000000E+00-7.24949751E-07
 9 15 1.52003058E-06-1.90539863E-06 3.16409913E-06 0.00000000E+00 0.00000000E+00
 9 16-1.93392171E-05-1.03505860E-05 2.20649109E-04-5.87927735E-06-2.29010309E-06
 9 17 0.00000000E+00 4.99313573E-05-2.15928582E-05 0.00000000E+00-4.94117104E-06
 9 18-1.13939783E-06-4.27779066E-06-2.10281495E-06 0.00000000E+00 0.00000000E+00
 9 19 9.97316419E-01 5.36273647E-03 8.87419378E-04 2.49840700E-04 1.14297848E-04
 9 20 0.00000000E+00 1.12093081E-04 4.53965303E-05 0.00000000E+00-8.86980581E-04
 9 21-7.97555373E-04-1.03849861E-03-1.13545927E-05 0.00000000E+00 0.00000000E+00
 9 22-1.45479845E-02 2.59948032E-04 3.81808677E-05 5.84159870E-05-6.71353823E-04
 9 23 0.00000000E+00 1.41120839E-04 8.79046050E-05 0.00000000E+00-1.75433571E-04
 9 24 3.83662454E-04-1.08060100E-05-4.77750784E-05 0.00000000E+00 0.00000000E+00
 9 25 2.84187380E-05 6.52050802E-05-2.42715064E-04-1.58338723E-05-1.30194966E-05
 9 26 0.00000000E+00 8.98203962E-05 3.02853247E-04 0.00000000E+00 4.06468702E-05
 9 27 2.94395802E-05 5.07157554E-05 1.69521822E-05 0.00000000E+00 0.00000000E+00
 9 28-4.56344120E-06-1.12468715E-04 4.99520024E-06-3.66983844E-06 0.00000000E+00
 9 29-5.26951273E-07 7.80798542E-05 1.61907857E-05 8.06039030E-06 0.00000000E+00
 9 30 6.29210363E-04 3.49525550E-05 2.29551382E-04 2.31618637E-04 0.00000000E+00
 9 31 1.65685057E-05 6.00052922E-05-9.98880873E-06-3.25593214E-05 0.00000000E+00
 9 32-8.72588849E-06-1.90121224E-04-3.69879495E-06 9.48342210E-06 0.00000000E+00
 9 33-2.74738051E-06-5.12578967E-05 2.38742265E-07 3.29976377E-07 0.00000000E+00
10  1-1.62369135E-02 3.17423646E-02 2.28518603E-02-6.99002354E-03 1.74233600E-02
10  2 0.00000000E+00 8.61107223E-03-8.49934256E-03 0.00000000E+00 1.52437435E-03
10  3 3.13146507E-03-7.68469605E-04 9.31246989E-04 0.00000000E+00 0.00000000E+00
10  4-1.78499493E-02 3.61508626E-02 9.43547185E-03-1.33841573E-03 1.99236875E-02
10  5 0.00000000E+00-8.46550193E-03-1.36979588E-02 0.00000000E+00 2.38618812E-03
10  6 2.62871708E-03-7.83547454E-04-7.11944022E-04 0.00000000E+00 0.00000000E+00
10  7-5.29234918E-02 9.98623343E-02 4.30355605E-02 6.12663840E-03 5.40198624E-02
10  8 0.00000000E+00 2.93034729E-02 6.94728400E-03 0.00000000E+00 5.57833809E-03
10  9 1.00122315E-02-3.30357034E-03 1.99720145E-03 0.00000000E+00 0.00000000E+00
10 10-1.15841391E-01 2.25770769E-01 6.06170768E-02-3.24168704E-02 4.32018821E-02
10 11 0.00000000E+00-1.77286460E-03-1.21454958E-02 0.00000000E+00 2.14576531E-02
10 12 7.14099230E-03-9.17467628E-03-7.89832328E-03 0.00000000E+00 0.00000000E+00
10 13-8.20046635E-02 1.68993483E-01 1.16609051E-01-4.93241041E-02-4.55352798E-02
10 14 0.00000000E+00-9.43287269E-03-3.95436921E-03 0.00000000E+00 8.89282084E-03
10 15 3.15456516E-03-3.30974357E-03 2.38174121E-04 0.00000000E+00 0.00000000E+00
10 16-3.84587232E-02 7.31578291E-02 2.87569190E-02-4.11299580E-02 3.08980600E-02
10 17 0.00000000E+00 1.05640909E-02 7.16165969E-04 0.00000000E+00 4.64149534E-03
10 18 5.08601531E-03-3.16672967E-03-6.55818976E-03 0.00000000E+00 0.00000000E+00
10 19-4.01105358E-02 7.31654105E-02 5.35812073E-02 2.85821751E-02 4.00627439E-02
10 20 0.00000000E+00 1.49426060E-03-1.88520126E-02 0.00000000E+00 4.04280590E-03
10 21 6.84858889E-03-2.85405714E-03 6.95053631E-04 0.00000000E+00 0.00000000E+00
10 22-7.29063780E-02 1.36063995E-01 7.18656166E-02 9.12380173E-02 1.19795669E-02
10 23 0.00000000E+00-1.63393515E-02 2.04167157E-03 0.00000000E+00 1.53434933E-02
10 24 3.52598773E-03-6.71474533E-03 6.83620493E-03 0.00000000E+00 0.00000000E+00
10 25-1.51558119E-01 3.15064807E-01 2.24679975E-01 9.04813840E-03-6.82337470E-02
10 26 0.00000000E+00 6.65346585E-03 1.42923207E-03 0.00000000E+00 1.24863252E-02
10 27 1.15289321E-02-4.37529460E-03-1.85749055E-03 0.00000000E+00 0.00000000E+00
10 28 4.51327566E-03-1.23942919E-02-1.84462960E-04-3.94419593E-06 0.00000000E+00
10 29 5.45108038E-03-1.12040168E-02 1.83821063E-04 8.42320991E-05 0.00000000E+00
10 30 9.21251610E-03-1.19063717E-02 1.22782995E-04 2.19440800E-04 0.00000000E+00
10 31 2.17783130E-02-8.35915958E-03 1.89624851E-03-9.38434914E-04 0.00000000E+00
10 32 7.06476631E-02 3.81280401E-03-1.63386579E-03-9.99852589E-03 0.00000000E+00
10 33 1.17017342E-02-6.38440288E-03-1.17006870E-03-1.25959565E-04 0.00000000E+00
11  1-4.34439216E-02 8.07227743E-02 5.32875134E-02-8.33162044E-03 4.61564386E-02
11  2 0.00000000E+00-1.84179609E-02-1.13541923E-02 0.00000000E+00 2.80678453E-03
11  3 7.91810488E-03-2.66893234E-03 1.70165177E-03 0.00000000E+00 0.00000000E+00
11  4-2.70615592E-02 4.99768102E-02 4.84850078E-02 1.98626499E-02 2.19907779E-02
11  5 0.00000000E+00-3.83067740E-02-8.50827341E-03 0.00000000E+00 3.65057607E-03
11  6 2.02319356E-03-1.72608590E-03 5.75396921E-04 0.00000000E+00 0.00000000E+00
11  7-7.20892062E-03 1.49148635E-02 8.41258571E-03 4.84531351E-02-1.33811325E-02
11  8 0.00000000E+00-2.62016147E-02 4.95035019E-02 0.00000000E+00 6.13594784E-04
11  9 1.33724370E-03-9.90691776E-05 1.95722349E-03 0.00000000E+00 0.00000000E+00
11 10-3.78289673E-02 7.61693948E-02-7.66994869E-03 1.85316991E-01-3.97652063E-02
11 11 0.00000000E+00 5.69876225E-04-1.18878677E-02 0.00000000E+00 1.34969998E-02
11 12-6.82711522E-03-2.19207083E-03 1.07072327E-02 0.00000000E+00 0.00000000E+00