!   Ethene...test case from Noriyuki... April 2011
!   state averaged MCSCF geometry optimization
!
!   NSERCH:   0  E=      -78.0565319681  R.M.S.=  0.0104451
!   NSERCH:   1  E=      -78.0571239235  R.M.S.=  0.0020514
!   NSERCH:   2  E=      -78.0572322065  R.M.S.=  0.0006537
!   NSERCH:   3  E=      -78.0572432730  R.M.S.=  0.0000644
!   NSERCH:   4  E=      -78.0572426700  R.M.S.=  0.0000031
!
!   This run takes 19 seconds on 2.66 GHz Cloverton (26 April 2015)
!   results are little changed since 2011
!
 $CONTRL RUNTYP=OPTIMIZE SCFTYP=MCSCF $END
 $SYSTEM parall=.true. MWORDS=10 MEMDDI=5 $END
 $trans  dirtrf=.true. $end
 $GUESS  GUESS=MOREAD NORB=50 $END
 $BASIS  GBASIS=N31 NGAUSS=6 NDFUNC=1 NPFUNC=1 $END
 $MCSCF  CISTEP=ALDET FULLNR=.True. $END
 $DET    GROUP=C1 NCORE=7 NELS=2 NACT=2 IROOT=1 NSTATE=4 WSTATE(1)=1,1  $END
 $cpmchf gcro=.true. $end
 $DATA  
Ethene Gas SA-2-CAS(2,2)/6-31G(d,p) S0 Geom. Opt.
Dnh 2

C           6.0   0.0000000000   0.0000000000  -0.6582291147
H           1.0  -0.9154088112   0.0000000000  -1.2245496525
 $END

--- OPTIMIZED RHF      MO-S --- GENERATED AT Wed Jan  5 01:38:49 2011
E=      -78.0388414544, E(NUC)=   33.6922712363
 $VEC   
 1  1-7.03747668E-01-1.91569020E-02 0.00000000E+00 0.00000000E+00-1.78955364E-04
 1  2 5.24656992E-03 0.00000000E+00 0.00000000E+00 6.62923737E-04 1.57226560E-03
 1  3 1.85561855E-03 1.21869918E-03 0.00000000E+00 0.00000000E+00 0.00000000E+00
 1  4-7.03747668E-01-1.91569020E-02 0.00000000E+00 0.00000000E+00 1.78955364E-04
 1  5 5.24656992E-03 0.00000000E+00 0.00000000E+00-6.62923737E-04 1.57226560E-03
 1  6 1.85561855E-03 1.21869918E-03 0.00000000E+00 0.00000000E+00 0.00000000E+00
 1  7 1.74316034E-04-1.42825868E-03-1.02280220E-04 0.00000000E+00-2.99931065E-05
 1  8 1.74316034E-04-1.42825868E-03 1.02280220E-04 0.00000000E+00 2.99931065E-05
 1  9 1.74316034E-04-1.42825868E-03-1.02280220E-04 0.00000000E+00 2.99931065E-05
 1 10 1.74316034E-04-1.42825868E-03 1.02280220E-04 0.00000000E+00-2.99931065E-05
 2  1 7.04265765E-01 1.96110351E-02 0.00000000E+00 0.00000000E+00-8.30265124E-05
 2  2-1.11482247E-02 0.00000000E+00 0.00000000E+00 1.85133593E-03-9.22843696E-04
 2  3-1.75590132E-03-7.72786231E-04 0.00000000E+00 0.00000000E+00 0.00000000E+00
 2  4-7.04265765E-01-1.96110351E-02 0.00000000E+00 0.00000000E+00-8.30265124E-05
 2  5 1.11482247E-02 0.00000000E+00 0.00000000E+00 1.85133593E-03 9.22843696E-04
 2  6 1.75590132E-03 7.72786231E-04 0.00000000E+00 0.00000000E+00 0.00000000E+00
 2  7 1.88232986E-04-1.38069097E-03-2.51388265E-04 0.00000000E+00 1.35022289E-04
 2  8-1.88232986E-04 1.38069097E-03-2.51388265E-04 0.00000000E+00 1.35022289E-04
 2  9-1.88232986E-04 1.38069097E-03 2.51388265E-04 0.00000000E+00 1.35022289E-04
 2 10 1.88232986E-04-1.38069097E-03 2.51388265E-04 0.00000000E+00 1.35022289E-04
 3  1 1.58460006E-01-2.99918361E-01 0.00000000E+00 0.00000000E+00 1.12331512E-01
 3  2-2.21944931E-01 0.00000000E+00 0.00000000E+00 9.21322701E-03 4.66935213E-03
 3  3 1.28597922E-02-1.43492511E-02 0.00000000E+00 0.00000000E+00 0.00000000E+00
 3  4 1.58460006E-01-2.99918361E-01 0.00000000E+00 0.00000000E+00-1.12331512E-01
 3  5-2.21944931E-01 0.00000000E+00 0.00000000E+00-9.21322701E-03 4.66935213E-03
 3  6 1.28597922E-02-1.43492511E-02 0.00000000E+00 0.00000000E+00 0.00000000E+00
 3  7-8.55229994E-02-2.05729922E-02 7.49298205E-03 0.00000000E+00-5.87135594E-03
 3  8-8.55229994E-02-2.05729922E-02-7.49298205E-03 0.00000000E+00 5.87135594E-03
 3  9-8.55229994E-02-2.05729922E-02 7.49298205E-03 0.00000000E+00 5.87135594E-03
 3 10-8.55229994E-02-2.05729922E-02-7.49298205E-03 0.00000000E+00-5.87135594E-03
 4  1-1.19975869E-01 2.34176911E-01 0.00000000E+00 0.00000000E+00 1.64670129E-01
 4  2 2.28382491E-01 0.00000000E+00 0.00000000E+00 5.76472638E-02 1.33719642E-02
 4  3-1.05111327E-02-4.60230929E-03 0.00000000E+00 0.00000000E+00 0.00000000E+00
 4  4 1.19975869E-01-2.34176911E-01 0.00000000E+00 0.00000000E+00 1.64670129E-01
 4  5-2.28382491E-01 0.00000000E+00 0.00000000E+00 5.76472638E-02-1.33719642E-02
 4  6 1.05111327E-02 4.60230929E-03 0.00000000E+00 0.00000000E+00 0.00000000E+00
 4  7-1.49817449E-01-7.59521129E-02 1.03908685E-02 0.00000000E+00-4.66046022E-03
 4  8 1.49817449E-01 7.59521129E-02 1.03908685E-02 0.00000000E+00-4.66046022E-03
 4  9 1.49817449E-01 7.59521129E-02-1.03908685E-02 0.00000000E+00-4.66046022E-03
 4 10-1.49817449E-01-7.59521129E-02-1.03908685E-02 0.00000000E+00-4.66046022E-03
 5  1 0.00000000E+00 0.00000000E+00 3.16594754E-01 0.00000000E+00 0.00000000E+00
 5  2 0.00000000E+00 1.20643807E-01 0.00000000E+00 0.00000000E+00 0.00000000E+00
 5  3 0.00000000E+00 0.00000000E+00 0.00000000E+00 7.32113602E-03 0.00000000E+00
 5  4 0.00000000E+00 0.00000000E+00 3.16594754E-01 0.00000000E+00 0.00000000E+00
 5  5 0.00000000E+00 1.20643807E-01 0.00000000E+00 0.00000000E+00 0.00000000E+00
 5  6 0.00000000E+00 0.00000000E+00 0.00000000E+00-7.32113602E-03 0.00000000E+00
 5  7 1.59264959E-01 1.15850353E-01-6.30289714E-03 0.00000000E+00 6.55178747E-03
 5  8-1.59264959E-01-1.15850353E-01-6.30289714E-03 0.00000000E+00 6.55178747E-03
 5  9 1.59264959E-01 1.15850353E-01-6.30289714E-03 0.00000000E+00-6.55178747E-03
 5 10-1.59264959E-01-1.15850353E-01-6.30289714E-03 0.00000000E+00-6.55178747E-03
 6  1-1.20124286E-02 2.72572210E-02 0.00000000E+00 0.00000000E+00-4.06327127E-01
 6  2-7.70460961E-03 0.00000000E+00 0.00000000E+00-1.46973633E-01-2.35613209E-02
 6  3 1.17352578E-03 1.37914001E-02 0.00000000E+00 0.00000000E+00 0.00000000E+00
 6  4-1.20124286E-02 2.72572210E-02 0.00000000E+00 0.00000000E+00 4.06327127E-01
 6  5-7.70460961E-03 0.00000000E+00 0.00000000E+00 1.46973633E-01-2.35613209E-02
 6  6 1.17352578E-03 1.37914001E-02 0.00000000E+00 0.00000000E+00 0.00000000E+00
 6  7-1.26170449E-01-1.05846214E-01 6.78527355E-03 0.00000000E+00 2.10752852E-03
 6  8-1.26170449E-01-1.05846214E-01-6.78527355E-03 0.00000000E+00-2.10752852E-03
 6  9-1.26170449E-01-1.05846214E-01 6.78527355E-03 0.00000000E+00-2.10752852E-03
 6 10-1.26170449E-01-1.05846214E-01-6.78527355E-03 0.00000000E+00 2.10752852E-03
 7  1 0.00000000E+00 0.00000000E+00-3.00049867E-01 0.00000000E+00 0.00000000E+00
 7  2 0.00000000E+00-1.81285375E-01 0.00000000E+00 0.00000000E+00 0.00000000E+00
 7  3 0.00000000E+00 0.00000000E+00 0.00000000E+00-3.17149086E-02 0.00000000E+00
 7  4 0.00000000E+00 0.00000000E+00 3.00049867E-01 0.00000000E+00 0.00000000E+00
 7  5 0.00000000E+00 1.81285375E-01 0.00000000E+00 0.00000000E+00 0.00000000E+00
 7  6 0.00000000E+00 0.00000000E+00 0.00000000E+00-3.17149086E-02 0.00000000E+00
 7  7 1.91626167E-01 1.67129290E-01-5.63750457E-03 0.00000000E+00 5.09142194E-03
 7  8 1.91626167E-01 1.67129290E-01 5.63750457E-03 0.00000000E+00-5.09142194E-03
 7  9-1.91626167E-01-1.67129290E-01 5.63750457E-03 0.00000000E+00 5.09142194E-03
 7 10-1.91626167E-01-1.67129290E-01-5.63750457E-03 0.00000000E+00-5.09142194E-03
 8  1 0.00000000E+00 0.00000000E+00 0.00000000E+00 3.74608909E-01 0.00000000E+00
 8  2 0.00000000E+00 0.00000000E+00 3.01214309E-01 0.00000000E+00 0.00000000E+00
 8  3 0.00000000E+00 0.00000000E+00 0.00000000E+00 0.00000000E+00-2.66839213E-02
 8  4 0.00000000E+00 0.00000000E+00 0.00000000E+00 3.74608909E-01 0.00000000E+00
 8  5 0.00000000E+00 0.00000000E+00 3.01214309E-01 0.00000000E+00 0.00000000E+00
 8  6 0.00000000E+00 0.00000000E+00 0.00000000E+00 0.00000000E+00 2.66839213E-02
 8  7 0.00000000E+00 0.00000000E+00 0.00000000E+00 8.41214958E-03 0.00000000E+00
 8  8 0.00000000E+00 0.00000000E+00 0.00000000E+00 8.41214958E-03 0.00000000E+00
 8  9 0.00000000E+00 0.00000000E+00 0.00000000E+00 8.41214958E-03 0.00000000E+00
 8 10 0.00000000E+00 0.00000000E+00 0.00000000E+00 8.41214958E-03 0.00000000E+00
 9  1 0.00000000E+00 0.00000000E+00 0.00000000E+00 3.39841041E-01 0.00000000E+00
 9  2 0.00000000E+00 0.00000000E+00 7.36559623E-01 0.00000000E+00 0.00000000E+00
 9  3 0.00000000E+00 0.00000000E+00 0.00000000E+00 0.00000000E+00 2.20455931E-02
 9  4 0.00000000E+00 0.00000000E+00 0.00000000E+00-3.39841041E-01 0.00000000E+00
 9  5 0.00000000E+00 0.00000000E+00-7.36559623E-01 0.00000000E+00 0.00000000E+00
 9  6 0.00000000E+00 0.00000000E+00 0.00000000E+00 0.00000000E+00 2.20455931E-02
 9  7 0.00000000E+00 0.00000000E+00 0.00000000E+00-1.40362195E-02 0.00000000E+00
 9  8 0.00000000E+00 0.00000000E+00 0.00000000E+00 1.40362195E-02 0.00000000E+00
 9  9 0.00000000E+00 0.00000000E+00 0.00000000E+00 1.40362195E-02 0.00000000E+00
 9 10 0.00000000E+00 0.00000000E+00 0.00000000E+00-1.40362195E-02 0.00000000E+00
10  1-7.74735629E-02 7.91982731E-02 0.00000000E+00 0.00000000E+00 1.44822497E-01
10  2 1.50178794E+00 0.00000000E+00 0.00000000E+00 6.51352070E-01-6.89953883E-03
10  3-4.68371016E-03 4.23833951E-03 0.00000000E+00 0.00000000E+00 0.00000000E+00
10  4-7.74735629E-02 7.91982731E-02 0.00000000E+00 0.00000000E+00-1.44822497E-01
10  5 1.50178794E+00 0.00000000E+00 0.00000000E+00-6.51352070E-01-6.89953883E-03
10  6-4.68371016E-03 4.23833951E-03 0.00000000E+00 0.00000000E+00 0.00000000E+00
10  7-1.27514476E-02-1.04222236E+00 8.52358383E-05 0.00000000E+00-6.67875614E-03
10  8-1.27514476E-02-1.04222236E+00-8.52358383E-05 0.00000000E+00 6.67875614E-03
10  9-1.27514476E-02-1.04222236E+00 8.52358383E-05 0.00000000E+00 6.67875614E-03
10 10-1.27514476E-02-1.04222236E+00-8.52358383E-05 0.00000000E+00-6.67875614E-03
11  1 0.00000000E+00 0.00000000E+00-2.52600374E-01 0.00000000E+00 0.00000000E+00
11  2 0.00000000E+00-8.03927449E-01 0.00000000E+00 0.00000000E+00 0.00000000E+00
11  3 0.00000000E+00 0.00000000E+00 0.00000000E+00 2.17766473E-02 0.00000000E+00
11  4 0.00000000E+00 0.00000000E+00-2.52600374E-01 0.00000000E+00 0.00000000E+00
11  5 0.00000000E+00-8.03927449E-01 0.00000000E+00 0.00000000E+00 0.00000000E+00
11  6 0.00000000E+00 0.00000000E+00 0.00000000E+00-2.17766473E-02 0.00000000E+00
11  7 4.03856124E-02 1.10053453E+00-3.17815475E-03 0.00000000E+00-3.33019803E-03
11  8-4.03856124E-02-1.10053453E+00-3.17815475E-03 0.00000000E+00-3.33019803E-03
11  9 4.03856124E-02 1.10053453E+00-3.17815475E-03 0.00000000E+00 3.33019803E-03
11 10-4.03856124E-02-1.10053453E+00-3.17815475E-03 0.00000000E+00 3.33019803E-03
12  1-1.07703694E-01 9.91383415E-02 0.00000000E+00 0.00000000E+00 1.00999116E-01
12  2 1.96361466E+00 0.00000000E+00 0.00000000E+00 1.59799692E-01 2.31396526E-03
12  3-1.15074982E-02-3.37867344E-03 0.00000000E+00 0.00000000E+00 0.00000000E+00
12  4 1.07703694E-01-9.91383415E-02 0.00000000E+00 0.00000000E+00 1.00999116E-01
12  5-1.96361466E+00 0.00000000E+00 0.00000000E+00 1.59799692E-01-2.31396526E-03
12  6 1.15074982E-02 3.37867344E-03 0.00000000E+00 0.00000000E+00 0.00000000E+00
12  7 1.46231227E-02 1.08773533E+00-1.52382160E-03 0.00000000E+00 4.39006023E-04
12  8-1.46231227E-02-1.08773533E+00-1.52382160E-03 0.00000000E+00 4.39006023E-04
12  9-1.46231227E-02-1.08773533E+00 1.52382160E-03 0.00000000E+00 4.39006023E-04
12 10 1.46231227E-02 1.08773533E+00 1.52382160E-03 0.00000000E+00 4.39006023E-04
13  1 0.00000000E+00 0.00000000E+00 2.47950589E-01 0.00000000E+00 0.00000000E+00
13  2 0.00000000E+00 1.95124826E+00 0.00000000E+00 0.00000000E+00 0.00000000E+00
13  3 0.00000000E+00 0.00000000E+00 0.00000000E+00 2.47436422E-02 0.00000000E+00
13  4 0.00000000E+00 0.00000000E+00-2.47950589E-01 0.00000000E+00 0.00000000E+00
13  5 0.00000000E+00-1.95124826E+00 0.00000000E+00 0.00000000E+00 0.00000000E+00
13  6 0.00000000E+00 0.00000000E+00 0.00000000E+00 2.47436422E-02 0.00000000E+00
13  7-3.91986496E-02 1.66688093E+00-6.84454656E-03 0.00000000E+00 8.71262137E-03
13  8-3.91986496E-02 1.66688093E+00 6.84454656E-03 0.00000000E+00-8.71262137E-03
13  9 3.91986496E-02-1.66688093E+00 6.84454656E-03 0.00000000E+00 8.71262137E-03
13 10 3.91986496E-02-1.66688093E+00-6.84454656E-03 0.00000000E+00-8.71262137E-03
14  1-6.55685753E-02 5.98369340E-04 0.00000000E+00 0.00000000E+00-1.27038183E-01
14  2 3.18828654E+00 0.00000000E+00 0.00000000E+00-3.02509567E+00 2.41837001E-02
14  3-1.18886129E-02 5.39331324E-03 0.00000000E+00 0.00000000E+00 0.00000000E+00
14  4 6.55685753E-02-5.98369340E-04 0.00000000E+00 0.00000000E+00-1.27038183E-01
14  5-3.18828654E+00 0.00000000E+00 0.00000000E+00-3.02509567E+00-2.41837001E-02
14  6 1.18886129E-02-5.39331324E-03 0.00000000E+00 0.00000000E+00 0.00000000E+00
14  7-8.07239317E-02-5.84399507E-01-6.23946208E-03 0.00000000E+00-6.03953428E-03
14  8 8.07239317E-02 5.84399507E-01-6.23946208E-03 0.00000000E+00-6.03953428E-03
14  9 8.07239317E-02 5.84399507E-01 6.23946208E-03 0.00000000E+00-6.03953428E-03
14 10-8.07239317E-02-5.84399507E-01 6.23946208E-03 0.00000000E+00-6.03953428E-03
15  1 2.40977672E-02 2.12255067E-01 0.00000000E+00 0.00000000E+00-5.34955500E-01
15  2 1.80729881E-01 0.00000000E+00 0.00000000E+00 1.01855876E+00-6.47624829E-03
15  3 1.32300591E-03 7.97284167E-02 0.00000000E+00 0.00000000E+00 0.00000000E+00
15  4 2.40977672E-02 2.12255067E-01 0.00000000E+00 0.00000000E+00 5.34955500E-01
15  5 1.80729881E-01 0.00000000E+00 0.00000000E+00-1.01855876E+00-6.47624829E-03
15  6 1.32300591E-03 7.97284167E-02 0.00000000E+00 0.00000000E+00 0.00000000E+00
15  7-9.49875311E-02-6.15411155E-02 8.72944331E-03 0.00000000E+00-3.13592507E-02
15  8-9.49875311E-02-6.15411155E-02-8.72944331E-03 0.00000000E+00 3.13592507E-02
15  9-9.49875311E-02-6.15411155E-02 8.72944331E-03 0.00000000E+00 3.13592507E-02
15 10-9.49875311E-02-6.15411155E-02-8.72944331E-03 0.00000000E+00-3.13592507E-02
16  1 0.00000000E+00 0.00000000E+00-3.94507603E-01 0.00000000E+00 0.00000000E+00
16  2 0.00000000E+00 7.70548930E-01 0.00000000E+00 0.00000000E+00 0.00000000E+00
16  3 0.00000000E+00 0.00000000E+00 0.00000000E+00-8.30188115E-02 0.00000000E+00
16  4 0.00000000E+00 0.00000000E+00-3.94507603E-01 0.00000000E+00 0.00000000E+00
16  5 0.00000000E+00 7.70548930E-01 0.00000000E+00 0.00000000E+00 0.00000000E+00
16  6 0.00000000E+00 0.00000000E+00 0.00000000E+00 8.30188115E-02 0.00000000E+00
16  7-3.85755001E-01-7.47447002E-02 2.39317864E-02 0.00000000E+00 2.02709006E-02
16  8 3.85755001E-01 7.47447002E-02 2.39317864E-02 0.00000000E+00 2.02709006E-02
16  9-3.85755001E-01-7.47447002E-02 2.39317864E-02 0.00000000E+00-2.02709006E-02
16 10 3.85755001E-01 7.47447002E-02 2.39317864E-02 0.00000000E+00-2.02709006E-02
17  1 0.00000000E+00 0.00000000E+00 0.00000000E+00 7.35143705E-01 0.00000000E+00
17  2 0.00000000E+00 0.00000000E+00-6.41131644E-01 0.00000000E+00 0.00000000E+00
17  3 0.00000000E+00 0.00000000E+00 0.00000000E+00 0.00000000E+00-6.99378882E-02
17  4 0.00000000E+00 0.00000000E+00 0.00000000E+00 7.35143705E-01 0.00000000E+00
17  5 0.00000000E+00 0.00000000E+00-6.41131644E-01 0.00000000E+00 0.00000000E+00
17  6 0.00000000E+00 0.00000000E+00 0.00000000E+00 0.00000000E+00 6.99378882E-02
17  7 0.00000000E+00 0.00000000E+00 0.00000000E+00 6.08572838E-03 0.00000000E+00
17  8 0.00000000E+00 0.00000000E+00 0.00000000E+00 6.08572838E-03 0.00000000E+00
17  9 0.00000000E+00 0.00000000E+00 0.00000000E+00 6.08572838E-03 0.00000000E+00
17 10 0.00000000E+00 0.00000000E+00 0.00000000E+00 6.08572838E-03 0.00000000E+00
18  1-4.17397669E-02-7.69030342E-01 0.00000000E+00 0.00000000E+00 2.75422352E-03
18  2 1.50494211E+00 0.00000000E+00 0.00000000E+00 3.60489170E-01-1.73073026E-01
18  3 4.27371707E-02-9.55093037E-02 0.00000000E+00 0.00000000E+00 0.00000000E+00
18  4-4.17397669E-02-7.69030342E-01 0.00000000E+00 0.00000000E+00-2.75422352E-03
18  5 1.50494211E+00 0.00000000E+00 0.00000000E+00-3.60489170E-01-1.73073026E-01
18  6 4.27371707E-02-9.55093037E-02 0.00000000E+00 0.00000000E+00 0.00000000E+00
18  7-3.83031349E-01-2.37699510E-01-2.15128160E-02 0.00000000E+00 5.15659653E-03
18  8-3.83031349E-01-2.37699510E-01 2.15128160E-02 0.00000000E+00-5.15659653E-03
18  9-3.83031349E-01-2.37699510E-01-2.15128160E-02 0.00000000E+00-5.15659653E-03
18 10-3.83031349E-01-2.37699510E-01 2.15128160E-02 0.00000000E+00 5.15659653E-03
19  1 0.00000000E+00 0.00000000E+00 0.00000000E+00-8.18843950E-01 0.00000000E+00
19  2 0.00000000E+00 0.00000000E+00 1.09336800E+00 0.00000000E+00 0.00000000E+00
19  3 0.00000000E+00 0.00000000E+00 0.00000000E+00 0.00000000E+00-3.42994604E-02
19  4 0.00000000E+00 0.00000000E+00 0.00000000E+00 8.18843950E-01 0.00000000E+00
19  5 0.00000000E+00 0.00000000E+00-1.09336800E+00 0.00000000E+00 0.00000000E+00
19  6 0.00000000E+00 0.00000000E+00 0.00000000E+00 0.00000000E+00-3.42994604E-02
19  7 0.00000000E+00 0.00000000E+00 0.00000000E+00 1.40902760E-02 0.00000000E+00
19  8 0.00000000E+00 0.00000000E+00 0.00000000E+00-1.40902760E-02 0.00000000E+00
19  9 0.00000000E+00 0.00000000E+00 0.00000000E+00-1.40902760E-02 0.00000000E+00
19 10 0.00000000E+00 0.00000000E+00 0.00000000E+00 1.40902760E-02 0.00000000E+00
20  1 9.75229124E-02 8.27164062E-02 0.00000000E+00 0.00000000E+00 5.81857327E-01
20  2-1.13156238E+00 0.00000000E+00 0.00000000E+00-3.78954496E-01 6.22376575E-02
20  3-9.33425514E-02 1.86778641E-01 0.00000000E+00 0.00000000E+00 0.00000000E+00
20  4-9.75229124E-02-8.27164062E-02 0.00000000E+00 0.00000000E+00 5.81857327E-01
20  5 1.13156238E+00 0.00000000E+00 0.00000000E+00-3.78954496E-01-6.22376575E-02
20  6 9.33425514E-02-1.86778641E-01 0.00000000E+00 0.00000000E+00 0.00000000E+00
20  7-3.83360908E-01-1.06027233E-01-1.03604266E-03 0.00000000E+00 2.22987267E-02
20  8 3.83360908E-01 1.06027233E-01-1.03604266E-03 0.00000000E+00 2.22987267E-02
20  9 3.83360908E-01 1.06027233E-01 1.03604266E-03 0.00000000E+00 2.22987267E-02
20 10-3.83360908E-01-1.06027233E-01 1.03604266E-03 0.00000000E+00 2.22987267E-02
21  1 0.00000000E+00 0.00000000E+00 6.16295577E-01 0.00000000E+00 0.00000000E+00
21  2 0.00000000E+00-1.12971164E+00 0.00000000E+00 0.00000000E+00 0.00000000E+00
21  3 0.00000000E+00 0.00000000E+00 0.00000000E+00-2.24647038E-01 0.00000000E+00
21  4 0.00000000E+00 0.00000000E+00 6.16295577E-01 0.00000000E+00 0.00000000E+00
21  5 0.00000000E+00-1.12971164E+00 0.00000000E+00 0.00000000E+00 0.00000000E+00
21  6 0.00000000E+00 0.00000000E+00 0.00000000E+00 2.24647038E-01 0.00000000E+00
21  7-3.63130176E-01 1.11287249E+00-6.75794304E-02 0.00000000E+00 4.46098530E-02
21  8 3.63130176E-01-1.11287249E+00-6.75794304E-02 0.00000000E+00 4.46098530E-02
21  9-3.63130176E-01 1.11287249E+00-6.75794304E-02 0.00000000E+00-4.46098530E-02
21 10 3.63130176E-01-1.11287249E+00-6.75794304E-02 0.00000000E+00-4.46098530E-02
22  1 0.00000000E+00 0.00000000E+00-8.43124778E-01 0.00000000E+00 0.00000000E+00
22  2 0.00000000E+00 2.93150965E+00 0.00000000E+00 0.00000000E+00 0.00000000E+00
22  3 0.00000000E+00 0.00000000E+00 0.00000000E+00 6.00567025E-02 0.00000000E+00
22  4 0.00000000E+00 0.00000000E+00 8.43124778E-01 0.00000000E+00 0.00000000E+00
22  5 0.00000000E+00-2.93150965E+00 0.00000000E+00 0.00000000E+00 0.00000000E+00
22  6 0.00000000E+00 0.00000000E+00 0.00000000E+00 6.00567025E-02 0.00000000E+00
22  7-1.44295645E-01 1.54476050E+00-7.08117245E-02 0.00000000E+00 6.90054011E-02
22  8-1.44295645E-01 1.54476050E+00 7.08117245E-02 0.00000000E+00-6.90054011E-02
22  9 1.44295645E-01-1.54476050E+00 7.08117245E-02 0.00000000E+00 6.90054011E-02
22 10 1.44295645E-01-1.54476050E+00-7.08117245E-02 0.00000000E+00-6.90054011E-02
23  1-1.85989298E-02 9.35438281E-01 0.00000000E+00 0.00000000E+00 3.26557177E-01
23  2-1.82093798E+00 0.00000000E+00 0.00000000E+00-5.40853170E-01-1.15469634E-01
23  3 1.10654346E-01 8.00627635E-02 0.00000000E+00 0.00000000E+00 0.00000000E+00
23  4-1.85989298E-02 9.35438281E-01 0.00000000E+00 0.00000000E+00-3.26557177E-01
23  5-1.82093798E+00 0.00000000E+00 0.00000000E+00 5.40853170E-01-1.15469634E-01
23  6 1.10654346E-01 8.00627635E-02 0.00000000E+00 0.00000000E+00 0.00000000E+00
23  7-4.11526592E-01 9.15518329E-01-8.44906524E-02 0.00000000E+00 1.40209971E-02
23  8-4.11526592E-01 9.15518329E-01 8.44906524E-02 0.00000000E+00-1.40209971E-02
23  9-4.11526592E-01 9.15518329E-01-8.44906524E-02 0.00000000E+00-1.40209971E-02
23 10-4.11526592E-01 9.15518329E-01 8.44906524E-02 0.00000000E+00 1.40209971E-02
24  1 1.93018700E-02-6.07145906E-01 0.00000000E+00 0.00000000E+00-5.37624151E-01
24  2 1.02734076E+00 0.00000000E+00 0.00000000E+00 1.14687152E+00 1.48122144E-01
24  3-9.83309404E-02-1.05519490E-01 0.00000000E+00 0.00000000E+00 0.00000000E+00
24  4-1.93018700E-02 6.07145906E-01 0.00000000E+00 0.00000000E+00-5.37624151E-01
24  5-1.02734076E+00 0.00000000E+00 0.00000000E+00 1.14687152E+00-1.48122144E-01
24  6 9.83309404E-02 1.05519490E-01 0.00000000E+00 0.00000000E+00 0.00000000E+00
24  7-4.28319690E-01 1.06724519E+00-8.65027607E-02 0.00000000E+00 1.53494043E-02
24  8 4.28319690E-01-1.06724519E+00-8.65027607E-02 0.00000000E+00 1.53494043E-02
24  9 4.28319690E-01-1.06724519E+00 8.65027607E-02 0.00000000E+00 1.53494043E-02
24 10-4.28319690E-01 1.06724519E+00 8.65027607E-02 0.00000000E+00 1.53494043E-02
25  1-3.13029284E-02-1.43481003E+00 0.00000000E+00 0.00000000E+00 3.62891469E-01
25  2 5.63784127E+00 0.00000000E+00 0.00000000E+00-2.18304648E+00-2.00075609E-01
25  3-5.65263015E-02 7.89986671E-02 0.00000000E+00 0.00000000E+00 0.00000000E+00
25  4 3.13029284E-02 1.43481003E+00 0.00000000E+00 0.00000000E+00 3.62891469E-01
25  5-5.63784127E+00 0.00000000E+00 0.00000000E+00-2.18304648E+00 2.00075609E-01
25  6 5.65263015E-02-7.89986671E-02 0.00000000E+00 0.00000000E+00 0.00000000E+00
25  7 1.58437525E-01 2.35536407E-01-4.90517862E-03 0.00000000E+00 3.05092600E-02
25  8-1.58437525E-01-2.35536407E-01-4.90517862E-03 0.00000000E+00 3.05092600E-02
25  9-1.58437525E-01-2.35536407E-01 4.90517862E-03 0.00000000E+00 3.05092600E-02
25 10 1.58437525E-01 2.35536407E-01 4.90517862E-03 0.00000000E+00 3.05092600E-02
26  1 0.00000000E+00 0.00000000E+00 1.05597721E-01 0.00000000E+00 0.00000000E+00
26  2 0.00000000E+00-2.53979428E+00 0.00000000E+00 0.00000000E+00 0.00000000E+00
26  3 0.00000000E+00 0.00000000E+00 0.00000000E+00 1.85447274E-01 0.00000000E+00
26  4 0.00000000E+00 0.00000000E+00-1.05597721E-01 0.00000000E+00 0.00000000E+00
26  5 0.00000000E+00 2.53979428E+00 0.00000000E+00 0.00000000E+00 0.00000000E+00
26  6 0.00000000E+00 0.00000000E+00 0.00000000E+00 1.85447274E-01 0.00000000E+00
26  7-6.39690470E-01-6.77234032E-01 2.02761656E-02 0.00000000E+00 9.22766916E-02
26  8-6.39690470E-01-6.77234032E-01-2.02761656E-02 0.00000000E+00-9.22766916E-02
26  9 6.39690470E-01 6.77234032E-01-2.02761656E-02 0.00000000E+00 9.22766916E-02
26 10 6.39690470E-01 6.77234032E-01 2.02761656E-02 0.00000000E+00-9.22766916E-02
27  1 0.00000000E+00 0.00000000E+00 0.00000000E+00 0.00000000E+00 0.00000000E+00
27  2 0.00000000E+00 0.00000000E+00 0.00000000E+00 0.00000000E+00 0.00000000E+00
27  3 0.00000000E+00 0.00000000E+00-5.28624546E-01 0.00000000E+00 0.00000000E+00
27  4 0.00000000E+00 0.00000000E+00 0.00000000E+00 0.00000000E+00 0.00000000E+00
27  5 0.00000000E+00 0.00000000E+00 0.00000000E+00 0.00000000E+00 0.00000000E+00
27  6 0.00000000E+00 0.00000000E+00-5.28624546E-01 0.00000000E+00 0.00000000E+00
27  7 0.00000000E+00 0.00000000E+00 0.00000000E+00-2.06371741E-01 0.00000000E+00
27  8 0.00000000E+00 0.00000000E+00 0.00000000E+00 2.06371741E-01 0.00000000E+00
27  9 0.00000000E+00 0.00000000E+00 0.00000000E+00-2.06371741E-01 0.00000000E+00
27 10 0.00000000E+00 0.00000000E+00 0.00000000E+00 2.06371741E-01 0.00000000E+00
28  1 0.00000000E+00 0.00000000E+00 0.00000000E+00-1.63734169E-01 0.00000000E+00
28  2 0.00000000E+00 0.00000000E+00 8.36597131E-02 0.00000000E+00 0.00000000E+00
28  3 0.00000000E+00 0.00000000E+00 0.00000000E+00 0.00000000E+00-5.49120648E-01
28  4 0.00000000E+00 0.00000000E+00 0.00000000E+00-1.63734169E-01 0.00000000E+00
28  5 0.00000000E+00 0.00000000E+00 8.36597131E-02 0.00000000E+00 0.00000000E+00
28  6 0.00000000E+00 0.00000000E+00 0.00000000E+00 0.00000000E+00 5.49120648E-01
28  7 0.00000000E+00 0.00000000E+00 0.00000000E+00-1.50215042E-01 0.00000000E+00
28  8 0.00000000E+00 0.00000000E+00 0.00000000E+00-1.50215042E-01 0.00000000E+00
28  9 0.00000000E+00 0.00000000E+00 0.00000000E+00-1.50215042E-01 0.00000000E+00
28 10 0.00000000E+00 0.00000000E+00 0.00000000E+00-1.50215042E-01 0.00000000E+00
29  1 0.00000000E+00 0.00000000E+00 0.00000000E+00 0.00000000E+00 0.00000000E+00
29  2 0.00000000E+00 0.00000000E+00 0.00000000E+00 0.00000000E+00 0.00000000E+00
29  3 0.00000000E+00 0.00000000E+00 4.76552431E-01 0.00000000E+00 0.00000000E+00
29  4 0.00000000E+00 0.00000000E+00 0.00000000E+00 0.00000000E+00 0.00000000E+00
29  5 0.00000000E+00 0.00000000E+00 0.00000000E+00 0.00000000E+00 0.00000000E+00
29  6 0.00000000E+00 0.00000000E+00-4.76552431E-01 0.00000000E+00 0.00000000E+00
29  7 0.00000000E+00 0.00000000E+00 0.00000000E+00-2.79850107E-01 0.00000000E+00
29  8 0.00000000E+00 0.00000000E+00 0.00000000E+00-2.79850107E-01 0.00000000E+00
29  9 0.00000000E+00 0.00000000E+00 0.00000000E+00 2.79850107E-01 0.00000000E+00
29 10 0.00000000E+00 0.00000000E+00 0.00000000E+00 2.79850107E-01 0.00000000E+00
30  1-2.56086197E-02-2.47211387E-02 0.00000000E+00 0.00000000E+00-7.59725843E-02
30  2 5.54322799E-01 0.00000000E+00 0.00000000E+00 4.51957759E-01 5.12261389E-01
30  3-5.23217366E-01-1.03471933E-01 0.00000000E+00 0.00000000E+00 0.00000000E+00
30  4-2.56086197E-02-2.47211387E-02 0.00000000E+00 0.00000000E+00 7.59725843E-02
30  5 5.54322799E-01 0.00000000E+00 0.00000000E+00-4.51957759E-01 5.12261389E-01
30  6-5.23217366E-01-1.03471933E-01 0.00000000E+00 0.00000000E+00 0.00000000E+00
30  7-3.44689485E-01-1.05594075E-01-1.54000297E-02 0.00000000E+00 1.78241993E-01
30  8-3.44689485E-01-1.05594075E-01 1.54000297E-02 0.00000000E+00-1.78241993E-01
30  9-3.44689485E-01-1.05594075E-01-1.54000297E-02 0.00000000E+00-1.78241993E-01
30 10-3.44689485E-01-1.05594075E-01 1.54000297E-02 0.00000000E+00 1.78241993E-01
31  1 0.00000000E+00 0.00000000E+00 4.17744064E-02 0.00000000E+00 0.00000000E+00
31  2 0.00000000E+00 2.56420861E-01 0.00000000E+00 0.00000000E+00 0.00000000E+00
31  3 0.00000000E+00 0.00000000E+00 0.00000000E+00 4.94904834E-01 0.00000000E+00
31  4 0.00000000E+00 0.00000000E+00 4.17744064E-02 0.00000000E+00 0.00000000E+00
31  5 0.00000000E+00 2.56420861E-01 0.00000000E+00 0.00000000E+00 0.00000000E+00
31  6 0.00000000E+00 0.00000000E+00 0.00000000E+00-4.94904834E-01 0.00000000E+00
31  7-3.92692176E-01 7.21566376E-02-2.30727413E-01 0.00000000E+00-2.25780392E-02
31  8 3.92692176E-01-7.21566376E-02-2.30727413E-01 0.00000000E+00-2.25780392E-02
31  9-3.92692176E-01 7.21566376E-02-2.30727413E-01 0.00000000E+00 2.25780392E-02
31 10 3.92692176E-01-7.21566376E-02-2.30727413E-01 0.00000000E+00 2.25780392E-02
32  1-3.49408075E-02-4.05320214E-01 0.00000000E+00 0.00000000E+00 2.51100900E-01
32  2 3.06203243E-01 0.00000000E+00 0.00000000E+00-4.61251567E-01-1.75369542E-01
32  3-5.41627114E-01 4.86717903E-01 0.00000000E+00 0.00000000E+00 0.00000000E+00
32  4-3.49408075E-02-4.05320214E-01 0.00000000E+00 0.00000000E+00-2.51100900E-01
32  5 3.06203243E-01 0.00000000E+00 0.00000000E+00 4.61251567E-01-1.75369542E-01
32  6-5.41627114E-01 4.86717903E-01 0.00000000E+00 0.00000000E+00 0.00000000E+00
32  7 1.14989074E-02-2.58605427E-02-1.24488029E-01 0.00000000E+00-1.71825999E-01
32  8 1.14989074E-02-2.58605427E-02 1.24488029E-01 0.00000000E+00 1.71825999E-01
32  9 1.14989074E-02-2.58605427E-02-1.24488029E-01 0.00000000E+00 1.71825999E-01
32 10 1.14989074E-02-2.58605427E-02 1.24488029E-01 0.00000000E+00-1.71825999E-01
33  1 0.00000000E+00 0.00000000E+00 1.46822418E-01 0.00000000E+00 0.00000000E+00
33  2 0.00000000E+00-1.44721154E+00 0.00000000E+00 0.00000000E+00 0.00000000E+00
33  3 0.00000000E+00 0.00000000E+00 0.00000000E+00-2.51746244E-01 0.00000000E+00
33  4 0.00000000E+00 0.00000000E+00-1.46822418E-01 0.00000000E+00 0.00000000E+00
33  5 0.00000000E+00 1.44721154E+00 0.00000000E+00 0.00000000E+00 0.00000000E+00
33  6 0.00000000E+00 0.00000000E+00 0.00000000E+00-2.51746244E-01 0.00000000E+00
33  7-3.61707520E-01-4.45945764E-01-3.18226184E-01 0.00000000E+00-2.96545284E-01
33  8-3.61707520E-01-4.45945764E-01 3.18226184E-01 0.00000000E+00 2.96545284E-01
33  9 3.61707520E-01 4.45945764E-01 3.18226184E-01 0.00000000E+00-2.96545284E-01
33 10 3.61707520E-01 4.45945764E-01-3.18226184E-01 0.00000000E+00 2.96545284E-01
34  1 5.35808315E-03 2.61977703E-01 0.00000000E+00 0.00000000E+00-2.03163458E-01
34  2 1.77984737E-01 0.00000000E+00 0.00000000E+00-6.27099115E-01-4.13729567E-01
34  3 4.05617893E-01 1.93205297E-01 0.00000000E+00 0.00000000E+00 0.00000000E+00
34  4-5.35808315E-03-2.61977703E-01 0.00000000E+00 0.00000000E+00-2.03163458E-01
34  5-1.77984737E-01 0.00000000E+00 0.00000000E+00-6.27099115E-01 4.13729567E-01
34  6-4.05617893E-01-1.93205297E-01 0.00000000E+00 0.00000000E+00 0.00000000E+00
34  7-2.62886332E-01-6.44985978E-02 1.60610983E-03 0.00000000E+00 3.20165524E-01
34  8 2.62886332E-01 6.44985978E-02 1.60610983E-03 0.00000000E+00 3.20165524E-01
34  9 2.62886332E-01 6.44985978E-02-1.60610983E-03 0.00000000E+00 3.20165524E-01
34 10-2.62886332E-01-6.44985978E-02-1.60610983E-03 0.00000000E+00 3.20165524E-01
35  1 0.00000000E+00 0.00000000E+00 0.00000000E+00 1.38489833E-01 0.00000000E+00
35  2 0.00000000E+00 0.00000000E+00 4.46065735E-01 0.00000000E+00 0.00000000E+00
35  3 0.00000000E+00 0.00000000E+00 0.00000000E+00 0.00000000E+00-4.92017393E-01
35  4 0.00000000E+00 0.00000000E+00 0.00000000E+00-1.38489833E-01 0.00000000E+00
35  5 0.00000000E+00 0.00000000E+00-4.46065735E-01 0.00000000E+00 0.00000000E+00
35  6 0.00000000E+00 0.00000000E+00 0.00000000E+00 0.00000000E+00-4.92017393E-01
35  7 0.00000000E+00 0.00000000E+00 0.00000000E+00 4.05686549E-01 0.00000000E+00
35  8 0.00000000E+00 0.00000000E+00 0.00000000E+00-4.05686549E-01 0.00000000E+00
35  9 0.00000000E+00 0.00000000E+00 0.00000000E+00-4.05686549E-01 0.00000000E+00
35 10 0.00000000E+00 0.00000000E+00 0.00000000E+00 4.05686549E-01 0.00000000E+00
36  1 0.00000000E+00 0.00000000E+00-9.61260467E-02 0.00000000E+00 0.00000000E+00
36  2 0.00000000E+00 3.45686840E-01 0.00000000E+00 0.00000000E+00 0.00000000E+00
36  3 0.00000000E+00 0.00000000E+00 0.00000000E+00-2.20155049E-01 0.00000000E+00
36  4 0.00000000E+00 0.00000000E+00-9.61260467E-02 0.00000000E+00 0.00000000E+00
36  5 0.00000000E+00 3.45686840E-01 0.00000000E+00 0.00000000E+00 0.00000000E+00