!   He: 2nd 1-S excited state...19s modified ET-GTO basis
!
!   pure 2nd state MCSCF needs 11 iterations, and finds these roots:
!     STATE   1  ENERGY= -2.7627926472  S=  0.00  SZ=  0.00
!     STATE   2  ENERGY= -2.1575418449  S=  1.00  SZ=  0.00
!     STATE   3  ENERGY= -2.1434707660  S=  0.00  SZ=  0.00  <-- This is 2-1S
!     STATE   4  ENERGY= -0.5742946123  S=  0.00  SZ=  0.00
!
!   This run takes 0 seconds on 2.66 GHz Cloverton (26 Apr 2015)
!
!   ------------------------------------------------------------------------
!   Start with the optimized 14s from Schmidt and Ruedenberg, which gets
!   RHF E(GAMESS)= -2.8616782873, E(paper)=-2.861678287, e(limit)=-2.861680.
!   This is supplemented by five even tempered diffuse functions, bringing
!   the 19s ground state RHF energy to -2.8616783891.  Since there are only
!   s-type AOs in the basis set, angular correlation is completely neglected.
!
 $contrl scftyp=mcscf runtyp=energy mult=1 $end
 $system mwords=5 memddi=0 $end
 $guess  guess=moread norb=19 $end
 $mcscf  cistep=aldet fullnr=.true. $end
 $det    ncore=0 nact=2 nels=2 nstate=4 wstate(1)=0.00,1.00,0.00 $end
 $data
Helium atom...2-1S state
C1
He  2.0
   s 1 ; 1      .00159483 1.0
   s 1 ; 1      .00381243 1.0
   s 1 ; 1      .00911357 1.0
   s 1 ; 1      .02178591 1.0
   s 1 ; 1      .05207900 1.0
   s 1 ; 1      .12449433 1.0  ! most diffuse ground state function
   s 1 ; 1      .29760246 1.0
   s 1 ; 1      .71141572 1.0
   s 1 ; 1     1.70063221 1.0
   s 1 ; 1     4.06534440 1.0
   s 1 ; 1     9.71816535 1.0
   s 1 ; 1    23.23117763 1.0
   s 1 ; 1    55.53389909 1.0
   s 1 ; 1   132.75323349 1.0
   s 1 ; 1   317.34528443 1.0
   s 1 ; 1   758.61074646 1.0
   s 1 ; 1  1813.45144509 1.0
   s 1 ; 1  4335.03764487 1.0
   s 1 ; 1 10362.86437848 1.0

 $end

A variety of orbital groups are contained below:

RHF + MVOQ=2 orbitals for the ground state.  E(RHF)=  -2.8616783891
 $VEC
 1  1-1.06349744E-04 3.81438766E-04-8.47072031E-04 1.64208382E-03-1.71942261E-03
 1  2 8.83762193E-02 3.15198060E-01 3.50177571E-01 2.31631641E-01 1.15738379E-01
 1  3 4.70282909E-02 1.71895707E-02 5.97105050E-03 2.02329814E-03 7.02431304E-04
 1  4 2.15828016E-04 9.47103896E-05 1.11487968E-05 1.92435042E-05
 2  1 2.62251071E-03-9.48140180E-03 2.12568316E-02-3.74766898E-02 4.37502611E-01
 2  2 7.62542504E-01-1.12450392E-01-3.57677178E-01-2.05382438E-01-8.64031140E-02
 2  3-3.15587049E-02-1.11122874E-02-3.77307861E-03-1.27955572E-03-4.39469678E-04
 2  4-1.36197055E-04-5.91622527E-05-7.07503410E-06-1.20541687E-05
 3  1-1.11645933E-02 3.66250293E-02-4.55780515E-03 1.44097703E+00-3.61716083E-01
 3  2-9.01212873E-01 1.09966960E-01 1.72888708E-01 1.02881067E-01 3.73359625E-02
 3  3 1.49130221E-02 4.63329319E-03 1.78915309E-03 5.20144909E-04 2.11978873E-04
 3  4 5.34794388E-05 2.85660574E-05 2.37137631E-06 5.47932718E-06
 4  1-1.16096855E-02-5.80084555E-02-2.20045996E+00 2.49865461E+00-1.17272201E-01
 4  2-8.24428162E-01 1.06686195E-01 1.03650285E-01 6.99531122E-02 2.21028258E-02
 4  3 9.97307598E-03 2.68224488E-03 1.21052065E-03 2.91940185E-04 1.46118238E-04
 4  4 2.85121668E-05 1.97151644E-05 9.22721068E-07 3.54878283E-06
 5  1 1.20628483E-01-3.00478802E+00 4.54890431E+00-2.45976487E+00-1.26578565E-01
 5  2 7.13262693E-01-1.03739132E-01-6.25704582E-02-5.18796834E-02-1.37305326E-02
 5  3-7.35308056E-03-1.62137239E-03-9.06771554E-04-1.67617919E-04-1.11795321E-04
 5  4-1.48304777E-05-1.51055330E-05-1.10639251E-07-2.52457920E-06
 6  1-3.02173417E+00 5.21164102E+00-3.97140927E+00 1.40199161E+00 3.38581478E-01
 6  2-5.53838689E-01 9.52418826E-02 2.81715331E-02 3.60869605E-02 6.91727819E-03
 6  3 5.11067309E-03 7.68141261E-04 6.45503469E-04 6.86074458E-05 8.19277528E-05
 6  4 4.07639939E-06 1.10911297E-05-4.97867687E-07 1.66482901E-06
 7  1-1.12381512E+00 3.63026254E+00-6.64623750E+00 8.84663342E+00-8.41546224E+00
 7  2 4.78095695E+00-1.03905208E+00 7.07239652E-02-2.39709346E-01-3.06902481E-03
 7  3-3.38768325E-02 7.20429628E-04-4.52562551E-03 3.20288732E-04-6.11403366E-04
 7  4 7.38002354E-05-8.30947847E-05 1.25989585E-05-9.58104249E-06
 8  1-3.20199553E-01 1.13056699E+00-2.41664863E+00 4.25206004E+00-6.58664615E+00
 8  2 8.35747382E+00-7.09570745E+00 2.97652284E+00-4.81106945E-01 3.81841106E-01
 8  3-6.90602712E-02 5.22659631E-02-1.13867485E-02 7.38108550E-03-1.84085081E-03
 8  4 1.02464466E-03-2.52636700E-04 1.06309851E-04-6.95469291E-06
 9  1-1.43876613E-01 5.09700907E-01-1.09657963E+00 1.97154939E+00-3.30234188E+00
 9  2 5.24724224E+00-7.38717888E+00 7.56602837E+00-4.15441985E+00 9.11814734E-01
 9  3-4.67194509E-01 1.29472693E-01-6.46335704E-02 1.98812384E-02-9.36004102E-03
 9  4 2.99529858E-03-1.27573834E-03 3.51511202E-04-9.54941762E-05
10  1 7.59909017E-02-2.69064717E-01 5.77866634E-01-1.03588771E+00 1.73681010E+00
10  2-2.84516851E+00 4.55300459E+00-6.68980208E+00 7.53433152E+00-4.77584310E+00
10  3 1.23355430E+00-5.25339166E-01 1.69446848E-01-7.31643155E-02 2.51644886E-02
10  4-1.04332240E-02 3.42630062E-03-1.14542450E-03 1.90541553E-04
11  1-4.34452700E-02 1.53754311E-01-3.29773389E-01 5.89381982E-01-9.83047419E-01
11  2 1.60258895E+00-2.60140659E+00 4.17915418E+00-6.26959851E+00 7.42276754E+00
11  3-5.10213395E+00 1.44652500E+00-5.64473089E-01 1.94063494E-01-7.84271326E-02
11  4 2.78870793E-02-1.05722750E-02 3.15973713E-03-7.07591529E-04
12  1 2.59220526E-02-9.17145390E-02 1.96569806E-01-3.50729220E-01 5.82974864E-01
12  2-9.44761137E-01 1.52307209E+00-2.46344599E+00 3.96668176E+00-6.01986560E+00
12  3 7.32896568E+00-5.28038353E+00 1.58103409E+00-5.88728122E-01 2.07418352E-01
12  4-7.98422959E-02 2.74841352E-02-8.77010026E-03 1.64478120E-03
13  1-1.58418569E-02 5.60424028E-02-1.20072297E-01 2.14059295E-01-3.55153383E-01
13  2 5.73454322E-01-9.18689172E-01 1.47451497E+00-2.38185347E+00 3.84085672E+00
13  3-5.86796832E+00 7.26171684E+00-5.38002257E+00 1.66216318E+00-6.00223948E-01
13  4 2.11134991E-01-7.62147844E-02 2.30956364E-02-4.86786366E-03
14  1 9.81630821E-03-3.47240806E-02 7.43847446E-02-1.32556080E-01 2.19728597E-01
14  2-3.54108202E-01 5.65163228E-01-9.01248856E-01 1.44398543E+00-2.33149345E+00
14  3 3.76294128E+00-5.77110899E+00 7.21050299E+00-5.42864285E+00 1.70006964E+00
14  4-5.93762782E-01 1.99701864E-01-6.16469320E-02 1.18999288E-02
15  1-6.13170960E-03 2.16895654E-02-4.64589804E-02 8.27756365E-02-1.37151237E-01
15  2 2.20818649E-01-3.51737110E-01 5.58770238E-01-8.89406225E-01 1.42396516E+00
15  3-2.29862470E+00 3.71116580E+00-5.70252077E+00 7.16020115E+00-5.42997260E+00
15  4 1.69000593E+00-5.56388152E-01 1.63133118E-01-3.29627974E-02
16  1 3.84550269E-03-1.36024200E-02 2.91352714E-02-5.19054855E-02 8.59846658E-02
16  2-1.38375198E-01 2.20199151E-01-3.49108901E-01 5.53547197E-01-8.80384631E-01
16  3 1.40889317E+00-2.27333145E+00 3.66858140E+00-5.63595836E+00 7.07878696E+00
16  4-5.35009050E+00 1.58936105E+00-4.49333459E-01 8.45024793E-02
17  1-2.41240552E-03 8.53317213E-03-1.82770483E-02 3.25598513E-02-5.39322539E-02
17  2 8.67744981E-02-1.38020890E-01 2.18603555E-01-3.45916250E-01 5.48026159E-01
17  3-8.71159749E-01 1.39327808E+00-2.24561241E+00 3.61609029E+00-5.53443822E+00
17  4 6.90181005E+00-5.09996298E+00 1.31319979E+00-2.41304309E-01
18  1 1.50260260E-03-5.31499683E-03 1.13840082E-02-2.02797858E-02 3.35900230E-02
18  2-5.40393462E-02 8.59341421E-02-1.36040509E-01 2.15050619E-01-3.39998127E-01
18  3 5.38341184E-01-8.55117995E-01 1.36557823E+00-2.19394690E+00 3.50983189E+00
18  4-5.30521540E+00 6.45645783E+00-4.45582834E+00 7.30717811E-01
19  1-9.10393984E-04 3.22023560E-03-6.89728695E-03 1.22869104E-02-2.03507654E-02
19  2 3.27386031E-02-5.20559098E-02 8.23895097E-02-1.30175073E-01 2.05593492E-01
19  3-3.24839694E-01 5.13881932E-01-8.14789002E-01 1.29599343E+00-2.06415725E+00
19  4 3.24359796E+00-4.73808490E+00 5.40456402E+00-3.15279061E+00
 $END

ground state NOs, and canonical virtuals.  E(MCSCF)= -2.8779950047
--- $VEC   
 1  1-1.28596106E-04 4.58909794E-04-1.00670461E-03 1.89471321E-03-1.55479560E-03
 1  2 9.61077948E-02 3.15921475E-01 3.42571994E-01 2.31603849E-01 1.17349360E-01
 1  3 4.73218652E-02 1.72559628E-02 5.98137941E-03 2.02903434E-03 7.03250943E-04
 1  4 2.16471776E-04 9.48145773E-05 1.11954567E-05 1.92755926E-05
 2  1 7.48649574E-05-2.47072751E-04 4.33292588E-04-3.78300751E-04 3.93485389E-03
 2  2 2.22679668E-01 7.07748254E-01 7.24849792E-02-6.28167273E-01-3.31192731E-01
 2  3-9.43601299E-02-2.97753140E-02-9.25749087E-03-3.20637835E-03-1.04689966E-03
 2  4-3.40915826E-04-1.40416128E-04-1.82537718E-05-2.90766358E-05
 3  1 1.75356612E+00-1.20525391E+00 5.02516893E-01-2.40464470E-01 7.04839937E-02
 3  2-4.53586231E-02 1.21217464E-02-2.63152158E-03 3.52445506E-03-3.42683826E-04
 3  3 4.73353790E-04-7.25755982E-05 6.61959013E-05-1.31128016E-05 9.35870376E-06
 3  4-2.16696987E-06 1.27626816E-06-2.81548510E-07 1.18481768E-07
 4  1-2.04795104E+00 3.88289042E+00-1.93569601E+00 6.47632959E-01-3.21031143E-01
 4  2 7.86775948E-02-4.52411734E-02 2.31978677E-02-2.68938284E-03 3.72118376E-03
 4  3-5.87146053E-04 5.18672081E-04-1.05458188E-04 7.36031600E-05-1.74792505E-05
 4  4 1.01960799E-05-2.40634245E-06 1.05031135E-06-5.41144156E-08
 5  1 1.46426207E+00-4.47485245E+00 5.52913489E+00-2.57514548E+00 7.35021313E-01
 5  2-3.84043757E-01 1.15041393E-01-3.20734717E-02 2.68107101E-02-4.54679753E-03
 5  3 3.71893828E-03-8.10063921E-04 5.32877061E-04-1.35057417E-04 7.67681116E-05
 5  4-2.12166868E-05 1.04815219E-05-2.60299533E-06 8.78298887E-07
 6  1-8.81810984E-01 3.14578439E+00-6.05483376E+00 6.82369347E+00-3.46412776E+00
 6  2 9.09580894E-01-4.06060125E-01 1.84951495E-01-3.87953174E-02 2.86247377E-02
 6  3-6.76785171E-03 4.11019098E-03-1.11180324E-03 5.97973711E-04-1.75541240E-04
 6  4 8.47074218E-05-2.40996726E-05 9.03890146E-06-1.02421508E-06
 7  1 5.02290940E-01-1.82276794E+00 3.98030380E+00-6.68716946E+00 7.96659674E+00
 7  2-4.94057382E+00 1.50651593E+00-4.49715824E-01 2.52610327E-01-6.35625380E-02
 7  3 3.56711049E-02-1.02473658E-02 5.22358179E-03-1.62212850E-03 7.66401032E-04
 7  4-2.45995284E-04 1.04747916E-04-2.88987595E-05 7.83658206E-06
 8  1-2.68797822E-01 9.63941661E-01-2.11196157E+00 3.86165100E+00-6.32176447E+00
 8  2 8.53352532E+00-6.82377880E+00 2.80782156E+00-7.24725057E-01 3.63387502E-01
 8  3-1.07675836E-01 5.18764556E-02-1.67031685E-02 7.64371709E-03-2.56426019E-03
 8  4 1.09937790E-03-3.51310502E-04 1.20223031E-04-1.86855144E-05
 9  1-1.33218951E-01 4.73839722E-01-1.02580971E+00 1.86201305E+00-3.16800298E+00
 9  2 5.10661439E+00-7.74323250E+00 7.87885107E+00-4.24242348E+00 1.13820978E+00
 9  3-5.04177210E-01 1.60301316E-01-7.14025060E-02 2.43148477E-02-1.04810749E-02
 9  4 3.61593006E-03-1.43055554E-03 4.16158158E-04-9.99496556E-05
10  1 6.95649659E-02-2.46643444E-01 5.30819191E-01-9.54515104E-01 1.60743265E+00
10  2-2.67610390E+00 4.23108055E+00-6.50196362E+00 7.60578343E+00-4.89164861E+00
10  3 1.35074284E+00-5.59621270E-01 1.85185511E-01-7.84397345E-02 2.74698600E-02
10  4-1.12223771E-02 3.74143712E-03-1.23657233E-03 2.12752943E-04
11  1-4.11882739E-02 1.45843709E-01-3.13066590E-01 5.60219417E-01-9.36189677E-01
11  2 1.52639182E+00-2.50686330E+00 4.03299148E+00-6.11084852E+00 7.36422954E+00
11  3-5.13064752E+00 1.47983750E+00-5.76446169E-01 1.98822627E-01-8.02146803E-02
11  4 2.85769373E-02-1.08166248E-02 3.23696795E-03-7.22676738E-04
12  1 2.53092762E-02-8.95659145E-02 1.92031566E-01-3.42814917E-01 5.70266562E-01
12  2-9.25613929E-01 1.49295091E+00-2.42249063E+00 3.91462097E+00-5.96542840E+00
12  3 7.30145105E+00-5.28535618E+00 1.58972613E+00-5.92159076E-01 2.08750416E-01
12  4-8.03468469E-02 2.76657885E-02-8.82682263E-03 1.65620936E-03
13  1-1.56811139E-02 5.54786768E-02-1.18881559E-01 2.11983631E-01-3.51828051E-01
13  2 5.68341432E-01-9.11261086E-01 1.46388280E+00-2.36755596E+00 3.82360498E+00
13  3-5.85117962E+00 7.25274860E+00-5.38055525E+00 1.66422582E+00-6.01082681E-01
13  4 2.11465291E-01-7.63343547E-02 2.31329081E-02-4.87543681E-03
14  1 9.77445984E-03-3.45773061E-02 7.40747151E-02-1.32015783E-01 2.18863632E-01
14  2-3.52789731E-01 5.63218053E-01-8.98524485E-01 1.44036048E+00-2.32696078E+00
14  3 3.75781349E+00-5.76638576E+00 7.20795755E+00-5.42860311E+00 1.70051310E+00
14  4-5.93953458E-01 1.99772337E-01-6.16690886E-02 1.19043956E-02
15  1-6.12083017E-03 2.16514065E-02-4.63783766E-02 8.26351795E-02-1.36926478E-01
15  2 2.20475896E-01-3.51235051E-01 5.58068074E-01-8.88477930E-01 1.42281481E+00
15  3-2.29729670E+00 3.70976764E+00-5.70130039E+00 7.15954738E+00-5.42992966E+00
15  4 1.69009315E+00-5.56425517E-01 1.63145218E-01-3.29652756E-02
16  1 3.84267558E-03-1.35925039E-02 2.91143254E-02-5.18689876E-02 8.59262728E-02
16  2-1.38286228E-01 2.20068848E-01-3.48927284E-01 5.53308375E-01-8.80090941E-01
16  3 1.40855692E+00-2.27297230E+00 3.66822855E+00-5.63566563E+00 7.07863210E+00
16  4-5.35007483E+00 1.58937652E+00-4.49339470E-01 8.45037527E-02
17  1-2.41167428E-03 8.53060729E-03-1.82716305E-02 3.25504112E-02-5.39171521E-02
17  2 8.67514926E-02-1.37987225E-01 2.18556686E-01-3.45854781E-01 5.47950961E-01
17  3-8.71074373E-01 1.39318771E+00-2.24552268E+00 3.61600752E+00-5.53437271E+00
17  4 6.90177598E+00-5.09995860E+00 1.31320207E+00-2.41304913E-01
18  1 1.50241780E-03-5.31434863E-03 1.13826390E-02-2.02774001E-02 3.35862067E-02
18  2-5.40335332E-02 8.59256377E-02-1.36028677E-01 2.15035122E-01-3.39979221E-01
18  3 5.38319831E-01-8.55095586E-01 1.36555620E+00-2.19392643E+00 3.50981408E+00
18  4-5.30520196E+00 6.45645101E+00-4.45582730E+00 7.30718021E-01
19  1-9.10350895E-04 3.22008446E-03-6.89696771E-03 1.22863542E-02-2.03498756E-02
19  2 3.27372477E-02-5.20539281E-02 8.23867523E-02-1.30171463E-01 2.05589095E-01
19  3-3.24834742E-01 5.13876763E-01-8.14783964E-01 1.29598880E+00-2.06415321E+00
19  4 3.24359465E+00-4.73808254E+00 5.40456288E+00-3.15279042E+00
 $END   

These are 3-S state ROHF orbitals, E(ROHF)= -2.1742477232
--- $VEC
 1  1 1.85555085E-04-6.54108417E-04 1.39182977E-03-2.45118907E-03 3.94059927E-03
 1  2 7.04666718E-04 1.75609582E-01 4.10815794E-01 3.16976548E-01 1.49133692E-01
 1  3 5.81371518E-02 2.06446452E-02 7.18029324E-03 2.40290625E-03 8.42751540E-04
 1  4 2.55457556E-04 1.13578096E-04 1.30791166E-05 2.29804362E-05
 2  1-3.15545668E-03 1.08578156E-02-8.12018863E-03 4.46520981E-01 6.21972760E-01
 2  2 6.47568031E-02-1.43633425E-01-1.23715897E-01-6.91041161E-02-2.99864200E-02
 2  3-1.11045246E-02-3.90187377E-03-1.33134544E-03-4.49182221E-04-1.55193324E-04
 2  4-4.77625332E-05-2.08936757E-05-2.47001033E-06-4.24771629E-06
 3  1 1.88835344E+00-1.42219802E+00 5.38511566E-01-2.96583932E-01 6.57947286E-02
 3  2-4.33916437E-02 2.37041347E-02 6.53687731E-04 6.11951432E-03 6.84841384E-04
 3  3 9.60032161E-04 6.82787189E-05 1.26685002E-04 2.67756082E-06 1.66350538E-05
 3  4-5.83569285E-07 2.25805830E-06-2.21598572E-07 2.99788081E-07
 4  1-2.07600559E+00 4.34829588E+00-2.54818607E+00 7.42015520E-01-4.29330849E-01
 4  2 1.20641561E-01-2.91337489E-02 3.79491586E-02 2.23775442E-03 7.33005009E-03
 4  3 4.19408663E-04 1.01838561E-03 1.23598503E-05 1.33961063E-04-4.61799134E-06
 4  4 1.70562145E-05-6.81782167E-07 1.50221663E-06 3.77429905E-07
 5  1 1.36768365E+00-4.44075746E+00 6.37452958E+00-3.85962236E+00 1.00234881E+00
 5  2-4.76243263E-01 2.24516255E-01-2.39224527E-02 4.92405087E-02 6.67468715E-05
 5  3 7.64654558E-03-2.12738725E-04 1.04123683E-03-8.02333765E-05 1.41479860E-04
 5  4-1.78806542E-05 1.92461558E-05-2.98618466E-06 2.19738930E-06
 6  1-7.51266346E-01 2.71710674E+00-5.58943413E+00 7.54513833E+00-5.42063094E+00
 6  2 1.63037483E+00-4.80029491E-01 3.24486358E-01-3.40772212E-02 5.61377771E-02
 6  3-4.66614429E-03 7.98948120E-03-9.74779009E-04 1.10357073E-03-1.80380465E-04
 6  4 1.48348719E-04-2.49439651E-05 1.45133975E-05 6.22054407E-07
 7  1 3.99053335E-01-1.44415986E+00 3.17623737E+00-5.59477530E+00 7.70528799E+00
 7  2-6.61878719E+00 2.56548325E+00-5.60492610E-01 3.99255428E-01-6.30387504E-02
 7  3 5.93022751E-02-1.04288477E-02 8.39973595E-03-1.79355322E-03 1.19328727E-03
 7  4-2.90721960E-04 1.62741762E-04-3.71111185E-05 1.47127981E-05
 8  1-2.18898169E-01 7.83668005E-01-1.71351080E+00 3.13561025E+00-5.21575191E+00
 8  2 7.41702001E+00-7.30742082E+00 3.56716853E+00-7.73616644E-01 4.59097596E-01
 8  3-1.05642890E-01 6.44722543E-02-1.67610667E-02 9.27225719E-03-2.64022461E-03
 8  4 1.30650305E-03-3.62032785E-04 1.38622000E-04-1.44465283E-05
 9  1-1.22555655E-01 4.35877321E-01-9.43455322E-01 1.71182218E+00-2.90866551E+00
 9  2 4.73734597E+00-6.93313469E+00 7.52368551E+00-4.36770755E+00 1.05383296E+00
 9  3-5.09701640E-01 1.47353253E-01-7.11206068E-02 2.25354748E-02-1.03446508E-02
 9  4 3.38285576E-03-1.41075301E-03 3.94772309E-04-1.03643544E-04
10  1 7.05766735E-02-2.50243984E-01 5.38609725E-01-9.68571123E-01 1.63118161E+00
10  2-2.68842168E+00 4.34694637E+00-6.48618723E+00 7.47450051E+00-4.84751384E+00
10  3 1.29285162E+00-5.45593195E-01 1.77427158E-01-7.62031059E-02 2.63506776E-02
10  4-1.08801656E-02 3.58868145E-03-1.19583320E-03 2.00868430E-04
11  1-4.19729094E-02 1.48623626E-01-3.19038346E-01 5.70905458E-01-9.53871670E-01
11  2 1.55860373E+00-2.53716412E+00 4.09430609E+00-6.18317596E+00 7.38575006E+00
11  3-5.12122615E+00 1.46697420E+00-5.72096087E-01 1.97027113E-01-7.95660052E-02
11  4 2.83193417E-02-1.07281829E-02 3.20837994E-03-7.17432274E-04
12  1 2.55227058E-02-9.03209795E-02 1.93648747E-01-3.45692178E-01 5.75009860E-01
12  2-9.32709258E-01 1.50542389E+00-2.43845372E+00 3.93439715E+00-5.98725581E+00
12  3 7.31271996E+00-5.28419198E+00 1.58691623E+00-5.91065108E-01 2.08326390E-01
12  4-8.01870171E-02 2.76082631E-02-8.80889605E-03 1.65258934E-03
13  1-1.57354826E-02 5.56709172E-02-1.19292849E-01 2.12713845E-01-3.53024664E-01
13  2 5.70238257E-01-9.13979455E-01 1.46784580E+00-2.37284149E+00 3.82978245E+00
13  3-5.85716472E+00 7.25601379E+00-5.38051782E+00 1.66362269E+00-6.00832671E-01
13  4 2.11369607E-01-7.62997654E-02 2.31221556E-02-4.87324705E-03
14  1 9.78833486E-03-3.46263529E-02 7.41795872E-02-1.32201753E-01 2.19167838E-01
14  2-3.53261415E-01 5.63927170E-01-8.99505594E-01 1.44163443E+00-2.32851081E+00
14  3 3.75951270E+00-5.76792587E+00 7.20879552E+00-5.42864179E+00 1.70039200E+00
14  4-5.93901434E-01 1.99753191E-01-6.16630798E-02 1.19031885E-02
15  1-6.12439566E-03 2.16640086E-02-4.64053163E-02 8.26829282E-02-1.37004496E-01
15  2 2.20597147E-01-3.51414233E-01 5.58316637E-01-8.88798215E-01 1.42319710E+00
15  3-2.29772078E+00 3.71019998E+00-5.70167126E+00 7.15974681E+00-5.42994668E+00
15  4 1.69007040E+00-5.56415755E-01 1.63142067E-01-3.29646310E-02
16  1 3.84359652E-03-1.35957588E-02 2.91212826E-02-5.18813159E-02 8.59464072E-02
16  2-1.38317458E-01 2.20115055E-01-3.48990995E-01 5.53389834E-01-8.80187233E-01
16  3 1.40866227E+00-2.27308038E+00 3.66833167E+00-5.63574990E+00 7.07867675E+00
16  4-5.35007991E+00 1.58937260E+00-4.49337943E-01 8.45034304E-02
17  1-2.41191178E-03 8.53144667E-03-1.82734246E-02 3.25535900E-02-5.39223425E-02
17  2 8.67595412E-02-1.37999114E-01 2.18573058E-01-3.45875642E-01 5.47975450E-01
17  3-8.71100877E-01 1.39321454E+00-2.24554838E+00 3.61603066E+00-5.53439081E+00
17  4 6.90178540E+00-5.09995988E+00 1.31320150E+00-2.41304762E-01
18  1 1.50247774E-03-5.31456047E-03 1.13830918E-02-2.02782023E-02 3.35875164E-02
18  2-5.40355636E-02 8.59286362E-02-1.36032802E-01 2.15040369E-01-3.39985359E-01
18  3 5.38326430E-01-8.55102196E-01 1.36556244E+00-2.19393206E+00 3.50981889E+00
18  4-5.30520556E+00 6.45645283E+00-4.45582759E+00 7.30717969E-01
19  1-9.10364862E-04 3.22013382E-03-6.89707320E-03 1.22865411E-02-2.03501808E-02
19  2 3.27377209E-02-5.20546258E-02 8.23877128E-02-1.30172684E-01 2.05590520E-01
19  3-3.24836270E-01 5.13878283E-01-8.14785385E-01 1.29599006E+00-2.06415429E+00
19  4 3.24359552E+00-4.73808316E+00 5.40456318E+00-3.15279047E+00
 $END

5%,5%,90% NOs: E(MCSCF)= -0.8927870538
--- $VEC   
 1  1 1.22510900E-03-4.75338412E-03 1.17387440E-02-1.78756088E-01-6.34067273E-01
 1  2-3.72368601E-01 1.09754972E-01 2.19951033E-01 1.18303543E-01 4.82777497E-02
 1  3 1.76871956E-02 6.17971917E-03 2.10954033E-03 7.09733780E-04 2.45723392E-04
 1  4 7.54042706E-05 3.30764877E-05 3.89188121E-06 6.71850802E-06
 2  1 1.53960455E-04-5.72968833E-04 1.31804991E-03-1.63910296E-02-5.74707802E-02
 2  2 1.95179266E-02 3.07719798E-01 3.95515853E-01 2.56024940E-01 1.25936882E-01
 2  3 5.06364719E-02 1.84852149E-02 6.39471653E-03 2.17250539E-03 7.51402989E-04
 2  4 2.31822532E-04 1.01300113E-04 1.20054539E-05 2.06094432E-05
 3  1 1.84126809E+00-1.34318453E+00 5.25242366E-01-2.75974172E-01 6.66216560E-02
 3  2-5.16055967E-02 1.98246374E-02 3.86353949E-03 7.58077555E-03 1.35325752E-03
 3  3 1.16713157E-03 1.57739649E-04 1.50874577E-04 1.33910457E-05 1.93295024E-05
 3  4 6.14264791E-07 2.61925430E-06-1.47188583E-07 3.83547087E-07
 4  1-2.06901612E+00 4.18867688E+00-2.31891610E+00 7.04403255E-01-3.91893240E-01
 4  2 8.61298517E-02-3.49653132E-02 4.42896010E-02 6.62537857E-03 8.72185318E-03
 4  3 1.05506048E-03 1.19532153E-03 9.19520797E-05 1.53327733E-04 5.05911003E-06
 4  4 1.89449869E-05 6.26314438E-07 1.56302507E-06 6.12829302E-07
 5  1 1.40452238E+00-4.47356391E+00 6.11229803E+00-3.38136884E+00 8.88371103E-01
 5  2-4.84890029E-01 1.83424400E-01-6.22281235E-04 5.49166796E-02 4.49897468E-03
 5  3 8.39677757E-03 3.98478587E-04 1.11569265E-03-2.41272903E-06 1.47615268E-04
 5  4-8.43279476E-06 2.00435714E-05-2.24293617E-06 2.57096529E-06
 6  1-7.96375675E-01 2.87043857E+00-5.79489616E+00 7.41129947E+00-4.75660743E+00
 6  2 1.27466364E+00-4.65095087E-01 3.33360411E-01-6.63524801E-03 5.92201123E-02
 6  3-7.40598594E-04 8.29134951E-03-4.49397545E-04 1.11610451E-03-1.11060036E-04
 6  4 1.46024357E-04-1.55192705E-05 1.35961497E-05 1.87628668E-06
 7  1 4.29041540E-01-1.55445655E+00 3.41496856E+00-5.94511019E+00 7.87668504E+00
 7  2-6.18499928E+00 2.12141884E+00-4.10913308E-01 4.00565118E-01-3.99493556E-02
 7  3 5.87156317E-02-7.18224869E-03 8.16587581E-03-1.34866261E-03 1.14059157E-03
 7  4-2.31808793E-04 1.55360225E-04-3.15340494E-05 1.53135300E-05
 8  1-2.32402976E-01 8.32775018E-01-1.82318699E+00 3.33761847E+00-5.52384613E+00
 8  2 7.67655602E+00-7.15833468E+00 3.28194350E+00-6.10559398E-01 4.30821719E-01
 8  3-8.64186284E-02 5.99216202E-02-1.39989515E-02 8.52642334E-03-2.23879757E-03
 8  4 1.19032125E-03-3.07127249E-04 1.24547956E-04-9.98592278E-06
 9  1-1.27985759E-01 4.55349614E-01-9.86218533E-01 1.79122096E+00-3.04408837E+00
 9  2 4.94341289E+00-7.14131865E+00 7.51569948E+00-4.22973981E+00 9.57181233E-01
 9  3-4.82168219E-01 1.35241545E-01-6.69396941E-02 2.07454276E-02-9.70609116E-03
 9  4 3.12271633E-03-1.32312531E-03 3.65957145E-04-9.85935351E-05
10  1 7.26290459E-02-2.57545363E-01 5.54423450E-01-9.97258113E-01 1.68046945E+00
10  2-2.76920438E+00 4.46426643E+00-6.61029887E+00 7.50697197E+00-4.79645432E+00
10  3 1.25044497E+00-5.31033328E-01 1.71642427E-01-7.40151063E-02 2.54899618E-02
10  4-1.05577895E-02 3.47080876E-03-1.15941075E-03 1.93315284E-04
11  1-4.26586315E-02 1.51054632E-01-3.24268453E-01 5.80307218E-01-9.69612193E-01
11  2 1.58432120E+00-2.57771773E+00 4.15082406E+00-6.24220515E+00 7.41053486E+00
11  3-5.10730933E+00 1.45218215E+00-5.66536184E-01 1.94857369E-01-7.87326048E-02
11  4 2.80023631E-02-1.06140060E-02 3.17271051E-03-7.10238341E-04
12  1 2.57277778E-02-9.10469255E-02 1.95205958E-01-3.48472931E-01 5.79638938E-01
12  2-9.40163909E-01 1.51705654E+00-2.45572996E+00 3.95725936E+00-6.01047517E+00
12  3 7.32418519E+00-5.28138935E+00 1.58263918E+00-5.89355622E-01 2.07660494E-01
12  4-7.99340903E-02 2.75170992E-02-8.78040881E-03 1.64684916E-03
13  1-1.57927378E-02 5.58734727E-02-1.19726793E-01 2.13487053E-01-3.54304270E-01
13  2 5.72284631E-01-9.17150431E-01 1.47253119E+00-2.37932137E+00 3.83780516E+00
13  3-5.86498105E+00 7.26011608E+00-5.38014807E+00 1.66255688E+00-6.00386294E-01
13  4 2.11197250E-01-7.62372985E-02 2.31026517E-02-4.86928893E-03
14  1 9.80373367E-03-3.46808157E-02 7.42962010E-02-1.32409287E-01 2.19510652E-01
14  2-3.53807487E-01 5.64768053E-01-9.00740420E-01 1.44333745E+00-2.33068938E+00
14  3 3.76201837E+00-5.77024577E+00 7.21003512E+00-5.42864073E+00 1.70015574E+00
14  4-5.93799503E-01 1.99715404E-01-6.16511851E-02 1.19007861E-02
15  1-6.12846475E-03 2.16783987E-02-4.64361203E-02 8.27377232E-02-1.37094915E-01
15  2 2.20740923E-01-3.51635000E-01 5.58639248E-01-8.89240312E-01 1.42376047E+00
15  3-2.29838488E+00 3.71090859E+00-5.70229302E+00 7.16007848E+00-5.42996534E+00
15  4 1.69002301E+00-5.56395418E-01 1.63135467E-01-3.29632780E-02
16  1 3.84466218E-03-1.35995272E-02 2.91293486E-02-5.18956608E-02 8.59700682E-02
16  2-1.38355050E-01 2.20172695E-01-3.49075019E-01 5.53504470E-01-8.80332334E-01
16  3 1.40883238E+00-2.27326527E+00 3.66851531E+00-5.63590291E+00 7.07875750E+00
16  4-5.35008763E+00 1.58936409E+00-4.49334634E-01 8.45027278E-02
17  1-2.41218841E-03 8.53242487E-03-1.82755182E-02 3.25573131E-02-5.39284823E-02
17  2 8.67692926E-02-1.38014056E-01 2.18594811E-01-3.45905251E-01 5.48012763E-01
17  3-8.71144309E-01 1.39326142E+00-2.24559560E+00 3.61607459E+00-5.53442569E+00
17  4 6.90180351E+00-5.09996216E+00 1.31320024E+00-2.41304427E-01
18  1 1.50254776E-03-5.31480808E-03 1.13836218E-02-2.02791447E-02 3.35890703E-02
18  2-5.40380313E-02 8.59324160E-02-1.36038302E-01 2.15047846E-01-3.39994759E-01
18  3 5.38337322E-01-8.55113864E-01 1.36557410E+00-2.19394301E+00 3.50982848E+00
18  4-5.30521281E+00 6.45645651E+00-4.45582814E+00 7.30717853E-01
19  1-9.10381200E-04 3.22019160E-03-6.89719686E-03 1.22867609E-02-2.03505434E-02
19  2 3.27382966E-02-5.20555074E-02 8.23889954E-02-1.30174427E-01 2.05592708E-01
19  3-3.24838798E-01 5.13880979E-01-8.14788058E-01 1.29599255E+00-2.06415648E+00
19  4 3.24359732E+00-4.73808444E+00 5.40456380E+00-3.15279057E+00
 $END   

! TRAVIS-CI SMALL

