!  HOF...a GENCI run involving only pairwise excitations (from Joe)
!
!  The Jacobi converger does not find the same solution as SOSCF/FullNR.
!  all convergers start with the very same energy, of course.
!  SOSCF's convergence is torturous, akin to Giants' baseball.
!
!                          RHF   E= -174.6202087231
!    FOCAS=.TRUE. CISTEP=GENCI should refuse to run (has no act/act rotations)
!    SOSCF=.TRUE. CISTEP=GENCI   E= -174.7448145240, 52 iters    <---this run
!   FULLNR=.TRUE. CISTEP=GENCI   E= -174.7448145241,  8 iters
!   Jacobi=.TRUE. CISTEP=GENCI   E= -174.7438322293,  8 iters
!                       CAS result= -174.750955
!
!  this test takes 0 seconds on 2.66 GHz Cloverton (23 Apr 2015)
!
 $contrl scftyp=mcscf runtyp=energy $end
 $system mwords=1 memddi=0 $end
 $basis  gbasis=n31 ngauss=6 ndfunc=1 $end
!     active space is OH, OF, OH*, OF*, sort of.
 $GUESS  GUESS=moread NORB=32 norder=1 iorder(3)=3,4,5,6,9,  7,8,10,11  $end
 $MCSCF  cistep=genci soscf=.true. fors=.false. $end
 $gen    glist=input group=cs stsym=ap ncore=7 nact=4 nels=4 $end
 $gcilst
6 
2 2 0 0  ! all the doubles and quadruples, no singles or triples
2 0 2 0
2 0 0 2
0 2 2 0
0 2 0 2
0 0 2 2
 $end
 $data
HOF
Cs

H      1   -0.54       1.21     0.0
O      8    0.0        0.0      0.0
F      9    1.61       0.0      0.0
 $end

--- CLOSED SHELL ORBITALS --- GENERATED AT Thu Aug  7 16:00:07 2003
HOF                                                                             
E(RHF)=     -174.6202087231, E(NUC)=   28.7904736701,   13 ITERS
 $VEC
 1  1 4.10216149E-05-1.72101308E-05 1.52685120E-05-1.11567541E-04 1.08028526E-04
 1  2 1.66421560E-05 0.00000000E+00-3.89471121E-05 3.09022226E-04-2.48204112E-06
 1  3 0.00000000E+00 5.02790497E-04-6.07407848E-05-5.24577703E-05 1.68017752E-05
 1  4 0.00000000E+00 0.00000000E+00 9.94563413E-01 1.76396582E-02-6.60709652E-04
 1  5 5.70437031E-05 0.00000000E+00 7.44013320E-03 5.02561677E-04-1.82660102E-05
 1  6 0.00000000E+00-4.81536433E-03-4.26317103E-03-4.25812744E-03 2.80221206E-05
 1  7 0.00000000E+00 0.00000000E+00
 2  1 2.42009080E-04-1.37260869E-04 9.94976325E-01 2.03031327E-02 6.57473140E-04
 2  2 9.89079939E-04 0.00000000E+00 2.99597780E-03-5.80768391E-04-3.70956304E-04
 2  3 0.00000000E+00-4.13662651E-03-3.58882101E-03-3.27532863E-03-2.48263109E-06
 2  4 0.00000000E+00 0.00000000E+00-4.24300099E-05-1.15979810E-04-1.07784474E-04
 2  5-1.02961661E-05 0.00000000E+00 3.20572078E-04-3.87294316E-04 6.78622516E-05
 2  6 0.00000000E+00 2.82217697E-04-1.08419036E-04-1.15184951E-04-3.44325824E-05
 2  7 0.00000000E+00 0.00000000E+00
 3  1 1.28803986E-02 1.43236899E-03-6.72811388E-02 1.55768535E-01 4.72376089E-02
 3  2 5.60336107E-03 0.00000000E+00 1.28271271E-01 1.85458776E-02 8.54121728E-03
 3  3 0.00000000E+00 1.17960384E-02 1.79959673E-03-1.25771392E-03 2.34248416E-04
 3  4 0.00000000E+00 0.00000000E+00-2.18618010E-01 5.16028827E-01-2.37715211E-02
 3  5 9.31269738E-04 0.00000000E+00 4.35270309E-01-1.96279312E-02 1.93610345E-03
 3  6 0.00000000E+00 3.39322428E-02 2.14841241E-02 2.08080277E-02-5.53237001E-04
 3  7 0.00000000E+00 0.00000000E+00
 4  1 6.96100253E-02 1.03864701E-02-2.13131161E-01 5.04230947E-01-3.25800982E-02
 4  2 2.19564971E-02 0.00000000E+00 4.86020819E-01-2.23550363E-02 3.38329749E-02
 4  3 0.00000000E+00 3.95234979E-03 1.57921872E-02 1.99268705E-03-7.64566143E-03
 4  4 0.00000000E+00 0.00000000E+00 8.29857163E-02-1.91192789E-01-7.87670427E-02
 4  5 2.05028646E-03 0.00000000E+00-2.12532689E-01-3.96538669E-02-1.78629961E-03
 4  6 0.00000000E+00 7.50800591E-03-7.01886991E-03-6.97850106E-03 2.47847046E-04
 4  7 0.00000000E+00 0.00000000E+00
 5  1 1.36634656E-01 1.19521654E-01 1.46071857E-02-4.60875234E-02-1.12809550E-01
 5  2 3.07130040E-01 0.00000000E+00-3.85712926E-02-7.15283286E-02 2.19098323E-01
 5  3 0.00000000E+00-1.30868532E-02 2.21500968E-02-7.77284945E-03-3.65151632E-03
 5  4 0.00000000E+00 0.00000000E+00-1.03191684E-02 2.14687674E-02 1.45497936E-01
 5  5 4.89123535E-01 0.00000000E+00 4.50637267E-02 1.03408313E-01 3.30741638E-01
 5  6 0.00000000E+00-1.25341953E-02 2.59197049E-03 6.35284203E-04-7.88872950E-03
 5  7 0.00000000E+00 0.00000000E+00
 6  1 0.00000000E+00 0.00000000E+00 0.00000000E+00 0.00000000E+00 0.00000000E+00
 6  2 0.00000000E+00 3.22367168E-01 0.00000000E+00 0.00000000E+00 0.00000000E+00
 6  3 2.17070738E-01 0.00000000E+00 0.00000000E+00 0.00000000E+00 0.00000000E+00
 6  4 7.72260176E-03 7.91557704E-03 0.00000000E+00 0.00000000E+00 0.00000000E+00
 6  5 0.00000000E+00 5.75165515E-01 0.00000000E+00 0.00000000E+00 0.00000000E+00
 6  6 3.92985911E-01 0.00000000E+00 0.00000000E+00 0.00000000E+00 0.00000000E+00
 6  7-1.00710303E-02 1.33655649E-03
 7  1-1.23491184E-01-1.01618058E-01 8.33536500E-03-1.90113477E-02 3.00166488E-01
 7  2-1.17827853E-01 0.00000000E+00-3.46882835E-02 2.11273893E-01-7.64126467E-02
 7  3 0.00000000E+00 2.32714320E-02-1.84862731E-02-3.63311060E-05 2.10408038E-02
 7  4 0.00000000E+00 0.00000000E+00 2.36723799E-02-5.38142743E-02-3.56229417E-01
 7  5 3.71265829E-01 0.00000000E+00-1.01894832E-01-2.65029584E-01 2.68751000E-01
 7  6 0.00000000E+00 2.89434262E-02-3.31755230E-03-4.82097533E-03-6.91223136E-03
 7  7 0.00000000E+00 0.00000000E+00
 8  1 1.54953511E-01 1.59250800E-01 4.76183241E-02-1.29936246E-01 1.78646282E-01
 8  2 4.28467307E-01 0.00000000E+00-1.76105956E-01 1.32901421E-01 3.00938281E-01
 8  3 0.00000000E+00 9.84317852E-03 2.08350404E-02-1.35598737E-02-5.63064451E-03
 8  4 0.00000000E+00 0.00000000E+00 9.59081317E-03-1.38341477E-02-2.80592327E-01
 8  5-2.81671512E-01 0.00000000E+00-5.78932368E-02-2.09884456E-01-2.03784032E-01
 8  6 0.00000000E+00 2.09074181E-02 1.34884096E-03 1.44281136E-03-1.68482931E-03
 8  7 0.00000000E+00 0.00000000E+00
 9  1 0.00000000E+00 0.00000000E+00 0.00000000E+00 0.00000000E+00 0.00000000E+00
 9  2 0.00000000E+00 6.07690118E-01 0.00000000E+00 0.00000000E+00 0.00000000E+00
 9  3 4.09087518E-01 0.00000000E+00 0.00000000E+00 0.00000000E+00 0.00000000E+00
 9  4-4.55074001E-03 1.42998318E-02 0.00000000E+00 0.00000000E+00 0.00000000E+00
 9  5 0.00000000E+00-3.62055395E-01 0.00000000E+00 0.00000000E+00 0.00000000E+00
 9  6-2.61921042E-01 0.00000000E+00 0.00000000E+00 0.00000000E+00 0.00000000E+00
 9  7-2.00154318E-03-4.17949104E-04
10  1 1.82182627E-01 7.89570262E-01 7.13592264E-02-1.40605842E-01-2.40603848E-01
10  2-3.11289815E-01 0.00000000E+00-4.83780287E-01-2.19320611E-01-4.00989621E-01
10  3 0.00000000E+00 2.41972192E-02 2.50985249E-03 9.70919972E-03-8.58490556E-03
10  4 0.00000000E+00 0.00000000E+00-2.26326234E-02 5.66673610E-02-2.94321448E-01
10  5 4.86091618E-02 0.00000000E+00 1.10931986E-01-3.01957914E-01 4.53165300E-02
10  6 0.00000000E+00-2.99904349E-03 6.80815489E-03 5.60917015E-03 2.92741935E-03
10  7 0.00000000E+00 0.00000000E+00
11  1 1.23285372E-01 7.23389409E-01 2.10503118E-03 5.83209093E-02 4.67233022E-01
11  2-1.86558175E-01 0.00000000E+00-2.26631449E-01 5.52574230E-01-2.79495685E-01
11  3 0.00000000E+00 8.27237045E-03 2.43872259E-02 2.82813400E-02 1.04654073E-02
11  4 0.00000000E+00 0.00000000E+00 3.42181500E-02-1.04327851E-01 3.31741098E-01
11  5 5.79644301E-03 0.00000000E+00-1.53942074E-01 3.64025194E-01 6.97517022E-03
11  6 0.00000000E+00-2.30262726E-03-1.60065388E-02-1.72281832E-02 2.63348288E-03
11  7 0.00000000E+00 0.00000000E+00
12  1-1.14261534E+00 1.22515922E+00-3.82570460E-03 1.00333232E-01-8.55554383E-02
12  2 3.13597099E-01 0.00000000E+00-4.13254095E-01 4.46563780E-02-2.87370949E-01
12  3 0.00000000E+00 2.86421099E-02-1.00882942E-01 8.36826900E-02 1.00621625E-01
12  4 0.00000000E+00 0.00000000E+00-8.82204848E-03-1.70997957E-01 1.19678102E-02
12  5-8.24690194E-02 0.00000000E+00 3.30477881E-01-8.66585030E-03 5.81808592E-02
12  6 0.00000000E+00-9.42710316E-02-7.94291135E-02-8.40055464E-02-3.51483204E-02
12  7 0.00000000E+00 0.00000000E+00
13  1 1.06834211E-01-4.76420724E-01-3.74915873E-02-1.17124295E+00 1.49672944E-01
13  2 3.14113496E-01 0.00000000E+00 2.23644363E+00-1.63831354E-01-2.27848429E-01
13  3 0.00000000E+00-4.53386125E-01-3.79700188E-01-3.88508756E-01-1.75775298E-03
13  4 0.00000000E+00 0.00000000E+00-2.77292262E-02-6.70240273E-01-4.34902146E-03
13  5 6.24352563E-02 0.00000000E+00 1.16067665E+00 1.57655298E-01-1.83970692E-02
13  6 0.00000000E+00-3.88081940E-01-3.01440697E-01-2.96178361E-01 8.32349277E-03
13  7 0.00000000E+00 0.00000000E+00
14  1 0.00000000E+00 0.00000000E+00 0.00000000E+00 0.00000000E+00 0.00000000E+00
14  2 0.00000000E+00-9.13614444E-01 0.00000000E+00 0.00000000E+00 0.00000000E+00
14  3 1.03121986E+00 0.00000000E+00 0.00000000E+00 0.00000000E+00 0.00000000E+00
14  4-2.43668520E-03 1.17799364E-02 0.00000000E+00 0.00000000E+00 0.00000000E+00
14  5 0.00000000E+00-1.94658423E-01 0.00000000E+00 0.00000000E+00 0.00000000E+00
14  6 6.45372649E-02 0.00000000E+00 0.00000000E+00 0.00000000E+00 0.00000000E+00
14  7-3.69852967E-02 1.36043145E-03
15  1 1.59176481E-02-4.31919440E-02-1.25919123E-02-7.28413686E-02-7.21723205E-01
15  2-3.18684622E-01 0.00000000E+00 2.33163447E-01 9.05659887E-01 3.46268196E-01
15  3 0.00000000E+00-8.32489797E-02 6.60633557E-03-4.04618889E-03 1.31915795E-02
15  4 0.00000000E+00 0.00000000E+00-3.60494244E-02-8.73728799E-01-2.14090638E-01
15  5-8.38251650E-02 0.00000000E+00 1.43636952E+00 4.47065253E-01 4.25522673E-02
15  6 0.00000000E+00-5.82031245E-01-3.59559096E-01-3.61604722E-01-1.63792587E-02
15  7 0.00000000E+00 0.00000000E+00
16  1-2.82511117E-01-3.86673999E-01-1.72922212E-02-4.70346507E-01 3.55130025E-01
16  2-7.12586823E-01 0.00000000E+00 9.36355302E-01-5.85823116E-01 9.69890499E-01
16  3 0.00000000E+00-1.13848232E-01-2.45251542E-01-9.64547335E-02 1.23725673E-01
16  4 0.00000000E+00 0.00000000E+00-8.17540435E-03-9.10165590E-02 7.13743497E-02
16  5-3.83225209E-01 0.00000000E+00 2.65700874E-01-1.37531618E-01 2.82827834E-01
16  6 0.00000000E+00 3.63983355E-04-6.46060091E-02-4.96018193E-02-9.56109797E-02
16  7 0.00000000E+00 0.00000000E+00
17  1 5.89199536E-02 4.65108163E-02 3.94375883E-02 6.26591405E-01 4.38803858E-01
17  2 2.80284371E-02 0.00000000E+00-1.37710362E+00-8.46965813E-01-4.55637917E-02
17  3 0.00000000E+00 4.23717192E-01 1.14806874E-01 9.54927178E-02-5.72147702E-02
17  4 0.00000000E+00 0.00000000E+00-9.03379141E-02-1.29008154E+00-4.46072330E-01
17  5 9.06811229E-02 0.00000000E+00 2.89282209E+00 1.05216135E-01-8.83639588E-02
17  6 0.00000000E+00-4.56040463E-01-6.55094681E-01-6.57498001E-01 2.18558401E-02
17  7 0.00000000E+00 0.00000000E+00
18  1 0.00000000E+00 0.00000000E+00 0.00000000E+00 0.00000000E+00 0.00000000E+00
18  2 0.00000000E+00 1.76939988E-01 0.00000000E+00 0.00000000E+00 0.00000000E+00
18  3-3.51198398E-01 0.00000000E+00 0.00000000E+00 0.00000000E+00 0.00000000E+00
18  4 2.36787025E-01-1.36803571E-02 0.00000000E+00 0.00000000E+00 0.00000000E+00
18  5 0.00000000E+00-8.77132114E-01 0.00000000E+00 0.00000000E+00 0.00000000E+00
18  6 1.01839684E+00 0.00000000E+00 0.00000000E+00 0.00000000E+00 0.00000000E+00
18  7-3.33495803E-02 2.35463516E-03
19  1 3.09413892E-01 4.36718094E-02 9.27074257E-03 2.04170676E-01-2.19901867E-02
19  2 3.51179563E-01 0.00000000E+00-3.85128507E-01 1.01801231E-01-6.51386228E-01
19  3 0.00000000E+00 4.87625690E-02 1.96941952E-01-5.51913675E-02 9.74601368E-02
19  4 0.00000000E+00 0.00000000E+00-7.65585588E-04 9.42979749E-03-1.16418925E-01
19  5-8.15571589E-01 0.00000000E+00-7.43346543E-03 1.21464576E-01 1.01049389E+00
19  6 0.00000000E+00 1.93267716E-02 1.02610959E-02-2.23514549E-02 8.23530379E-02
19  7 0.00000000E+00 0.00000000E+00
20  1 4.28341963E-02-1.66907753E-02 3.07712656E-02 3.59424659E-01 4.60175588E-03
20  2 5.29613483E-03 0.00000000E+00-1.02404407E+00-5.56247696E-01-5.67671332E-03
20  3 0.00000000E+00 2.25093775E-01 3.98653712E-02-1.00612094E-02-2.18812015E-01
20  4 0.00000000E+00 0.00000000E+00-5.68111029E-02-9.37238961E-01 7.35356847E-01
20  5-9.05360601E-02 0.00000000E+00 2.02322296E+00-1.16843053E+00 1.26622692E-01
20  6 0.00000000E+00-6.66149906E-01-2.25033611E-01-2.38371829E-01 1.79801878E-01
20  7 0.00000000E+00 0.00000000E+00
21  1 0.00000000E+00 0.00000000E+00 0.00000000E+00 0.00000000E+00 0.00000000E+00
21  2 0.00000000E+00 5.69756791E-03 0.00000000E+00 0.00000000E+00 0.00000000E+00
21  3-3.50687316E-02 0.00000000E+00 0.00000000E+00 0.00000000E+00 0.00000000E+00
21  4 6.70786315E-01-4.30978676E-02 0.00000000E+00 0.00000000E+00 0.00000000E+00
21  5 0.00000000E+00 2.24061786E-01 0.00000000E+00 0.00000000E+00 0.00000000E+00
21  6-3.29577697E-01 0.00000000E+00 0.00000000E+00 0.00000000E+00 0.00000000E+00
21  7-6.22062134E-01-5.29134792E-03
22  1 1.96650317E-01 6.12759092E-03 1.18787493E-02 2.40377475E-01 1.11236773E-02
22  2 9.48212482E-02 0.00000000E+00-5.36085686E-01-1.70828951E-01-2.22028616E-01
22  3 0.00000000E+00 6.19490352E-02 3.63652069E-01-2.68950884E-01 6.12322854E-01
22  4 0.00000000E+00 0.00000000E+00-2.13383936E-02-3.03598192E-01 1.73833572E-01
22  5 1.22847278E-01 0.00000000E+00 6.85447003E-01-3.34109597E-01-1.80453155E-01
22  6 0.00000000E+00-2.41839859E-01 1.48247672E-02-1.46732172E-01-5.40817077E-01
22  7 0.00000000E+00 0.00000000E+00
23  1 0.00000000E+00 0.00000000E+00 0.00000000E+00 0.00000000E+00 0.00000000E+00
23  2 0.00000000E+00 2.80314851E-03 0.00000000E+00 0.00000000E+00 0.00000000E+00
23  3-2.58216152E-02 0.00000000E+00 0.00000000E+00 0.00000000E+00 0.00000000E+00
23  4 2.72628417E-02 9.15544861E-01 0.00000000E+00 0.00000000E+00 0.00000000E+00
23  5 0.00000000E+00 7.20556273E-04 0.00000000E+00 0.00000000E+00 0.00000000E+00
23  6-7.56671417E-04 0.00000000E+00 0.00000000E+00 0.00000000E+00 0.00000000E+00
23  7-3.01968472E-02 3.77415733E-01
24  1-2.03119950E-02 1.06969353E-02 3.19847255E-02-3.61474501E-01-3.38707470E-01
24  2-2.53430817E-03 0.00000000E+00 3.36752060E-01 3.70881969E-01 4.26825721E-03
24  3 0.00000000E+00 5.84937024E-01-9.46454899E-02-4.48672739E-01-1.87109173E-02
24  4 0.00000000E+00 0.00000000E+00 5.75709063E-02 9.28486370E-02 2.06800250E-01
24  5-2.46658652E-03 0.00000000E+00-6.41651126E-01 7.15006942E-02 1.90293311E-03
24  6 0.00000000E+00 7.31397792E-01-4.23903002E-02-2.41573588E-01 5.56660787E-03
24  7 0.00000000E+00 0.00000000E+00
25  1-3.49848335E-01 1.50197926E-02-1.22331454E-02-1.18213850E-01 1.09435379E-01
25  2-1.33693013E-01 0.00000000E+00 2.92374301E-01-1.03689890E-01 2.78149028E-01
25  3 0.00000000E+00-1.79987327E-01 4.50098069E-01-3.68965658E-01-1.91144582E-01
25  4 0.00000000E+00 0.00000000E+00-7.65392712E-03 9.55645640E-02-1.01191388E-01
25  5 3.21036582E-02 0.00000000E+00-9.04866787E-02 9.45397919E-02-5.84357070E-02
25  6 0.00000000E+00-8.99436099E-02 7.36438129E-01-6.32841357E-01 1.73541620E-01
25  7 0.00000000E+00 0.00000000E+00
26  1 0.00000000E+00 0.00000000E+00 0.00000000E+00 0.00000000E+00 0.00000000E+00
26  2 0.00000000E+00-1.05015274E-04 0.00000000E+00 0.00000000E+00 0.00000000E+00
26  3 8.76690967E-03 0.00000000E+00 0.00000000E+00 0.00000000E+00 0.00000000E+00
26  4-1.01609001E-02-3.99896667E-01 0.00000000E+00 0.00000000E+00 0.00000000E+00
26  5 0.00000000E+00 1.99521455E-03 0.00000000E+00 0.00000000E+00 0.00000000E+00
26  6-4.00289926E-03 0.00000000E+00 0.00000000E+00 0.00000000E+00 0.00000000E+00
26  7 6.39529127E-03 9.26347850E-01
27  1-4.49132500E-01 7.68465645E-02-7.08456016E-03-1.55168310E-01 7.34744128E-02
27  2-1.43353374E-01 0.00000000E+00 2.93798725E-01-8.13157249E-02 2.98981084E-01
27  3 0.00000000E+00-1.04773640E-01 6.84285692E-01-6.54996332E-01-1.42012520E-01
27  4 0.00000000E+00 0.00000000E+00-4.30681447E-03 8.62232376E-02-6.43830568E-02
27  5 4.59920457E-02 0.00000000E+00-1.04724573E-01 7.92405008E-02-8.37994008E-02
27  6 0.00000000E+00-2.85177338E-02-4.90233644E-01 5.38966426E-01 1.76819397E-01
27  7 0.00000000E+00 0.00000000E+00
28  1 1.07729343E-01-8.70551705E-02 1.10608406E-03 6.74919211E-03-7.21731519E-03
28  2-8.60264132E-02 0.00000000E+00-4.99169809E-03-1.51591205E-02 2.42288276E-01
28  3 0.00000000E+00 2.31137153E-02-4.80085274E-02 3.54664117E-02 7.48000064E-01
28  4 0.00000000E+00 0.00000000E+00 4.45672487E-04-2.63970486E-02 1.17074295E-02
28  5 1.59324731E-01 0.00000000E+00 4.16965629E-02-2.04976836E-02-2.91116896E-01
28  6 0.00000000E+00-4.65969032E-03 1.16070646E-02-1.87826045E-02 8.10725053E-01
28  7 0.00000000E+00 0.00000000E+00
29  1 0.00000000E+00 0.00000000E+00 0.00000000E+00 0.00000000E+00 0.00000000E+00
29  2 0.00000000E+00-9.87993238E-02 0.00000000E+00 0.00000000E+00 0.00000000E+00
29  3 2.61337978E-01 0.00000000E+00 0.00000000E+00 0.00000000E+00 0.00000000E+00
29  4 7.40151094E-01 4.26639390E-03 0.00000000E+00 0.00000000E+00 0.00000000E+00
29  5 0.00000000E+00 1.67099169E-01 0.00000000E+00 0.00000000E+00 0.00000000E+00
29  6-3.06012815E-01 0.00000000E+00 0.00000000E+00 0.00000000E+00 0.00000000E+00
29  7 8.16207450E-01 2.84537926E-03
30  1 5.39865100E-02-1.42403010E-01-2.08498663E-01-3.01562085E-01-6.32440106E-02
30  2-1.30489863E-02 0.00000000E+00 2.36043836E+00 1.10638775E+00 5.59004671E-02
30  3 0.00000000E+00 4.14928087E-01-1.06903442E+00-1.08661567E+00-5.57188545E-03
30  4 0.00000000E+00 0.00000000E+00-4.34870194E-02 8.80796286E-01-2.79249275E-01
30  5-1.52925630E-04 0.00000000E+00-1.38395026E+00 1.22407753E+00-1.61062190E-03
30  6 0.00000000E+00-8.91163568E-01 2.40042677E-01 2.35329727E-01 3.48891745E-03
30  7 0.00000000E+00 0.00000000E+00
31  1 1.56003218E-02-2.77948612E-01-3.20319840E-01 6.87560143E-01-1.38444548E-02
31  2-5.56612414E-02 0.00000000E+00 1.43524973E+00-5.89276656E-01 1.67065677E-01
31  3 0.00000000E+00-1.51400163E+00-8.89844825E-01-9.54429188E-01-1.92337108E-02
31  4 0.00000000E+00 0.00000000E+00-2.04824857E-01-6.56756842E-01 1.95574759E-01
31  5 5.24737952E-03 0.00000000E+00 2.50734919E+00-6.67502192E-01-1.84574861E-02
31  6 0.00000000E+00-1.87057754E-01-1.06980709E+00-1.07517508E+00 2.07746296E-02
31  7 0.00000000E+00 0.00000000E+00
32  1 5.42320059E-02 1.10611839E-01 2.26402363E-01 5.12400520E-02 4.09266456E-02
32  2 3.17536758E-02 0.00000000E+00-2.22963238E+00-6.32450587E-01-9.90765945E-02
32  3 0.00000000E+00 5.16356664E-01 7.97835586E-01 8.54011796E-01 2.19190588E-02
32  4 0.00000000E+00 0.00000000E+00-5.24732811E-01-1.10065962E+00 1.84394734E-01
32  5-4.09236962E-03 0.00000000E+00 5.70228916E+00-7.01473691E-01 1.32538925E-02
32  6 0.00000000E+00-1.79369328E+00-2.15037998E+00-2.15051326E+00-1.16278850E-02
32  7 0.00000000E+00 0.00000000E+00
 $end

! TRAVIS-CI SMALL

! TRAVIS-CI SKIP
