!   test frozen orbital option.  HNO has 35 AOs and 33 MOs in CCD.
!   all 8 orbitals occupied in the RHF are kept unchanged,
!   using FCORE to freeze the inert chemical core,
!   and MOFRZ to freeze the six lowest active orbitals.
!   Using both ensures both keywords are tested by this run.
!
!   FINAL MCSCF ENERGY=  -129.9253385413 after 14 iterations
!   full optimization is -129.9281402479
!
!   this run takes 4 seconds on 2.66 GHz Cloverton (22 May 2013)
!
 $contrl scftyp=mcscf runtyp=energy ispher=1 nzvar=3 $end
 $system parall=.true. mwords=5 memddi=20 $end
 $basis  gbasis=ccd $end
 $guess  guess=moread norb=33 $end

 $mcscf  cistep=aldet fullnr=.true.
         fcore=.true. mofrz(1)=3,4,5,6,7,8 canonc=.f. $end
 $det    ncore=2 nact=9 nels=12 $end
 $trans  dirtrf=.true. $end

 $zmat   izmat(1)=1,1,2,  1,2,3,  2,1,2,3 $end
 $data
HNO ... RHF/ACCQ geometry
Cs

H   1.0  -0.3169451268   0.9735396853   0.0000000000
N   7.0   0.0244778456   0.0017981386   0.0000000000
O   8.0   1.1891773268   0.0005641944   0.0000000000
 $end

VVOs for HNO ... RHF/ACCQ geometry ... E(RHF)= -129.8011836287
 $VEC   
 1  1-3.62481337E-04 2.21457411E-04-5.35715635E-05 1.41766781E-06 0.00000000E+00
 1  2 8.19501818E-06-2.32742455E-04 2.70073297E-03-1.73151616E-04 4.43740674E-05
 1  3 0.00000000E+00 1.49189052E-03 1.30560566E-04 0.00000000E+00-5.36186597E-04
 1  4 2.93239757E-04 2.42946840E-04-1.88900875E-05 0.00000000E+00 0.00000000E+00
 1  5 1.00111764E+00 1.50533144E-03-5.50419091E-03-1.96868877E-03 7.68114985E-05
 1  6 0.00000000E+00 2.08488275E-03-8.64431422E-05 0.00000000E+00 2.03284161E-04
 1  7 1.56858177E-04-3.60142338E-04 1.41143068E-05 0.00000000E+00 0.00000000E+00
 2  1-3.69195070E-04 8.98637830E-04-2.58856221E-04 7.95515780E-04 0.00000000E+00
 2  2 1.00104475E+00 1.49735842E-03-2.53933418E-03 1.91731823E-03 1.87768755E-03
 2  3 0.00000000E+00 1.10392683E-05-8.28059322E-04 0.00000000E+00 6.20201322E-04
 2  4 1.78698703E-04-7.98900025E-04-1.10374638E-04 0.00000000E+00 0.00000000E+00
 2  5-1.69015089E-04 1.63529833E-04-8.48207259E-04 1.89032666E-04-4.55605175E-05
 2  6 0.00000000E+00 9.27559851E-04 1.32724526E-04 0.00000000E+00-5.57157604E-04
 2  7 2.02958093E-04 3.54199511E-04 3.62091117E-05 0.00000000E+00 0.00000000E+00
 3  1 6.80273643E-02-6.28781298E-03 7.61077771E-03-1.52786407E-02 0.00000000E+00
 3  2-3.44854405E-03 2.80277879E-01 1.27884287E-01 1.85573354E-01 2.01391463E-02
 3  3 0.00000000E+00 1.78852961E-02-2.77425325E-03 0.00000000E+00 3.21432286E-02
 3  4-1.87593250E-02-1.33839036E-02 5.46649978E-03 0.00000000E+00 0.00000000E+00
 3  5-6.26719598E-03 3.71153484E-01 3.36389673E-01-1.64812961E-01 6.86355357E-03
 3  6 0.00000000E+00-5.58679504E-02 7.08922568E-03 0.00000000E+00 2.10829638E-02
 3  7-1.11322123E-02-9.95075152E-03-1.57834123E-03 0.00000000E+00 0.00000000E+00
 4  1-2.66773527E-01-2.01498124E-02-1.04683139E-02 3.47820171E-02 0.00000000E+00
 4  2-5.83848930E-03-3.39093688E-01-3.01875949E-01 1.44833701E-01-1.38346500E-01
 4  3 0.00000000E+00 6.85086821E-02-3.09375776E-02 0.00000000E+00 1.77278700E-02
 4  4-1.75616752E-02-1.66194806E-04 1.45320051E-03 0.00000000E+00 0.00000000E+00
 4  5 9.39755586E-04 2.74923102E-01 3.53163525E-01 1.52155507E-01-5.52544324E-02
 4  6 0.00000000E+00 8.14787631E-02-2.83967828E-02 0.00000000E+00-1.19419353E-02
 4  7 7.22884621E-03 4.71308911E-03 6.45815272E-03 0.00000000E+00 0.00000000E+00
 5  1 2.21283935E-01 6.51485282E-02 5.15550965E-03-2.22014347E-02 0.00000000E+00
 5  2-1.22991870E-02-1.09762496E-01-6.68652195E-02-1.94847254E-01 3.14644009E-01
 5  3 0.00000000E+00-2.45762742E-02 1.31722620E-01 0.00000000E+00-2.37588657E-02
 5  4 2.44577619E-02-6.98896203E-04 1.58941243E-02 0.00000000E+00 0.00000000E+00
 5  5-2.08937229E-03 1.29941878E-01 2.30534985E-01 3.33424828E-01 3.06106999E-01
 5  6 0.00000000E+00 1.87309778E-01 1.78241944E-01 0.00000000E+00-2.01175671E-02
 5  7 1.21920475E-02 7.92551960E-03-1.84424680E-02 0.00000000E+00 0.00000000E+00
 6  1-4.88314350E-02-4.29374159E-02 7.57779210E-03 8.50347643E-03 0.00000000E+00
 6  2 7.61069900E-03-1.01552348E-01-2.61527420E-01 3.68706404E-01 1.97936442E-01
 6  3 0.00000000E+00 1.45613720E-01 1.24407023E-01 0.00000000E+00 2.18443166E-02
 6  4-7.78626494E-03-1.40580516E-02 3.35794784E-02 0.00000000E+00 0.00000000E+00
 6  5 3.42776572E-03-6.86552404E-02-1.59254452E-01-3.40206743E-01 3.37175729E-01
 6  6 0.00000000E+00-2.05782097E-01 2.08535877E-01 0.00000000E+00 1.90025112E-02
 6  7-9.03461915E-03-9.96789210E-03-1.66281791E-02 0.00000000E+00 0.00000000E+00
 7  1 0.00000000E+00 0.00000000E+00 0.00000000E+00 0.00000000E+00 1.02381118E-02
 7  2 0.00000000E+00 0.00000000E+00 0.00000000E+00 0.00000000E+00 0.00000000E+00
 7  3 3.74269801E-01 0.00000000E+00 0.00000000E+00 2.53046941E-01 0.00000000E+00
 7  4 0.00000000E+00 0.00000000E+00 0.00000000E+00 5.18786542E-02 1.14985869E-02
 7  5 0.00000000E+00 0.00000000E+00 0.00000000E+00 0.00000000E+00 0.00000000E+00
 7  6 4.60212642E-01 0.00000000E+00 0.00000000E+00 3.17107765E-01 0.00000000E+00
 7  7 0.00000000E+00 0.00000000E+00 0.00000000E+00-3.66209112E-02 1.82193015E-03
 8  1-2.88877727E-01-1.11924615E-01-1.00915755E-02 1.11075901E-02 0.00000000E+00
 8  2-2.93906291E-03 1.17268223E-01 3.20466511E-01-1.50902837E-01-3.68530308E-01
 8  3 0.00000000E+00-1.15945734E-01-2.82086034E-01 0.00000000E+00 2.79149636E-03
 8  4-1.89241271E-02 1.61326307E-02 2.34953080E-02 0.00000000E+00 0.00000000E+00
 8  5-4.96332808E-03-1.90681095E-02 1.07058451E-02 5.69463995E-02 4.96701895E-01
 8  6 0.00000000E+00 4.00367755E-02 4.18153215E-01 0.00000000E+00-3.19893707E-03
 8  7 1.20970668E-03 1.98923038E-03-2.13942911E-03 0.00000000E+00 0.00000000E+00
 9  1 0.00000000E+00 0.00000000E+00 0.00000000E+00 0.00000000E+00-4.68975014E-04
 9  2 0.00000000E+00 0.00000000E+00 0.00000000E+00 0.00000000E+00 0.00000000E+00
 9  3 5.99023377E-01 0.00000000E+00 0.00000000E+00 3.96429857E-01 0.00000000E+00
 9  4 0.00000000E+00 0.00000000E+00 0.00000000E+00-4.22193729E-03-7.59973135E-04
 9  5 0.00000000E+00 0.00000000E+00 0.00000000E+00 0.00000000E+00 0.00000000E+00
 9  6-5.34569573E-01 0.00000000E+00 0.00000000E+00-3.51724397E-01 0.00000000E+00
 9  7 0.00000000E+00 0.00000000E+00 0.00000000E+00 9.33676072E-04-1.06171564E-04
10  1 6.36014908E-01 7.10317753E-01-1.39542139E-02 3.97455672E-02 0.00000000E+00
10  2-1.29868699E-01-4.71601733E-01-3.52592185E-01 1.49572177E-01-5.67176350E-01
10  3 0.00000000E+00 1.30824185E-01-3.15810031E-01 0.00000000E+00-2.02732373E-03
10  4-1.93764369E-03 3.96496742E-03-3.73227880E-03 0.00000000E+00 0.00000000E+00
10  5-1.99652145E-02-4.66551083E-02-1.02636893E-02-7.06505168E-02 1.12250965E-01
10  6 0.00000000E+00-7.05930995E-02 7.03860367E-02 0.00000000E+00-1.84740663E-02
10  7 1.04922724E-02 7.98179389E-03 6.16347837E-03 0.00000000E+00 0.00000000E+00
11  1 1.15714126E-01-3.64310823E-02 8.05184937E-04-1.65004270E-02 0.00000000E+00
11  2 9.49416164E-02 4.02199268E-01 5.55185882E-01 7.12823749E-01-6.92159550E-02
11  3 0.00000000E+00 5.91352288E-01-5.88888038E-02 0.00000000E+00-1.43115827E-02
11  4 1.39878560E-02 3.23726693E-04-4.30865279E-03 0.00000000E+00 0.00000000E+00
11  5-1.01259234E-01-4.44677461E-01-5.97949734E-01 6.37577232E-01 2.13555897E-02
11  6 0.00000000E+00 4.89486543E-01 1.33460541E-02 0.00000000E+00-7.12849527E-03
11  7 2.74311306E-03 4.38538220E-03-4.44844974E-04 0.00000000E+00 0.00000000E+00
12  1-8.37298131E-01 1.76863757E+00 1.05857717E-01-2.56287701E-01 0.00000000E+00
12  2 1.08523569E-01 2.30032247E-01-8.51512177E-01 4.41605593E-02 2.92634410E-01
12  3 0.00000000E+00 1.81876415E-01-4.38263247E-01 0.00000000E+00 3.58126075E-02
12  4-1.33424385E-01 9.76117773E-02 8.36867111E-02 0.00000000E+00 0.00000000E+00
12  5-9.84756009E-03-7.72954103E-02-1.66156163E-01 6.39386082E-03-9.09130290E-02
12  6 0.00000000E+00 7.94352852E-02-7.73244202E-04 0.00000000E+00 3.97771791E-03
12  7-4.89547516E-03 9.17757253E-04-2.41776240E-02 0.00000000E+00 0.00000000E+00
13  1-2.52242436E-02 5.80450126E-02-6.00531628E-03-2.78292511E-02 0.00000000E+00
13  2-1.92339485E-01-3.64247114E-01 1.83901789E+00-6.37130851E-01-2.09761068E-02
13  3 0.00000000E+00 2.13687062E+00-1.39990046E-02 0.00000000E+00 1.11709895E-01
13  4-6.69946002E-02-4.47152946E-02 1.02404976E-02 0.00000000E+00 0.00000000E+00
13  5 5.62356647E-02 1.35449292E-02-1.94497071E+00-1.77053708E-01-3.59469629E-02
13  6 0.00000000E+00 9.40713346E-01 3.60629677E-02 0.00000000E+00-1.24707773E-01
13  7 6.11123205E-02 6.35954529E-02 1.54102129E-03 0.00000000E+00 0.00000000E+00
14  1 0.00000000E+00 0.00000000E+00 0.00000000E+00 0.00000000E+00 3.09366079E-03
14  2 0.00000000E+00 0.00000000E+00 0.00000000E+00 0.00000000E+00 0.00000000E+00
14  3-9.23561326E-01 0.00000000E+00 0.00000000E+00 1.15761717E+00 0.00000000E+00
14  4 0.00000000E+00 0.00000000E+00 0.00000000E+00-6.70661035E-02 4.50440583E-03
14  5 0.00000000E+00 0.00000000E+00 0.00000000E+00 0.00000000E+00 0.00000000E+00
14  6-1.63409707E-01 0.00000000E+00 0.00000000E+00-1.44509341E-01 0.00000000E+00
14  7 0.00000000E+00 0.00000000E+00 0.00000000E+00 5.35158842E-02-3.57984254E-05
15  1-6.69737564E-01-1.71453120E-01-1.10451529E-01 1.00958967E-01 0.00000000E+00
15  2 1.71895308E-01 4.90558457E-01 1.40769800E-01-1.10028332E-01-6.96260169E-01
15  3 0.00000000E+00 1.07490371E-02 1.46542818E+00 0.00000000E+00 1.86545418E-02
15  4-4.19888192E-02 2.33342774E-02-4.55399542E-02 0.00000000E+00 0.00000000E+00
15  5 2.99883469E-02 5.73734381E-02-1.35434341E-01-1.98194118E-02-1.81228350E-01
15  6 0.00000000E+00 1.66935580E-01-1.65707483E-01 0.00000000E+00 2.24739928E-02
15  7-2.21270522E-02-3.46940549E-04 2.94490959E-02 0.00000000E+00 0.00000000E+00
16  1-1.13011354E-01-2.74559970E-01-1.74454245E-01 2.17752518E-02 0.00000000E+00
16  2-5.69686036E-02-1.37214868E-01 1.80610500E+00 3.12621058E-01 5.02127832E-02
16  3 0.00000000E+00 4.77579651E-01 2.45248465E-01 0.00000000E+00 1.86007837E-01
16  4-9.06982139E-02-9.53096236E-02-1.06853065E-02 0.00000000E+00 0.00000000E+00
16  5-9.40875647E-03-1.68749813E-01-1.00442105E+00-6.69725617E-01 1.70824435E-01
16  6 0.00000000E+00 1.73758689E+00-2.40015183E-01 0.00000000E+00-1.97168112E-03
16  7-4.49444254E-03 6.46612366E-03-1.51806248E-03 0.00000000E+00 0.00000000E+00
17  1-1.32853961E-01-6.06918163E-01 1.98987845E-01 1.74412108E-01 0.00000000E+00
17  2-3.05451561E-01-6.88709739E-01 1.32032075E+00 1.87381470E-01 1.93295668E-02
17  3 0.00000000E+00-3.07653653E-01-6.36618942E-04 0.00000000E+00-1.30501288E-02
17  4 2.18701204E-02-8.81999165E-03-5.09220640E-02 0.00000000E+00 0.00000000E+00
17  5-5.34248087E-02-1.46229651E-01 2.44184201E-02-8.33556356E-02-7.96307880E-01
17  6 0.00000000E+00 2.37871955E-01 9.79641235E-01 0.00000000E+00-1.68369282E-02
17  7 8.81844898E-03 8.01847925E-03 8.43756195E-03 0.00000000E+00 0.00000000E+00
18  1 0.00000000E+00 0.00000000E+00 0.00000000E+00 0.00000000E+00-6.33753691E-02
18  2 0.00000000E+00 0.00000000E+00 0.00000000E+00 0.00000000E+00 0.00000000E+00
18  3 7.41057022E-02 0.00000000E+00 0.00000000E+00-5.55115145E-01 0.00000000E+00
18  4 0.00000000E+00 0.00000000E+00 0.00000000E+00-8.36708430E-02-1.90319523E-02
18  5 0.00000000E+00 0.00000000E+00 0.00000000E+00 0.00000000E+00 0.00000000E+00
18  6-8.93002183E-01 0.00000000E+00 0.00000000E+00 1.28856223E+00 0.00000000E+00
18  7 0.00000000E+00 0.00000000E+00 0.00000000E+00 3.38495665E-02-2.22344287E-03
19  1-8.12173536E-01-8.66807001E-01-7.10757437E-02 1.79913305E-01 0.00000000E+00
19  2-5.86992144E-01-1.25008287E+00 2.26730228E+00 1.32988545E-01-7.09668896E-02
19  3 0.00000000E+00-2.78054358E-01 1.30972857E+00 0.00000000E+00-1.15260785E-01
19  4-4.50277060E-02 1.60288491E-01 6.35214215E-02 0.00000000E+00 0.00000000E+00
19  5-8.37953947E-02-2.01210967E-01-2.86784684E-02 1.87596270E-01 3.22250262E-01
19  6 0.00000000E+00-1.77297183E-01-7.68447786E-01 0.00000000E+00-4.93914170E-02
19  7-1.11404193E-03 5.05054589E-02-3.78246029E-02 0.00000000E+00 0.00000000E+00
20  1 0.00000000E+00 0.00000000E+00 0.00000000E+00 0.00000000E+00 8.45669885E-01
20  2 0.00000000E+00 0.00000000E+00 0.00000000E+00 0.00000000E+00 0.00000000E+00
20  3 1.86534463E-02 0.00000000E+00 0.00000000E+00-4.30220223E-01 0.00000000E+00
20  4 0.00000000E+00 0.00000000E+00 0.00000000E+00-8.14237792E-02 3.59379091E-01
20  5 0.00000000E+00 0.00000000E+00 0.00000000E+00 0.00000000E+00 0.00000000E+00
20  6-5.22258174E-02 0.00000000E+00 0.00000000E+00 2.32926636E-01 0.00000000E+00
20  7 0.00000000E+00 0.00000000E+00 0.00000000E+00 3.58720727E-02 4.99183325E-02
21  1-3.59705391E-02 5.82624862E-03 7.55704886E-01 3.19489772E-01 0.00000000E+00
21  2 1.20354537E-01 2.58611335E-01-2.95679398E-01-3.66635603E-02-1.06889688E-01
21  3 0.00000000E+00-4.56470898E-01 2.01045261E-01 0.00000000E+00 4.67793765E-02
21  4 1.35875224E-01-1.82654600E-01 3.57192934E-01 0.00000000E+00 0.00000000E+00
21  5 4.14182774E-02 1.01450526E-01 2.06767190E-01-1.24432620E-01 1.55439536E-01
21  6 0.00000000E+00 1.30757913E-01-4.63742436E-01 0.00000000E+00 2.72987838E-02
21  7 3.04590864E-02-5.77578702E-02-1.17283825E-01 0.00000000E+00 0.00000000E+00
22  1 6.67968282E-02 4.33534139E-02 1.61543590E-01-3.39650274E-01 0.00000000E+00
22  2 7.95873279E-02 1.25133489E-01-2.58587106E+00-1.28913488E-01-2.34717078E-01
22  3 0.00000000E+00-1.54844695E+00 9.01613738E-02 0.00000000E+00-1.37678725E-01
22  4 3.34433362E-01-1.96754637E-01-1.31227454E-02 0.00000000E+00 0.00000000E+00
22  5-7.47733698E-01-1.60766775E+00 3.76345670E+00-6.07915829E-02 3.88945841E-02
22  6 0.00000000E+00-1.42300044E+00-7.15108716E-02 0.00000000E+00-1.02628779E-01
22  7 1.11354198E-01-8.72541897E-03 1.07099961E-02 0.00000000E+00 0.00000000E+00
23  1 0.00000000E+00 0.00000000E+00 0.00000000E+00 0.00000000E+00-6.85048529E-03
23  2 0.00000000E+00 0.00000000E+00 0.00000000E+00 0.00000000E+00 0.00000000E+00
23  3-1.57232327E-01 0.00000000E+00 0.00000000E+00 1.74980129E-01 0.00000000E+00
23  4 0.00000000E+00 0.00000000E+00 0.00000000E+00 8.55265803E-01 2.45224361E-01
23  5 0.00000000E+00 0.00000000E+00 0.00000000E+00 0.00000000E+00 0.00000000E+00
23  6-2.01633566E-01 0.00000000E+00 0.00000000E+00-1.68766299E-01 0.00000000E+00
23  7 0.00000000E+00 0.00000000E+00 0.00000000E+00-2.86123910E-01 4.91563883E-02
24  1 2.49897743E-01-1.85507792E-01-4.94220179E-01 6.67822748E-01 0.00000000E+00
24  2 2.94573122E-01 6.44341934E-01-1.39375757E+00-2.41413426E-01 4.22079050E-01
24  3 0.00000000E+00-5.78045059E-01-3.01959938E-01 0.00000000E+00-1.51792400E-01
24  4-1.23139178E-01 2.74931578E-01 3.93171864E-01 0.00000000E+00 0.00000000E+00
24  5-3.53974849E-01-7.56867794E-01 1.79504198E+00-9.98533205E-04-1.78227162E-01
24  6 0.00000000E+00-7.31450571E-01 1.81110210E-01 0.00000000E+00-5.00396543E-02
24  7-7.85438625E-02 1.28583517E-01-1.53319307E-01 0.00000000E+00 0.00000000E+00
25  1 1.10119950E-01-1.35361300E-02 6.21572227E-01 4.71436720E-01 0.00000000E+00
25  2 2.07471881E-01 4.14784552E-01-1.41856822E+00-1.35280746E-01 2.01089464E-01
25  3 0.00000000E+00-1.05514866E+00-2.35652018E-01 0.00000000E+00-1.46924118E-01
25  4-3.47230821E-01 4.94154939E-01-6.13416355E-01 0.00000000E+00 0.00000000E+00
25  5-2.23014483E-01-4.50502208E-01 1.70689685E+00-1.37422213E-01 1.97418079E-01
25  6 0.00000000E+00-5.55576672E-01 9.20127606E-03 0.00000000E+00-9.97628662E-03
25  7-8.41234043E-02 9.40996909E-02 2.93210982E-01 0.00000000E+00 0.00000000E+00
26  1 0.00000000E+00 0.00000000E+00 0.00000000E+00 0.00000000E+00-7.83149895E-01
26  2 0.00000000E+00 0.00000000E+00 0.00000000E+00 0.00000000E+00 0.00000000E+00
26  3 4.25455015E-02 0.00000000E+00 0.00000000E+00 2.89363333E-01 0.00000000E+00
26  4 0.00000000E+00 0.00000000E+00 0.00000000E+00-2.33571674E-01 9.11385941E-01
26  5 0.00000000E+00 0.00000000E+00 0.00000000E+00 0.00000000E+00 0.00000000E+00
26  6 5.88816305E-02 0.00000000E+00 0.00000000E+00-8.65810172E-02 0.00000000E+00
26  7 0.00000000E+00 0.00000000E+00 0.00000000E+00 7.03031764E-02 2.89601924E-01
27  1-7.87889263E-01-3.70112079E-01-2.02286728E-01 7.81702625E-01 0.00000000E+00
27  2-1.50824762E-01-1.99986806E-01 1.84146663E+00-7.28045626E-02 4.00063109E-01
27  3 0.00000000E+00 5.66754481E-01 5.16977504E-01 0.00000000E+00 8.60523517E-01
27  4-3.06197730E-02-8.29903744E-01-3.00659543E-01 0.00000000E+00 0.00000000E+00
27  5-9.79748750E-02-2.76319371E-01-9.03030668E-01 5.06846529E-01 3.79574308E-02
27  6 0.00000000E+00 1.88803565E-01-7.80811676E-02 0.00000000E+00 3.35834687E-02
27  7 2.28979039E-01-2.62562508E-01 1.41033097E-01 0.00000000E+00 0.00000000E+00
28  1-5.66070156E-01-1.86375768E-01-2.62507460E-01 4.53037145E-01 0.00000000E+00
28  2 8.51971145E-02 1.89774431E-01 2.38437242E-01-9.01991440E-02 2.42025223E-01
28  3 0.00000000E+00-3.35303969E-01 3.61246551E-01 0.00000000E+00-6.85170511E-01
28  4 4.81112730E-01 2.04057782E-01-1.25429711E-01 0.00000000E+00 0.00000000E+00
28  5 1.07991961E-01 2.57409603E-01 1.54013592E-01-3.11132333E-01 2.32432250E-03
28  6 0.00000000E+00 6.06334697E-02-4.71511214E-02 0.00000000E+00-2.14324032E-02
28  7 7.13810550E-01-6.92378147E-01 5.93340908E-02 0.00000000E+00 0.00000000E+00
29  1 0.00000000E+00 0.00000000E+00 0.00000000E+00 0.00000000E+00 2.28677342E-01
29  2 0.00000000E+00 0.00000000E+00 0.00000000E+00 0.00000000E+00 0.00000000E+00
29  3-7.13069902E-03 0.00000000E+00 0.00000000E+00-9.12044798E-02 0.00000000E+00
29  4 0.00000000E+00 0.00000000E+00 0.00000000E+00 3.20983642E-02-4.14691369E-01
29  5 0.00000000E+00 0.00000000E+00 0.00000000E+00 0.00000000E+00 0.00000000E+00
29  6-8.50567680E-03 0.00000000E+00 0.00000000E+00 3.09195010E-02 0.00000000E+00
29  7 0.00000000E+00 0.00000000E+00 0.00000000E+00-1.07937799E-02 9.59337970E-01
30  1-1.52511257E+00-3.91118679E-01-4.77979810E-01 9.46609696E-01 0.00000000E+00
30  2-1.07216639E-02 5.76736928E-02 1.65593760E+00-1.34306280E-01 4.92852410E-01
30  3 0.00000000E+00-1.00626600E-01 1.03374532E+00 0.00000000E+00-5.88888122E-01
30  4 1.14993766E+00-5.61049538E-01-2.59615494E-01 0.00000000E+00 0.00000000E+00
30  5 1.72475922E-01 3.69481232E-01-5.73012127E-01-2.16455967E-01 3.34701270E-02
30  6 0.00000000E+00 3.38106415E-01-2.26815245E-01 0.00000000E+00-2.05448977E-02
30  7-4.08596022E-01 4.29140919E-01 2.48727700E-01 0.00000000E+00 0.00000000E+00
31  1 0.00000000E+00 0.00000000E+00 0.00000000E+00 0.00000000E+00 5.14879685E-03
31  2 0.00000000E+00 0.00000000E+00 0.00000000E+00 0.00000000E+00 0.00000000E+00
31  3 1.14267372E-01 0.00000000E+00 0.00000000E+00 2.73785176E-01 0.00000000E+00
31  4 0.00000000E+00 0.00000000E+00 0.00000000E+00 7.11022899E-01-2.82212953E-03
31  5 0.00000000E+00 0.00000000E+00 0.00000000E+00 0.00000000E+00 0.00000000E+00
31  6-3.38699938E-03 0.00000000E+00 0.00000000E+00-3.53530434E-01 0.00000000E+00
31  7 0.00000000E+00 0.00000000E+00 0.00000000E+00 1.05885339E+00 1.55017192E-03
32  1 4.52925363E-01 8.51810183E-02-1.11113895E-01-4.82839325E-01 0.00000000E+00
32  2-4.40715141E-02-1.12686624E-01-1.77178607E-01 9.99567982E-02-9.08215088E-02
32  3 0.00000000E+00 2.75071274E-01 6.23042648E-02 0.00000000E+00 9.96167174E-02
32  4-2.08849550E-01 1.09232832E-01 9.30816910E-01 0.00000000E+00 0.00000000E+00
32  5 6.55797303E-03 6.43901889E-03-1.95898005E-01 4.49214465E-02-5.57329550E-02
32  6 0.00000000E+00 5.11215491E-02-2.98504869E-01 0.00000000E+00-3.30403648E-02
32  7 5.86545592E-02-2.56141944E-02 1.01076792E+00 0.00000000E+00 0.00000000E+00
33  1 3.66146477E-03-1.72699737E-02-4.83339368E-02 1.43484622E-02 0.00000000E+00
33  2-1.49131504E-01-4.30073737E-01-1.55278279E+00-7.38334818E-01 1.42687895E-02
33  3 0.00000000E+00-8.80537944E-01 9.13980256E-03 0.00000000E+00-6.40813864E-01
33  4 3.29672801E-01 3.11141063E-01 3.23596093E-02 0.00000000E+00 0.00000000E+00
33  5-3.05608529E-01-5.51014586E-01 2.32260522E+00-2.35179713E-01-4.47168051E-03
33  6 0.00000000E+00-1.25065342E+00-1.71234640E-03 0.00000000E+00 1.24517188E+00
33  7-6.24783728E-01-6.20388153E-01 2.47304666E-02 0.00000000E+00 0.00000000E+00
 $END   

! TRAVIS-CI SMALL

! TRAVIS-CI SKIP
