!  ground state 1-A-1 C4H4...MCSCF gradient using old GUGA program.
!  R.P.Johnson, M.W.Schmidt, J.Am.Chem.Soc. 103,3244-9(1981)
!  There are 100 AOs, and 18 1-A-1 determinants in C2v group
!  Diffuse functions are important in the many zwitterionic
!  excited states, so the basis is much bigger than in JACS.
!
!  FINAL E= -153.7290601802, 12 iters, RMS grad= 0.006707939
!
!  This run takes 6 seconds on a 2.66 GHz Cloverton (26 Apr 2015)
!  results have not changed substantially since 2005
!
 $contrl scftyp=mcscf runtyp=gradient coord=zmt nzvar=22 $end
 $system mwords=2 memddi=0 $end
 $basis  gbasis=n31 ngauss=6 ndfunc=1 npfunc=1 diffsp=.t. diffs=.t. $end
 $guess  guess=moread norb=100 norder=1 iorder(12)=13,12  $end
 $mcscf  cistep=guga focas=.true. $end
 $drt    group=c2v fors=.true. nmcc=12 ndoc=2 nval=2 $end
 $data
methylenecyclopropene...RHF/6-31++G(d,p) geometry
Cnv 2

C 
C 1 rCCa
C 2 rCCb 1 aCCC
C 2 rCCb 1 aCCC  3 180.0
H 1 rCHa 2 aHCCa 3   0.0
H 1 rCHa 2 aHCCa 3 180.0
H 3 rCHb 2 aHCCb 1   0.0
H 4 rCHb 2 aHCCb 1   0.0

rCCa=1.3255845
rCCb=1.4259892
rCHa=1.0741248
rCHb=1.0686219
aCCC=152.77249
aHCCa=120.75970
aHCCb=148.83911
 $end
 $zmat  izmat(1)=1,1,2, 1,2,3, 1,2,4, 1,3,4, 1,1,5, 1,1,6, 1,3,7, 1,4,8, 
           2,1,2,3,  2,1,2,4,  4,1,2,3,4,
           2,5,1,6,  2,5,1,2,  2,6,1,2,  4,2,1,5,6,   3,3,2,1,5,
           2,7,3,2,  2,7,3,4,  4,7,3,2,4,
           2,8,4,2,  2,8,4,3,  4,8,4,2,3

        ijs(1)= 1,1,  2,2,  3,3,  4,4,  5,5,  6,6,  7,7,  8,8,
            9, 9,10, 9,   11,10,
           12,11,13,11,14,11,   13,12,14,12,   15,13,   16,14,
           17,15,18,15,   19,16,
           20,17,21,17,   22,18

        sij(1)=1.0, 1.0, 1.0, 1.0, 1.0, 1.0, 1.0, 1.0, 
            1.0,-1.0,    1.0,
            2.0,-1.0,-1.0,    1.0,-1.0,   1.0,   1.0,
            1.0,-1.0,    1.0,
            1.0,-1.0,    1.0   $end

note that the RHF orbitals include the first two modified virtual
orbitals, generated by MVOQ=6.  This produces two good pi* starting
orbitals for the MCSCF.  

--- RHF ORBITALS --- GENERATED AT 10:00:31 CST  2-JAN-1997
methylenecyclopropene...RHF/6-31++G(d,p) geometry                               
E(RHF)=     -153.6840243584, E(NUC)=   96.8477377928,    2 ITERS
 $VEC
 1  1 6.97772299E-04 1.36918551E-04 0.00000000E+00 0.00000000E+00 1.57101463E-04
 1  2-1.24928675E-03 0.00000000E+00 0.00000000E+00-4.03800833E-04 3.64873100E-02
 1  3 0.00000000E+00 0.00000000E+00 7.04192831E-03-3.03394268E-05 1.93275574E-05
 1  4 3.12405913E-04 0.00000000E+00 0.00000000E+00 0.00000000E+00 9.40841062E-02
 1  5 2.74245096E-03 0.00000000E+00 0.00000000E+00-2.42200304E-04 4.10618197E-03
 1  6 0.00000000E+00 0.00000000E+00 7.53815827E-04 1.16968855E-03 0.00000000E+00
 1  7 0.00000000E+00 2.64233916E-02-3.76915682E-04-3.32607041E-04-1.36855701E-03
 1  8 0.00000000E+00 0.00000000E+00 0.00000000E+00 7.00668720E-01 1.93629372E-02
 1  9 2.67269401E-04 0.00000000E+00-3.20463172E-04-6.59150908E-03-7.13459906E-04
 1 10 0.00000000E+00 1.36782815E-03-1.57779420E-02-3.18434298E-03 0.00000000E+00
 1 11 3.49796909E-03-6.39626421E-04-1.63216386E-03-1.07546233E-03 0.00000000E+00
 1 12-5.16075118E-04 0.00000000E+00 7.00668720E-01 1.93629372E-02-2.67269401E-04
 1 13 0.00000000E+00-3.20463172E-04-6.59150908E-03 7.13459906E-04 0.00000000E+00
 1 14 1.36782815E-03-1.57779420E-02 3.18434298E-03 0.00000000E+00 3.49796909E-03
 1 15-6.39626421E-04-1.63216386E-03-1.07546233E-03 0.00000000E+00 5.16075118E-04
 1 16 0.00000000E+00 1.79420658E-05 2.99280009E-04 4.93664814E-04-2.30300959E-06
 1 17 0.00000000E+00 4.39049736E-05 1.79420658E-05 2.99280009E-04 4.93664814E-04
 1 18 2.30300959E-06 0.00000000E+00 4.39049736E-05-4.55644278E-04-2.40991192E-04
 1 19-2.50159658E-03-3.65871032E-04 0.00000000E+00 1.87905553E-04-4.55644278E-04
 1 20-2.40991192E-04-2.50159658E-03 3.65871032E-04 0.00000000E+00 1.87905553E-04
 2  1 0.00000000E+00 0.00000000E+00-4.22185659E-05 0.00000000E+00 0.00000000E+00
 2  2 0.00000000E+00 2.00871037E-03 0.00000000E+00 0.00000000E+00 0.00000000E+00
 2  3 1.61529542E-04 0.00000000E+00 0.00000000E+00 0.00000000E+00 0.00000000E+00
 2  4 0.00000000E+00 0.00000000E+00 2.04526330E-04 0.00000000E+00 0.00000000E+00
 2  5 0.00000000E+00 1.68647942E-04 0.00000000E+00 0.00000000E+00 0.00000000E+00
 2  6-3.56466335E-03 0.00000000E+00 0.00000000E+00 0.00000000E+00 5.07745637E-03
 2  7 0.00000000E+00 0.00000000E+00 0.00000000E+00 0.00000000E+00 0.00000000E+00
 2  8 0.00000000E+00 4.65952382E-04 0.00000000E+00 7.04390946E-01 2.01533951E-02
 2  9 1.00843923E-03 0.00000000E+00-5.36834228E-04-1.63826663E-02-4.88853310E-03
 2 10 0.00000000E+00 2.21883879E-03 4.49612696E-02 1.02031732E-02 0.00000000E+00
 2 11-4.30259052E-03 3.88751260E-04-1.60982658E-03-9.83353411E-04 0.00000000E+00
 2 12-8.31112306E-04 0.00000000E+00-7.04390946E-01-2.01533951E-02 1.00843923E-03
 2 13 0.00000000E+00 5.36834228E-04 1.63826663E-02-4.88853310E-03 0.00000000E+00
 2 14-2.21883879E-03-4.49612696E-02 1.02031732E-02 0.00000000E+00 4.30259052E-03
 2 15-3.88751260E-04 1.60982658E-03 9.83353411E-04 0.00000000E+00-8.31112306E-04
 2 16 0.00000000E+00 7.92066093E-05 9.91224770E-04 8.97175014E-04-3.32898478E-05
 2 17 0.00000000E+00 8.28137735E-06-7.92066093E-05-9.91224770E-04-8.97175014E-04
 2 18-3.32898478E-05 0.00000000E+00-8.28137735E-06-6.34296166E-04-2.65527299E-04
 2 19 1.33976276E-03-4.37828474E-04 0.00000000E+00 3.60713428E-04 6.34296166E-04
 2 20 2.65527299E-04-1.33976276E-03-4.37828474E-04 0.00000000E+00-3.60713428E-04
 3  1 9.61158078E-03 2.25441954E-05 0.00000000E+00 0.00000000E+00-5.56176782E-04
 3  2 2.78806225E-04 0.00000000E+00 0.00000000E+00 3.60610523E-04-2.65424943E-03
 3  3 0.00000000E+00 0.00000000E+00-1.75154912E-03-2.96513270E-04 1.65516240E-05
 3  4-6.53192996E-04 0.00000000E+00 0.00000000E+00 0.00000000E+00 9.91286815E-01
 3  5 2.70031467E-02 0.00000000E+00 0.00000000E+00 1.66140489E-03-1.34547353E-02
 3  6 0.00000000E+00 0.00000000E+00-3.71076608E-03 4.77338636E-02 0.00000000E+00
 3  7 0.00000000E+00 1.23068896E-02-1.74742075E-03-2.19475705E-03 6.41756199E-04
 3  8 0.00000000E+00 0.00000000E+00 0.00000000E+00-6.68847206E-02-1.53463168E-03
 3  9-2.60551640E-04 0.00000000E+00 2.93343323E-04 3.94497156E-03 3.68890885E-04
 3 10 0.00000000E+00-1.38228774E-03-2.06806563E-02-3.07932940E-03 0.00000000E+00
 3 11 5.55877011E-03-3.92226290E-04 7.88589605E-05-8.18018151E-04 0.00000000E+00
 3 12 6.81072859E-04 0.00000000E+00-6.68847206E-02-1.53463168E-03 2.60551640E-04
 3 13 0.00000000E+00 2.93343323E-04 3.94497156E-03-3.68890885E-04 0.00000000E+00
 3 14-1.38228774E-03-2.06806563E-02 3.07932940E-03 0.00000000E+00 5.55877011E-03
 3 15-3.92226290E-04 7.88589605E-05-8.18018151E-04 0.00000000E+00-6.81072859E-04
 3 16 0.00000000E+00 3.09125007E-05 1.81033354E-04 5.18087552E-05 1.08934749E-04
 3 17 0.00000000E+00 1.00766161E-04 3.09125007E-05 1.81033354E-04 5.18087552E-05
 3 18-1.08934749E-04 0.00000000E+00 1.00766161E-04 2.17470221E-04-2.61659141E-04
 3 19-1.29021566E-03 2.91106023E-04 0.00000000E+00 2.39889273E-05 2.17470221E-04
 3 20-2.61659141E-04-1.29021566E-03-2.91106023E-04 0.00000000E+00 2.39889273E-05
 4  1 9.95620584E-01 2.80032598E-02 0.00000000E+00 0.00000000E+00 5.08599848E-04
 4  2-1.26558215E-02 0.00000000E+00 0.00000000E+00-1.27135701E-03-1.89336172E-03
 4  3 0.00000000E+00 0.00000000E+00-1.66971141E-03-1.68037765E-03-2.31180385E-03
 4  4-1.29812952E-03 0.00000000E+00 0.00000000E+00 0.00000000E+00-1.02516804E-02
 4  5-4.00006515E-04 0.00000000E+00 0.00000000E+00 3.24944759E-04 4.46428978E-03
 4  6 0.00000000E+00 0.00000000E+00-1.07324278E-03 4.44308840E-03 0.00000000E+00
 4  7 0.00000000E+00-4.57558129E-03-1.30567887E-04 1.26823727E-05-4.85864120E-04
 4  8 0.00000000E+00 0.00000000E+00 0.00000000E+00 2.03707097E-04 5.54564162E-05
 4  9 1.55714187E-05 0.00000000E+00 2.37095922E-05-5.25342196E-04-5.63717744E-07
 4 10 0.00000000E+00 3.86045564E-04 1.07640610E-03 4.26599081E-04 0.00000000E+00
 4 11-6.22115401E-05 2.78046396E-05 1.04076882E-05 1.89393095E-05 0.00000000E+00
 4 12-2.72752765E-05 0.00000000E+00 2.03707097E-04 5.54564162E-05-1.55714187E-05
 4 13 0.00000000E+00 2.37095922E-05-5.25342196E-04 5.63717744E-07 0.00000000E+00
 4 14 3.86045564E-04 1.07640610E-03-4.26599081E-04 0.00000000E+00-6.22115401E-05
 4 15 2.78046396E-05 1.04076882E-05 1.89393095E-05 0.00000000E+00 2.72752765E-05
 4 16 0.00000000E+00-5.29116838E-05 1.23865364E-03-2.15487412E-03-2.37455927E-04
 4 17 0.00000000E+00-6.23962116E-05-5.29116838E-05 1.23865364E-03-2.15487412E-03
 4 18 2.37455927E-04 0.00000000E+00-6.23962116E-05-2.96402127E-05 2.06298431E-04
 4 19 3.97029398E-04-1.48315346E-05 0.00000000E+00-2.50167966E-05-2.96402127E-05
 4 20 2.06298431E-04 3.97029398E-04 1.48315346E-05 0.00000000E+00-2.50167966E-05
 5  1-2.80167903E-02 5.29523802E-02 0.00000000E+00 0.00000000E+00 3.48789553E-02
 5  2 2.58688740E-02 0.00000000E+00 0.00000000E+00-1.54909194E-03 1.41254324E-01
 5  3 0.00000000E+00 0.00000000E+00 3.82185533E-02-1.50631539E-03-1.88245795E-03
 5  4 3.48767865E-03 0.00000000E+00 0.00000000E+00 0.00000000E+00-1.24189229E-01
 5  5 2.37968088E-01 0.00000000E+00 0.00000000E+00 1.32343815E-01 1.39321540E-01
 5  6 0.00000000E+00 0.00000000E+00 8.38380470E-03-1.63611751E-01 0.00000000E+00
 5  7 0.00000000E+00 4.43886855E-02-6.01498421E-03-1.37925383E-02 2.08799397E-02
 5  8 0.00000000E+00 0.00000000E+00 0.00000000E+00-1.34561798E-01 2.52733839E-01
 5  9 1.41157369E-01 0.00000000E+00-7.37294651E-02 1.53125232E-01 1.59189807E-03
 5 10 0.00000000E+00-2.44202421E-03-1.25968235E-02 3.15945334E-03 0.00000000E+00
 5 11-4.87379483E-03 1.29216551E-02-1.25020957E-02 1.59928402E-03 0.00000000E+00
 5 12-1.13703377E-02 0.00000000E+00-1.34561798E-01 2.52733839E-01-1.41157369E-01
 5 13 0.00000000E+00-7.37294651E-02 1.53125232E-01-1.59189807E-03 0.00000000E+00
 5 14-2.44202421E-03-1.25968235E-02-3.15945334E-03 0.00000000E+00-4.87379483E-03
 5 15 1.29216551E-02-1.25020957E-02 1.59928402E-03 0.00000000E+00 1.13703377E-02
 5 16 0.00000000E+00 1.01903252E-02-1.01371553E-03 4.66462553E-03 8.48529623E-04
 5 17 0.00000000E+00 6.04412884E-04 1.01903252E-02-1.01371553E-03 4.66462553E-03
 5 18-8.48529623E-04 0.00000000E+00 6.04412884E-04 3.40307646E-02-5.12599381E-03
 5 19 1.31617364E-02 2.72414482E-03 0.00000000E+00-1.56635467E-03 3.40307646E-02
 5 20-5.12599381E-03 1.31617364E-02-2.72414482E-03 0.00000000E+00-1.56635467E-03
 6  1-1.75474559E-01 3.26021691E-01 0.00000000E+00 0.00000000E+00 1.01049775E-01
 6  2 2.87345211E-01 0.00000000E+00 0.00000000E+00 1.98812935E-02-8.39988901E-02
 6  3 0.00000000E+00 0.00000000E+00-1.16932225E-02-3.23738753E-03-1.42065646E-02
 6  4 1.38003452E-02 0.00000000E+00 0.00000000E+00 0.00000000E+00-1.01855480E-01
 6  5 1.98768513E-01 0.00000000E+00 0.00000000E+00-2.30427210E-01 1.68798144E-01
 6  6 0.00000000E+00 0.00000000E+00 1.16542789E-02 4.29345518E-02 0.00000000E+00
 6  7 0.00000000E+00-3.30685812E-02-7.65091966E-03-5.96002982E-03 1.06794293E-02
 6  8 0.00000000E+00 0.00000000E+00 0.00000000E+00 5.02459922E-02-9.64216481E-02
 6  9-5.84479984E-02 0.00000000E+00-3.52819278E-02-9.85253922E-02-1.21984523E-02
 6 10 0.00000000E+00 5.60647638E-04 1.92886593E-02-7.49335326E-04 0.00000000E+00
 6 11-1.35570433E-03-9.39482765E-03 3.55502601E-03 7.35080126E-03 0.00000000E+00
 6 12 1.51123985E-03 0.00000000E+00 5.02459922E-02-9.64216481E-02 5.84479984E-02
 6 13 0.00000000E+00-3.52819278E-02-9.85253922E-02 1.21984523E-02 0.00000000E+00
 6 14 5.60647638E-04 1.92886593E-02 7.49335326E-04 0.00000000E+00-1.35570433E-03
 6 15-9.39482765E-03 3.55502601E-03 7.35080126E-03 0.00000000E+00-1.51123985E-03
 6 16 0.00000000E+00 1.02646946E-01 3.10590453E-02 7.33908733E-03 8.72671066E-03
 6 17 0.00000000E+00 6.60041115E-03 1.02646946E-01 3.10590453E-02 7.33908733E-03
 6 18-8.72671066E-03 0.00000000E+00 6.60041115E-03-2.74324427E-02-8.68036408E-03
 6 19-4.77376968E-03-2.21536154E-03 0.00000000E+00 1.18452574E-04-2.74324427E-02
 6 20-8.68036408E-03-4.77376968E-03 2.21536154E-03 0.00000000E+00 1.18452574E-04
 7  1 0.00000000E+00 0.00000000E+00-3.49094363E-02 0.00000000E+00 0.00000000E+00
 7  2 0.00000000E+00-2.02883550E-04 0.00000000E+00 0.00000000E+00 0.00000000E+00
 7  3 2.02931766E-02 0.00000000E+00 0.00000000E+00 0.00000000E+00 0.00000000E+00
 7  4 0.00000000E+00 0.00000000E+00-3.12502502E-03 0.00000000E+00 0.00000000E+00
 7  5 0.00000000E+00-1.44333050E-01 0.00000000E+00 0.00000000E+00 0.00000000E+00
 7  6-5.07719905E-02 0.00000000E+00 0.00000000E+00 0.00000000E+00-5.34976337E-02
 7  7 0.00000000E+00 0.00000000E+00 0.00000000E+00 0.00000000E+00 0.00000000E+00
 7  8 0.00000000E+00-1.76062548E-02 0.00000000E+00-1.18877971E-01 2.37730478E-01
 7  9-1.70802346E-01 0.00000000E+00 9.34048425E-03 2.29519403E-01-7.00597338E-02
 7 10 0.00000000E+00 1.30067393E-02-2.31687695E-01-3.05556888E-02 0.00000000E+00
 7 11 2.07054422E-02 2.50253580E-03-8.45216502E-03 7.79588513E-03 0.00000000E+00
 7 12-1.32844023E-02 0.00000000E+00 1.18877971E-01-2.37730478E-01-1.70802346E-01
 7 13 0.00000000E+00-9.34048425E-03-2.29519403E-01-7.00597338E-02 0.00000000E+00
 7 14-1.30067393E-02 2.31687695E-01-3.05556888E-02 0.00000000E+00-2.07054422E-02
 7 15-2.50253580E-03 8.45216502E-03-7.79588513E-03 0.00000000E+00-1.32844023E-02
 7 16 0.00000000E+00 1.39406296E-02 1.21961423E-02 7.71705499E-03 1.04466310E-03
 7 17 0.00000000E+00 1.01654402E-03-1.39406296E-02-1.21961423E-02-7.71705499E-03
 7 18 1.04466310E-03 0.00000000E+00-1.01654402E-03 1.88834496E-01 9.24358275E-02
 7 19 1.64790891E-02 1.01697858E-02 0.00000000E+00-7.69383506E-03-1.88834496E-01
 7 20-9.24358275E-02-1.64790891E-02 1.01697858E-02 0.00000000E+00 7.69383506E-03
 8  1 5.46509044E-02-1.01909566E-01 0.00000000E+00 0.00000000E+00 6.50294475E-02
 8  2-1.30310273E-01 0.00000000E+00 0.00000000E+00 7.17852394E-03 4.30982672E-01
 8  3 0.00000000E+00 0.00000000E+00 9.08430656E-02-5.91005410E-03 4.86877989E-03
 8  4 4.68539726E-04 0.00000000E+00 0.00000000E+00 0.00000000E+00-7.39390518E-02
 8  5 1.51076389E-01 0.00000000E+00 0.00000000E+00 1.33653120E-01 1.49214460E-01
 8  6 0.00000000E+00 0.00000000E+00 7.10834510E-03-4.99399989E-02 0.00000000E+00
 8  7 0.00000000E+00 2.59948650E-01-3.43017243E-03-7.25810757E-03 8.04080930E-03
 8  8 0.00000000E+00 0.00000000E+00 0.00000000E+00 5.92673739E-02-1.18065695E-01
 8  9 1.42904331E-01 0.00000000E+00-2.32973532E-01-1.38006200E-01 3.94364777E-02
 8 10 0.00000000E+00-7.08805126E-02-1.53256523E-01-4.95503530E-02 0.00000000E+00
 8 11 4.37736412E-02-1.01869282E-02 1.26543897E-03 9.86651389E-03 0.00000000E+00
 8 12-7.40484661E-03 0.00000000E+00 5.92673739E-02-1.18065695E-01-1.42904331E-01
 8 13 0.00000000E+00-2.32973532E-01-1.38006200E-01-3.94364777E-02 0.00000000E+00
 8 14-7.08805126E-02-1.53256523E-01 4.95503530E-02 0.00000000E+00 4.37736412E-02
 8 15-1.01869282E-02 1.26543897E-03 9.86651389E-03 0.00000000E+00 7.40484661E-03
 8 16 0.00000000E+00-6.49050308E-02-3.70714282E-02 1.28972290E-03-4.53599282E-03
 8 17 0.00000000E+00-1.94993343E-03-6.49050308E-02-3.70714282E-02 1.28972290E-03
 8 18 4.53599282E-03 0.00000000E+00-1.94993343E-03-1.83143530E-01-1.09205689E-01
 8 19-3.62315164E-02-1.28651968E-02 0.00000000E+00 5.75167469E-03-1.83143530E-01
 8 20-1.09205689E-01-3.62315164E-02 1.28651968E-02 0.00000000E+00 5.75167469E-03
 9  1 6.12445841E-02-1.18332896E-01 0.00000000E+00 0.00000000E+00 3.21036724E-01
 9  2-1.06982588E-01 0.00000000E+00 0.00000000E+00 1.24519926E-01-2.46440608E-01
 9  3 0.00000000E+00 0.00000000E+00-5.23322844E-02-2.24385572E-02 5.19890757E-03
 9  4 1.56719761E-02 0.00000000E+00 0.00000000E+00 0.00000000E+00-8.79406980E-02
 9  5 1.77383587E-01 0.00000000E+00 0.00000000E+00-1.64844215E-01 2.29918577E-01
 9  6 0.00000000E+00 0.00000000E+00 4.79722236E-02-1.39082667E-01 0.00000000E+00
 9  7 0.00000000E+00-2.29517486E-01 4.37590806E-03-3.71496362E-03-2.87862365E-03
 9  8 0.00000000E+00 0.00000000E+00 0.00000000E+00 8.54265276E-03-1.80350977E-02
 9  9-2.24909543E-01 0.00000000E+00-2.15020121E-02-2.98942145E-02-8.63668993E-02
 9 10 0.00000000E+00 5.21767473E-03 1.89368281E-01 3.51825641E-02 0.00000000E+00
 9 11-4.95353329E-02-9.23721178E-03 1.12298468E-03 1.00042739E-02 0.00000000E+00
 9 12-4.89553191E-03 0.00000000E+00 8.54265276E-03-1.80350977E-02 2.24909543E-01
 9 13 0.00000000E+00-2.15020121E-02-2.98942145E-02 8.63668993E-02 0.00000000E+00
 9 14 5.21767473E-03 1.89368281E-01-3.51825641E-02 0.00000000E+00-4.95353329E-02
 9 15-9.23721178E-03 1.12298468E-03 1.00042739E-02 0.00000000E+00 4.89553191E-03
 9 16 0.00000000E+00-1.56880809E-01-1.05779296E-01-1.93001720E-02-9.45832457E-03
 9 17 0.00000000E+00-1.28726515E-03-1.56880809E-01-1.05779296E-01-1.93001720E-02
 9 18 9.45832457E-03 0.00000000E+00-1.28726515E-03 9.58890850E-02 6.45826587E-02
 9 19 2.26336097E-02 4.11527877E-03 0.00000000E+00-5.49430297E-03 9.58890850E-02
 9 20 6.45826587E-02 2.26336097E-02-4.11527877E-03 0.00000000E+00-5.49430297E-03
10  1 0.00000000E+00 0.00000000E+00 3.75063755E-01 0.00000000E+00 0.00000000E+00
10  2 0.00000000E+00 1.67683351E-01 0.00000000E+00 0.00000000E+00 0.00000000E+00
10  3-4.31312989E-02 0.00000000E+00 0.00000000E+00 0.00000000E+00 0.00000000E+00
10  4 0.00000000E+00 0.00000000E+00-1.11829084E-02 0.00000000E+00 0.00000000E+00
10  5 0.00000000E+00 2.25373211E-01 0.00000000E+00 0.00000000E+00 0.00000000E+00
10  6 7.21197946E-02 0.00000000E+00 0.00000000E+00 0.00000000E+00 7.10833224E-02
10  7 0.00000000E+00 0.00000000E+00 0.00000000E+00 0.00000000E+00 0.00000000E+00
10  8 0.00000000E+00 6.15486200E-04 0.00000000E+00-2.81422710E-03 6.13922636E-03
10  9-4.48770702E-02 0.00000000E+00 1.24852833E-01-4.58916575E-02-4.61891612E-02
10 10 0.00000000E+00 7.69512600E-02 1.36977228E-01 2.87548609E-02 0.00000000E+00
10 11-2.98819882E-02 8.59722110E-03 1.63154911E-04-1.20051507E-02 0.00000000E+00
10 12-5.80545949E-03 0.00000000E+00 2.81422710E-03-6.13922636E-03-4.48770702E-02
10 13 0.00000000E+00-1.24852833E-01 4.58916575E-02-4.61891612E-02 0.00000000E+00
10 14-7.69512600E-02-1.36977228E-01 2.87548609E-02 0.00000000E+00 2.98819882E-02
10 15-8.59722110E-03-1.63154911E-04 1.20051507E-02 0.00000000E+00-5.80545949E-03
10 16 0.00000000E+00-1.99316301E-01-1.47698063E-01-3.89936288E-02-7.57300347E-03
10 17 0.00000000E+00-7.72855084E-03 1.99316301E-01 1.47698063E-01 3.89936288E-02
10 18-7.57300347E-03 0.00000000E+00 7.72855084E-03 7.56076869E-02 5.07046331E-02
10 19 2.58214556E-02 4.11950105E-03 0.00000000E+00-7.63489292E-04-7.56076869E-02
10 20-5.07046331E-02-2.58214556E-02 4.11950105E-03 0.00000000E+00 7.63489292E-04
11  1-1.19015536E-02 2.24737943E-02 0.00000000E+00 0.00000000E+00 2.53770035E-01
11  2 3.00414908E-02 0.00000000E+00 0.00000000E+00 1.02976880E-01 3.68664816E-01
11  3 0.00000000E+00 0.00000000E+00 8.21607129E-02-1.48045592E-02-1.27098488E-04
11  4 1.27435194E-02 0.00000000E+00 0.00000000E+00 0.00000000E+00 2.06195660E-03
11  5-5.08225601E-03 0.00000000E+00 0.00000000E+00-2.96541843E-01-4.74970597E-02
11  6 0.00000000E+00 0.00000000E+00-8.03650054E-02-2.58918496E-03 0.00000000E+00
11  7 0.00000000E+00 2.28901091E-01-1.96276850E-02 1.36681340E-03 6.63353635E-03
11  8 0.00000000E+00 0.00000000E+00 0.00000000E+00-1.06503557E-02 2.06248443E-02
11  9 2.81577150E-01 0.00000000E+00 2.33907150E-01 1.02685769E-02 1.18419554E-01
11 10 0.00000000E+00 1.13509226E-01-1.57591464E-01-2.61224078E-02 0.00000000E+00
11 11 4.88136328E-02 1.38092466E-02 2.15195717E-04-1.53843301E-02 0.00000000E+00
11 12 2.26023046E-02 0.00000000E+00-1.06503557E-02 2.06248443E-02-2.81577150E-01
11 13 0.00000000E+00 2.33907150E-01 1.02685769E-02-1.18419554E-01 0.00000000E+00
11 14 1.13509226E-01-1.57591464E-01 2.61224078E-02 0.00000000E+00 4.88136328E-02
11 15 1.38092466E-02 2.15195717E-04-1.53843301E-02 0.00000000E+00-2.26023046E-02
11 16 0.00000000E+00-7.64599449E-02-6.89389117E-02-2.30450867E-05-3.89717132E-03
11 17 0.00000000E+00 1.35267350E-03-7.64599449E-02-6.89389117E-02-2.30450867E-05
11 18 3.89717132E-03 0.00000000E+00 1.35267350E-03-7.68222894E-02-7.62440238E-02
11 19-2.54008456E-02 9.26257598E-04 0.00000000E+00 6.78349399E-03-7.68222894E-02
11 20-7.62440238E-02-2.54008456E-02-9.26257598E-04 0.00000000E+00 6.78349399E-03
12  1 0.00000000E+00 0.00000000E+00 0.00000000E+00 1.49167152E-01 0.00000000E+00
12  2 0.00000000E+00 0.00000000E+00 7.99465156E-02 0.00000000E+00 0.00000000E+00
12  3 0.00000000E+00 1.77648331E-02 0.00000000E+00 0.00000000E+00 0.00000000E+00
12  4 0.00000000E+00 0.00000000E+00 0.00000000E+00 1.59659564E-02 0.00000000E+00
12  5 0.00000000E+00 0.00000000E+00 3.01834254E-01 0.00000000E+00 0.00000000E+00
12  6 0.00000000E+00 1.61864076E-01 0.00000000E+00 0.00000000E+00 0.00000000E+00
12  7-5.90583798E-03 0.00000000E+00 0.00000000E+00 0.00000000E+00 0.00000000E+00
12  8 0.00000000E+00 0.00000000E+00 1.80619976E-02 0.00000000E+00 0.00000000E+00
12  9 0.00000000E+00 3.04238289E-01 0.00000000E+00 0.00000000E+00 0.00000000E+00
12 10 1.72512931E-01 0.00000000E+00 0.00000000E+00 0.00000000E+00 1.56097637E-02
12 11 0.00000000E+00 0.00000000E+00 0.00000000E+00 0.00000000E+00 2.98399468E-02
12 12 0.00000000E+00-1.37467889E-02 0.00000000E+00 0.00000000E+00 0.00000000E+00
12 13 3.04238289E-01 0.00000000E+00 0.00000000E+00 0.00000000E+00 1.72512931E-01
12 14 0.00000000E+00 0.00000000E+00 0.00000000E+00 1.56097637E-02 0.00000000E+00
12 15 0.00000000E+00 0.00000000E+00 0.00000000E+00-2.98399468E-02 0.00000000E+00
12 16-1.37467889E-02 0.00000000E+00 0.00000000E+00 0.00000000E+00 0.00000000E+00
12 17 3.58208763E-03 0.00000000E+00 0.00000000E+00 0.00000000E+00 0.00000000E+00
12 18 0.00000000E+00 3.58208763E-03 0.00000000E+00 0.00000000E+00 0.00000000E+00
12 19 0.00000000E+00 0.00000000E+00 6.64123976E-03 0.00000000E+00 0.00000000E+00
12 20 0.00000000E+00 0.00000000E+00 0.00000000E+00 6.64123976E-03 0.00000000E+00
13  1 0.00000000E+00 0.00000000E+00-2.09539983E-01 0.00000000E+00 0.00000000E+00
13  2 0.00000000E+00-1.44732986E-01 0.00000000E+00 0.00000000E+00 0.00000000E+00
13  3-1.94120649E-02 0.00000000E+00 0.00000000E+00 0.00000000E+00 0.00000000E+00
13  4 0.00000000E+00 0.00000000E+00 2.70884998E-02 0.00000000E+00 0.00000000E+00
13  5 0.00000000E+00 3.53683243E-01 0.00000000E+00 0.00000000E+00 0.00000000E+00
13  6 1.96337056E-01 0.00000000E+00 0.00000000E+00 0.00000000E+00 3.53504550E-02
13  7 0.00000000E+00 0.00000000E+00 0.00000000E+00 0.00000000E+00 0.00000000E+00
13  8 0.00000000E+00 4.03636015E-02 0.00000000E+00 2.83185918E-02-6.04235570E-02
13  9-4.17877720E-02 0.00000000E+00 2.69984939E-01-1.75143602E-01-6.68508773E-02
13 10 0.00000000E+00 1.72795561E-01-6.42703454E-03 4.74538258E-03 0.00000000E+00
13 11 1.60373129E-02 1.84300450E-02 7.82448248E-04-2.09328928E-02 0.00000000E+00
13 12-1.16193741E-02 0.00000000E+00-2.83185918E-02 6.04235570E-02-4.17877720E-02
13 13 0.00000000E+00-2.69984939E-01 1.75143602E-01-6.68508773E-02 0.00000000E+00
13 14-1.72795561E-01 6.42703454E-03 4.74538258E-03 0.00000000E+00-1.60373129E-02
13 15-1.84300450E-02-7.82448248E-04 2.09328928E-02 0.00000000E+00-1.16193741E-02
13 16 0.00000000E+00 1.43815972E-01 1.25656977E-01 1.93758865E-02 3.42925370E-03
13 17 0.00000000E+00 3.00064980E-03-1.43815972E-01-1.25656977E-01-1.93758865E-02
13 18 3.42925370E-03 0.00000000E+00-3.00064980E-03 1.11620900E-01 9.92656652E-02
13 19 2.29709717E-02 5.24965942E-03 0.00000000E+00 1.93626302E-03-1.11620900E-01
13 20-9.92656652E-02-2.29709717E-02 5.24965942E-03 0.00000000E+00-1.93626302E-03
14  1 0.00000000E+00 0.00000000E+00 0.00000000E+00 4.00369773E-01 0.00000000E+00
14  2 0.00000000E+00 0.00000000E+00 3.22247442E-01 0.00000000E+00 0.00000000E+00
14  3 0.00000000E+00 7.50420369E-02 0.00000000E+00 0.00000000E+00 0.00000000E+00
14  4 0.00000000E+00 0.00000000E+00 0.00000000E+00 2.04279275E-02 0.00000000E+00
14  5 0.00000000E+00 0.00000000E+00 2.19165162E-01 0.00000000E+00 0.00000000E+00
14  6 0.00000000E+00 1.96097916E-01 0.00000000E+00 0.00000000E+00 0.00000000E+00
14  7 1.03989691E-01 0.00000000E+00 0.00000000E+00 0.00000000E+00 0.00000000E+00
14  8 0.00000000E+00 0.00000000E+00-4.24108227E-02 0.00000000E+00 0.00000000E+00
14  9 0.00000000E+00-2.19261289E-01 0.00000000E+00 0.00000000E+00 0.00000000E+00
14 10-1.93275922E-01 0.00000000E+00 0.00000000E+00 0.00000000E+00-6.72771769E-02
14 11 0.00000000E+00 0.00000000E+00 0.00000000E+00 0.00000000E+00-1.74277343E-02
14 12 0.00000000E+00-5.14227758E-03 0.00000000E+00 0.00000000E+00 0.00000000E+00
14 13-2.19261289E-01 0.00000000E+00 0.00000000E+00 0.00000000E+00-1.93275922E-01
14 14 0.00000000E+00 0.00000000E+00 0.00000000E+00-6.72771769E-02 0.00000000E+00
14 15 0.00000000E+00 0.00000000E+00 0.00000000E+00 1.74277343E-02 0.00000000E+00
14 16-5.14227758E-03 0.00000000E+00 0.00000000E+00 0.00000000E+00 0.00000000E+00
14 17 1.08183654E-02 0.00000000E+00 0.00000000E+00 0.00000000E+00 0.00000000E+00
14 18 0.00000000E+00 1.08183654E-02 0.00000000E+00 0.00000000E+00 0.00000000E+00
14 19 0.00000000E+00 0.00000000E+00-5.88852181E-03 0.00000000E+00 0.00000000E+00
14 20 0.00000000E+00 0.00000000E+00 0.00000000E+00-5.88852181E-03 0.00000000E+00
15  1 0.00000000E+00 0.00000000E+00 0.00000000E+00-4.48890663E-01 0.00000000E+00
15  2 0.00000000E+00 0.00000000E+00-2.83668441E-01 0.00000000E+00 0.00000000E+00
15  3 0.00000000E+00 3.68950499E-02 0.00000000E+00 0.00000000E+00 0.00000000E+00
15  4 0.00000000E+00 0.00000000E+00 0.00000000E+00-7.81247852E-03 0.00000000E+00
15  5 0.00000000E+00 0.00000000E+00 7.96530438E-01 0.00000000E+00 0.00000000E+00
15  6 0.00000000E+00 1.92342354E-01 0.00000000E+00 0.00000000E+00 0.00000000E+00
15  7-1.03533597E-01 0.00000000E+00 0.00000000E+00 0.00000000E+00 0.00000000E+00
15  8 0.00000000E+00 0.00000000E+00 6.66211522E-02 0.00000000E+00 0.00000000E+00
15  9 0.00000000E+00-2.02734755E-01 0.00000000E+00 0.00000000E+00 0.00000000E+00
15 10-9.04050114E-02 0.00000000E+00 0.00000000E+00 0.00000000E+00 2.53106344E-02
15 11 0.00000000E+00 0.00000000E+00 0.00000000E+00 0.00000000E+00-1.39626428E-02
15 12 0.00000000E+00-2.18844647E-02 0.00000000E+00 0.00000000E+00 0.00000000E+00
15 13-2.02734755E-01 0.00000000E+00 0.00000000E+00 0.00000000E+00-9.04050114E-02
15 14 0.00000000E+00 0.00000000E+00 0.00000000E+00 2.53106344E-02 0.00000000E+00
15 15 0.00000000E+00 0.00000000E+00 0.00000000E+00 1.39626428E-02 0.00000000E+00
15 16-2.18844647E-02 0.00000000E+00 0.00000000E+00 0.00000000E+00 0.00000000E+00
15 17-7.75391472E-03 0.00000000E+00 0.00000000E+00 0.00000000E+00 0.00000000E+00
15 18 0.00000000E+00-7.75391472E-03 0.00000000E+00 0.00000000E+00 0.00000000E+00
15 19 0.00000000E+00 0.00000000E+00-2.23112415E-03 0.00000000E+00 0.00000000E+00
15 20 0.00000000E+00 0.00000000E+00 0.00000000E+00-2.23112415E-03 0.00000000E+00
16  1 0.00000000E+00 0.00000000E+00 0.00000000E+00 0.00000000E+00 0.00000000E+00
16  2 0.00000000E+00 0.00000000E+00 0.00000000E+00 0.00000000E+00 0.00000000E+00
16  3 0.00000000E+00 0.00000000E+00 0.00000000E+00 0.00000000E+00 0.00000000E+00
16  4 0.00000000E+00-3.30047574E-03 0.00000000E+00 0.00000000E+00 0.00000000E+00
16  5 0.00000000E+00 0.00000000E+00 0.00000000E+00 0.00000000E+00 0.00000000E+00
16  6 0.00000000E+00 0.00000000E+00 0.00000000E+00 0.00000000E+00 0.00000000E+00
16  7 0.00000000E+00 0.00000000E+00 0.00000000E+00 0.00000000E+00 0.00000000E+00
16  8-6.79493848E-02 0.00000000E+00 0.00000000E+00 0.00000000E+00 0.00000000E+00
16  9 0.00000000E+00 6.17681622E-01 0.00000000E+00 0.00000000E+00 0.00000000E+00
16 10 3.08113278E-01 0.00000000E+00 0.00000000E+00 0.00000000E+00-3.45575447E-02
16 11 0.00000000E+00 0.00000000E+00 0.00000000E+00 0.00000000E+00 7.01981139E-03
16 12 0.00000000E+00-5.59862161E-02 0.00000000E+00 0.00000000E+00 0.00000000E+00
16 13-6.17681622E-01 0.00000000E+00 0.00000000E+00 0.00000000E+00-3.08113278E-01
16 14 0.00000000E+00 0.00000000E+00 0.00000000E+00 3.45575447E-02 0.00000000E+00
16 15 0.00000000E+00 0.00000000E+00 0.00000000E+00 7.01981139E-03 0.00000000E+00
16 16 5.59862161E-02 0.00000000E+00 0.00000000E+00 0.00000000E+00 0.00000000E+00
16 17 2.13128780E-04 0.00000000E+00 0.00000000E+00 0.00000000E+00 0.00000000E+00
16 18 0.00000000E+00-2.13128780E-04 0.00000000E+00 0.00000000E+00 0.00000000E+00
16 19 0.00000000E+00 0.00000000E+00 6.15258321E-03 0.00000000E+00 0.00000000E+00
16 20 0.00000000E+00 0.00000000E+00 0.00000000E+00-6.15258321E-03 0.00000000E+00
17  1 0.00000000E+00 0.00000000E+00 1.33539425E-03 0.00000000E+00 0.00000000E+00
17  2 0.00000000E+00 6.11885268E-02 0.00000000E+00 0.00000000E+00 0.00000000E+00
17  3-1.47656562E-01 0.00000000E+00 0.00000000E+00 0.00000000E+00 0.00000000E+00
17  4 0.00000000E+00 0.00000000E+00-6.38417582E-02 0.00000000E+00 0.00000000E+00
17  5 0.00000000E+00-7.37939905E-01 0.00000000E+00 0.00000000E+00 0.00000000E+00
17  6-4.69110906E-01 0.00000000E+00 0.00000000E+00 0.00000000E+00 3.52541577E-01
17  7 0.00000000E+00 0.00000000E+00 0.00000000E+00 0.00000000E+00 0.00000000E+00
17  8 0.00000000E+00 8.86961788E-02 0.00000000E+00 6.68863348E-02-2.09797800E-01
17  9 3.62273244E-02 0.00000000E+00 4.33917291E-01-7.96070960E-01-3.03118982E-01
17 10 0.00000000E+00 3.91248765E-01 3.97088534E-01-1.09517091E-02 0.00000000E+00
17 11-1.47340482E-01 2.79904306E-02 5.31791831E-03-1.29183960E-02 0.00000000E+00
17 12-2.82082676E-03 0.00000000E+00-6.68863348E-02 2.09797800E-01 3.62273244E-02
17 13 0.00000000E+00-4.33917291E-01 7.96070960E-01-3.03118982E-01 0.00000000E+00
17 14-3.91248765E-01-3.97088534E-01-1.09517091E-02 0.00000000E+00 1.47340482E-01
17 15-2.79904306E-02-5.31791831E-03 1.29183960E-02 0.00000000E+00-2.82082676E-03
17 16 0.00000000E+00-8.53038076E-02-8.83292398E-02-5.18042453E-02 4.21765236E-04
17 17 0.00000000E+00-2.74414102E-03 8.53038076E-02 8.83292398E-02 5.18042453E-02
17 18 4.21765236E-04 0.00000000E+00 2.74414102E-03 5.37137068E-02-5.60433067E-02
17 19 1.65410579E-02 4.49929843E-03 0.00000000E+00 3.51647820E-03-5.37137068E-02
17 20 5.60433067E-02-1.65410579E-02 4.49929843E-03 0.00000000E+00-3.51647820E-03
18  1 6.12865451E-02-2.14229358E-01 0.00000000E+00 0.00000000E+00-3.08629222E-01
18  2-2.64266998E-01 0.00000000E+00 0.00000000E+00-1.58928558E-01 1.05868336E+00