!  This run reproduces the study of resonance in benzene found in
!    "A comparative study of the bonding in heteroatom analogues of benzene"
!     N.Matsunaga, T.R.Cundari, M.W.Schmidt, M.S.Gordon
!     Theoret.Chim.Acta 83, 57-68(1992)
!
!  DENSITY MATRIX FOR QUASI-ATOMIC AND BONDING ORBITALS:
!      diagonal population=  1.000 (integral, by symmetry)
!      ortho CC bond order=  0.62
!       meta CC bond order=    smaller than the printing threshold
!       para CC bond order= -0.28
!
!  This run takes 7 seconds on 2.66 GHz Cloverton (27 Apr 2015)
!
!  ------------------------------------------------------------------
!  The RHF energy is -36.3885739348 with gradient of 0.000039917
!  The FINAL MCSCF E= -36.4609488852 after 8 iterations
!  The results of the oriented localized molecular orbital analysis
!  are of course exactly 1 electron in the 6 equivalent p orbitals
!  forming the pi system, an ortho bond order of 0.62, and a para
!  antibonding order of -0.28 (literature values 0.617 and -0.271).
!  The size of this ortho interaction should be compared to the
!  literature bond order in ethylene of 0.897 for a full pi bond,
!  and this reference estimates the average pi bond order in benzene
!  as about one half, based on the para antibonding term.
!
!  This first line indicates there is a bug in the MCCAS transformation,
!  which doesn't properly downshift to no symmetry in this non-Abelian group.
 $contrl nosym=1 $end

 $contrl scftyp=mcscf runtyp=energy local=ruednbrg ecp=sbkjc $end
 $system mwords=10 memddi=0 $end
!         must bring the a1g bonding pi orbital 11 up into the active space,
!         the MVOQ=4 virtuals are in perfect order to be the three pi*'s
 $guess  guess=moread norb=96 norder=1 iorder(11)=12,13,11 $end
 $basis  gbasis=sbkjc ndfunc=1 $end
 $mcscf  cistep=aldet soscf=.true. $end
 $det    ncore=12 nact=6 nels=6 $end
 $local  orient=.true. $end
 $data
bonding in heteroatom analogues of benzene...C6H6 geometry from Table 1
Dnh 6

C  6.0    1.406  0.0 0.0
H  1.0    2.497  0.0 0.0
 $end

CLOSED SHELL ORBITALS --- GENERATED 8:34:33 CST 26-OCT-2001, using MVOQ=4
E(RHF)=      -36.3885739348, E(NUC)=  102.3773346092,   10 ITERS
 $VEC
 1  1 2.48415698E-01-3.24957938E-02-5.62843660E-02 0.00000000E+00 6.75600495E-03
 1  2-5.57972693E-04-9.66437053E-04 0.00000000E+00 1.31838886E-02 1.27547152E-02
 1  3-1.35555942E-03-4.29173443E-04 0.00000000E+00 0.00000000E+00 2.48415698E-01
 1  4 3.24957938E-02-5.62843660E-02 0.00000000E+00 6.75600495E-03 5.57972693E-04
 1  5-9.66437053E-04 0.00000000E+00 1.31838886E-02 1.27547152E-02-1.35555942E-03
 1  6 4.29173443E-04 0.00000000E+00 0.00000000E+00 2.48415698E-01 6.49915877E-02
 1  7 0.00000000E+00 0.00000000E+00 6.75600495E-03 1.11594539E-03 0.00000000E+00
 1  8 0.00000000E+00 1.25401285E-02 1.33984754E-02-1.35555942E-03 0.00000000E+00
 1  9 0.00000000E+00 0.00000000E+00 2.48415698E-01 3.24957938E-02 5.62843660E-02
 1 10 0.00000000E+00 6.75600495E-03 5.57972693E-04 9.66437053E-04 0.00000000E+00
 1 11 1.31838886E-02 1.27547152E-02-1.35555942E-03-4.29173443E-04 0.00000000E+00
 1 12 0.00000000E+00 2.48415698E-01-3.24957938E-02 5.62843660E-02 0.00000000E+00
 1 13 6.75600495E-03-5.57972693E-04 9.66437053E-04 0.00000000E+00 1.31838886E-02
 1 14 1.27547152E-02-1.35555942E-03 4.29173443E-04 0.00000000E+00 0.00000000E+00
 1 15 2.48415698E-01-6.49915877E-02 0.00000000E+00 0.00000000E+00 6.75600495E-03
 1 16-1.11594539E-03 0.00000000E+00 0.00000000E+00 1.25401285E-02 1.33984754E-02
 1 17-1.35555942E-03 0.00000000E+00 0.00000000E+00 0.00000000E+00 3.99366933E-02
 1 18 1.44674096E-02 3.99366933E-02 1.44674096E-02 3.99366933E-02 1.44674096E-02
 1 19 3.99366933E-02 1.44674096E-02 3.99366933E-02 1.44674096E-02 3.99366933E-02
 1 20 1.44674096E-02
 2  1-1.81035413E-01-8.60342343E-02 6.96972049E-02 0.00000000E+00-1.94840406E-03
 2  2-3.90536674E-02-1.60237225E-02 0.00000000E+00-1.50820660E-03-1.50143914E-02
 2  3-1.66859342E-04 5.50905744E-03 0.00000000E+00 0.00000000E+00 1.81035413E-01
 2  4-8.60342343E-02-6.96972049E-02 0.00000000E+00 1.94840406E-03-3.90536674E-02
 2  5 1.60237225E-02 0.00000000E+00 1.50820660E-03 1.50143914E-02 1.66859342E-04
 2  6 5.50905744E-03 0.00000000E+00 0.00000000E+00 3.62070826E-01 3.46848658E-02
 2  7 0.00000000E+00 0.00000000E+00 3.89680813E-03-6.68075690E-02 0.00000000E+00
 2  8 0.00000000E+00 1.50121043E-02 1.80330918E-02 3.33718684E-04 0.00000000E+00
 2  9 0.00000000E+00 0.00000000E+00 1.81035413E-01-8.60342343E-02 6.96972049E-02
 2 10 0.00000000E+00 1.94840406E-03-3.90536674E-02-1.60237225E-02 0.00000000E+00
 2 11 1.50820660E-03 1.50143914E-02 1.66859342E-04-5.50905744E-03 0.00000000E+00
 2 12 0.00000000E+00-1.81035413E-01-8.60342343E-02-6.96972049E-02 0.00000000E+00
 2 13-1.94840406E-03-3.90536674E-02 1.60237225E-02 0.00000000E+00-1.50820660E-03
 2 14-1.50143914E-02-1.66859342E-04-5.50905744E-03 0.00000000E+00 0.00000000E+00
 2 15-3.62070826E-01 3.46848658E-02 0.00000000E+00 0.00000000E+00-3.89680813E-03
 2 16-6.68075690E-02 0.00000000E+00 0.00000000E+00-1.50121043E-02-1.80330918E-02
 2 17-3.33718684E-04 0.00000000E+00 0.00000000E+00 0.00000000E+00-4.45904274E-02
 2 18 1.59026207E-02 4.45904274E-02-1.59026207E-02 8.91808547E-02-3.18052415E-02
 2 19 4.45904274E-02-1.59026207E-02-4.45904274E-02 1.59026207E-02-8.91808547E-02
 2 20 3.18052415E-02
 3  1-3.13562533E-01 6.96972049E-02-5.55483421E-03 0.00000000E+00-3.37473483E-03
 3  2-1.60237225E-02-5.75562684E-02 0.00000000E+00-1.90799733E-02-9.53800592E-03
 3  3-2.89008858E-04-1.43648784E-03 0.00000000E+00 0.00000000E+00-3.13562533E-01
 3  4-6.96972049E-02-5.55483421E-03 0.00000000E+00-3.37473483E-03 1.60237225E-02
 3  5-5.75562684E-02 0.00000000E+00-1.90799733E-02-9.53800592E-03-2.89008858E-04
 3  6 1.43648784E-03 0.00000000E+00 0.00000000E+00 0.00000000E+00 0.00000000E+00
 3  7-1.26273934E-01 0.00000000E+00 0.00000000E+00 0.00000000E+00-2.98023669E-02
 3  8 0.00000000E+00 0.00000000E+00 0.00000000E+00 0.00000000E+00-1.09784552E-02
 3  9 0.00000000E+00 0.00000000E+00 3.13562533E-01 6.96972049E-02-5.55483421E-03
 3 10 0.00000000E+00 3.37473483E-03-1.60237225E-02-5.75562684E-02 0.00000000E+00
 3 11 1.90799733E-02 9.53800592E-03 2.89008858E-04 1.43648784E-03 0.00000000E+00
 3 12 0.00000000E+00 3.13562533E-01-6.96972049E-02-5.55483421E-03 0.00000000E+00
 3 13 3.37473483E-03 1.60237225E-02-5.75562684E-02 0.00000000E+00 1.90799733E-02
 3 14 9.53800592E-03 2.89008858E-04-1.43648784E-03 0.00000000E+00 0.00000000E+00
 3 15 0.00000000E+00 0.00000000E+00-1.26273934E-01 0.00000000E+00 0.00000000E+00
 3 16 0.00000000E+00-2.98023669E-02 0.00000000E+00 0.00000000E+00 0.00000000E+00
 3 17 0.00000000E+00 1.09784552E-02 0.00000000E+00 0.00000000E+00-7.72328857E-02
 3 18 2.75441471E-02-7.72328857E-02 2.75441471E-02 0.00000000E+00 0.00000000E+00
 3 19 7.72328857E-02-2.75441471E-02 7.72328857E-02-2.75441471E-02 0.00000000E+00
 3 20 0.00000000E+00
 4  1-1.49840410E-01 1.56406702E-01-1.32584780E-01 0.00000000E+00 9.55663916E-02
 4  2-2.07135433E-02-1.04029725E-01 0.00000000E+00-1.28598096E-02 9.99767039E-04
 4  3 1.27865396E-04-7.46190654E-03 0.00000000E+00 0.00000000E+00-1.49840410E-01
 4  4-1.56406702E-01-1.32584780E-01 0.00000000E+00 9.55663916E-02 2.07135433E-02
 4  5-1.04029725E-01 0.00000000E+00-1.28598096E-02 9.99767039E-04 1.27865396E-04
 4  6 7.46190654E-03 0.00000000E+00 0.00000000E+00 2.99680820E-01-7.32368729E-02
 4  7 0.00000000E+00 0.00000000E+00-1.91132783E-01-2.00898313E-01 0.00000000E+00
 4  8 0.00000000E+00 1.61231141E-02 7.59697107E-03-2.55730792E-04 0.00000000E+00
 4  9 0.00000000E+00 0.00000000E+00-1.49840410E-01-1.56406702E-01 1.32584780E-01
 4 10 0.00000000E+00 9.55663916E-02 2.07135433E-02 1.04029725E-01 0.00000000E+00
 4 11-1.28598096E-02 9.99767039E-04 1.27865396E-04-7.46190654E-03 0.00000000E+00
 4 12 0.00000000E+00-1.49840410E-01 1.56406702E-01 1.32584780E-01 0.00000000E+00
 4 13 9.55663916E-02-2.07135433E-02 1.04029725E-01 0.00000000E+00-1.28598096E-02
 4 14 9.99767039E-04 1.27865396E-04 7.46190654E-03 0.00000000E+00 0.00000000E+00
 4 15 2.99680820E-01 7.32368729E-02 0.00000000E+00 0.00000000E+00-1.91132783E-01
 4 16 2.00898313E-01 0.00000000E+00 0.00000000E+00 1.61231141E-02 7.59697107E-03
 4 17-2.55730792E-04 0.00000000E+00 0.00000000E+00 0.00000000E+00-7.02774495E-02
 4 18 2.84438245E-02-7.02774495E-02 2.84438245E-02 1.40554899E-01-5.68876489E-02
 4 19-7.02774495E-02 2.84438245E-02-7.02774495E-02 2.84438245E-02 1.40554899E-01
 4 20-5.68876489E-02
 5  1-2.59531204E-01-1.32584780E-01 3.31098547E-03 0.00000000E+00 1.65525846E-01
 5  2-1.04029725E-01-1.40836723E-01 0.00000000E+00-3.80889752E-03-1.67332988E-02
 5  3 2.21469363E-04-6.14437200E-04 0.00000000E+00 0.00000000E+00 2.59531204E-01
 5  4-1.32584780E-01-3.31098547E-03 0.00000000E+00-1.65525846E-01-1.04029725E-01
 5  5 1.40836723E-01 0.00000000E+00 3.80889752E-03 1.67332988E-02-2.21469363E-04
 5  6-6.14437200E-04 0.00000000E+00 0.00000000E+00 0.00000000E+00 0.00000000E+00
 5  7 2.32954560E-01 0.00000000E+00 0.00000000E+00 0.00000000E+00 3.93480467E-02
 5  8 0.00000000E+00 0.00000000E+00 0.00000000E+00 0.00000000E+00 1.23099641E-02
 5  9 0.00000000E+00 0.00000000E+00-2.59531204E-01 1.32584780E-01-3.31098547E-03
 5 10 0.00000000E+00 1.65525846E-01 1.04029725E-01 1.40836723E-01 0.00000000E+00
 5 11-3.80889752E-03-1.67332988E-02 2.21469363E-04-6.14437200E-04 0.00000000E+00
 5 12 0.00000000E+00 2.59531204E-01 1.32584780E-01 3.31098547E-03 0.00000000E+00
 5 13-1.65525846E-01 1.04029725E-01-1.40836723E-01 0.00000000E+00 3.80889752E-03
 5 14 1.67332988E-02-2.21469363E-04-6.14437200E-04 0.00000000E+00 0.00000000E+00
 5 15 0.00000000E+00 0.00000000E+00-2.32954560E-01 0.00000000E+00 0.00000000E+00
 5 16 0.00000000E+00-3.93480467E-02 0.00000000E+00 0.00000000E+00 0.00000000E+00
 5 17 0.00000000E+00 1.23099641E-02 0.00000000E+00 0.00000000E+00-1.21724113E-01
 5 18 4.92661491E-02 1.21724113E-01-4.92661491E-02 0.00000000E+00 0.00000000E+00
 5 19-1.21724113E-01 4.92661491E-02 1.21724113E-01-4.92661491E-02 0.00000000E+00
 5 20 0.00000000E+00
 6  1-2.06586912E-02-1.13008669E-01-1.95736757E-01 0.00000000E+00-1.94583539E-02
 6  2-1.22453724E-02-2.12096072E-02 0.00000000E+00-1.96637515E-03-4.17509758E-03
 6  3-8.23022826E-04-2.20872243E-03 0.00000000E+00 0.00000000E+00-2.06586912E-02
 6  4 1.13008669E-01-1.95736757E-01 0.00000000E+00-1.94583539E-02 1.22453724E-02
 6  5-2.12096072E-02 0.00000000E+00-1.96637515E-03-4.17509758E-03-8.23022826E-04
 6  6 2.20872243E-03 0.00000000E+00 0.00000000E+00-2.06586912E-02 2.26017339E-01
 6  7 0.00000000E+00 0.00000000E+00-1.94583539E-02 2.44907449E-02 0.00000000E+00
 6  8 0.00000000E+00-5.27945879E-03-8.62013940E-04-8.23022826E-04 0.00000000E+00
 6  9 0.00000000E+00 0.00000000E+00-2.06586912E-02 1.13008669E-01 1.95736757E-01
 6 10 0.00000000E+00-1.94583539E-02 1.22453724E-02 2.12096072E-02 0.00000000E+00
 6 11-1.96637515E-03-4.17509758E-03-8.23022826E-04-2.20872243E-03 0.00000000E+00
 6 12 0.00000000E+00-2.06586912E-02-1.13008669E-01 1.95736757E-01 0.00000000E+00
 6 13-1.94583539E-02-1.22453724E-02 2.12096072E-02 0.00000000E+00-1.96637515E-03
 6 14-4.17509758E-03-8.23022826E-04 2.20872243E-03 0.00000000E+00 0.00000000E+00
 6 15-2.06586912E-02-2.26017339E-01 0.00000000E+00 0.00000000E+00-1.94583539E-02
 6 16-2.44907449E-02 0.00000000E+00 0.00000000E+00-5.27945879E-03-8.62013940E-04
 6 17-8.23022826E-04 0.00000000E+00 0.00000000E+00 0.00000000E+00-1.38484249E-01
 6 18-3.68492270E-02-1.38484249E-01-3.68492270E-02-1.38484249E-01-3.68492270E-02
 6 19-1.38484249E-01-3.68492270E-02-1.38484249E-01-3.68492270E-02-1.38484249E-01
 6 20-3.68492270E-02
 7  1-1.73293939E-01-7.68076835E-02-1.33034810E-01 0.00000000E+00 2.23051988E-01
 7  2-9.08151541E-02-1.57296461E-01 0.00000000E+00 2.73728733E-04-1.50283075E-02
 7  3-4.69560582E-04-1.53020363E-02 0.00000000E+00 0.00000000E+00 1.73293939E-01
 7  4-7.68076835E-02 1.33034810E-01 0.00000000E+00-2.23051988E-01-9.08151541E-02
 7  5 1.57296461E-01 0.00000000E+00-2.73728733E-04 1.50283075E-02 4.69560582E-04
 7  6-1.53020363E-02 0.00000000E+00 0.00000000E+00-1.73293939E-01 1.53615367E-01
 7  7 0.00000000E+00 0.00000000E+00 2.23051988E-01 1.81630308E-01 0.00000000E+00
 7  8 0.00000000E+00-2.26793257E-02 7.92474687E-03-4.69560582E-04 0.00000000E+00
 7  9 0.00000000E+00 0.00000000E+00 1.73293939E-01-7.68076835E-02-1.33034810E-01
 7 10 0.00000000E+00-2.23051988E-01-9.08151541E-02-1.57296461E-01 0.00000000E+00
 7 11-2.73728733E-04 1.50283075E-02 4.69560582E-04 1.53020363E-02 0.00000000E+00
 7 12 0.00000000E+00-1.73293939E-01-7.68076835E-02 1.33034810E-01 0.00000000E+00
 7 13 2.23051988E-01-9.08151541E-02 1.57296461E-01 0.00000000E+00 2.73728733E-04
 7 14-1.50283075E-02-4.69560582E-04 1.53020363E-02 0.00000000E+00 0.00000000E+00
 7 15 1.73293939E-01 1.53615367E-01 0.00000000E+00 0.00000000E+00-2.23051988E-01
 7 16 1.81630308E-01 0.00000000E+00 0.00000000E+00 2.26793257E-02-7.92474687E-03
 7 17 4.69560582E-04 0.00000000E+00 0.00000000E+00 0.00000000E+00-1.76481008E-01
 7 18-2.08338756E-03 1.76481008E-01 2.08338756E-03-1.76481008E-01-2.08338756E-03
 7 19 1.76481008E-01 2.08338756E-03-1.76481008E-01-2.08338756E-03 1.76481008E-01
 7 20 2.08338756E-03
 8  1 0.00000000E+00 2.70066399E-01-1.55922908E-01 0.00000000E+00 0.00000000E+00
 8  2 3.07518519E-02-1.77545900E-02 0.00000000E+00-8.68550836E-03 8.68550836E-03
 8  3 0.00000000E+00-5.79033891E-03 0.00000000E+00 0.00000000E+00 0.00000000E+00
 8  4-2.70066399E-01-1.55922908E-01 0.00000000E+00 0.00000000E+00-3.07518519E-02
 8  5-1.77545900E-02 0.00000000E+00-8.68550836E-03 8.68550836E-03 0.00000000E+00
 8  6 5.79033891E-03 0.00000000E+00 0.00000000E+00 0.00000000E+00 0.00000000E+00
 8  7 3.11845816E-01 0.00000000E+00 0.00000000E+00 0.00000000E+00 3.55091800E-02
 8  8 0.00000000E+00 0.00000000E+00 0.00000000E+00 0.00000000E+00 1.15806778E-02
 8  9 0.00000000E+00 0.00000000E+00 0.00000000E+00 2.70066399E-01-1.55922908E-01
 8 10 0.00000000E+00 0.00000000E+00 3.07518519E-02-1.77545900E-02 0.00000000E+00
 8 11 8.68550836E-03-8.68550836E-03 0.00000000E+00 5.79033891E-03 0.00000000E+00
 8 12 0.00000000E+00 0.00000000E+00-2.70066399E-01-1.55922908E-01 0.00000000E+00
 8 13 0.00000000E+00-3.07518519E-02-1.77545900E-02 0.00000000E+00 8.68550836E-03
 8 14-8.68550836E-03 0.00000000E+00-5.79033891E-03 0.00000000E+00 0.00000000E+00
 8 15 0.00000000E+00 0.00000000E+00 3.11845816E-01 0.00000000E+00 0.00000000E+00
 8 16 0.00000000E+00 3.55091800E-02 0.00000000E+00 0.00000000E+00 0.00000000E+00
 8 17 0.00000000E+00-1.15806778E-02 0.00000000E+00 0.00000000E+00 0.00000000E+00
 8 18 0.00000000E+00 0.00000000E+00 0.00000000E+00 0.00000000E+00 0.00000000E+00
 8 19 0.00000000E+00 0.00000000E+00 0.00000000E+00 0.00000000E+00 0.00000000E+00
 8 20 0.00000000E+00
 9  1-3.13277077E-02 1.15682863E-02 1.91563409E-01 0.00000000E+00-5.65996673E-02
 9  2 5.94175294E-02-2.15700712E-02 0.00000000E+00 8.40166745E-03-5.46906141E-03
 9  3-4.11757285E-04 1.29511709E-02 0.00000000E+00 0.00000000E+00 3.13277077E-02
 9  4 1.15682863E-02-1.91563409E-01 0.00000000E+00 5.65996673E-02 5.94175294E-02
 9  5 2.15700712E-02 0.00000000E+00-8.40166745E-03 5.46906141E-03 4.11757285E-04
 9  6 1.29511709E-02 0.00000000E+00 0.00000000E+00 6.26554153E-02 3.43365844E-01
 9  7 0.00000000E+00 0.00000000E+00 1.13199335E-01 2.20570701E-02 0.00000000E+00
 9  8 0.00000000E+00-1.54239979E-02 9.55878583E-03 8.23514570E-04 0.00000000E+00
 9  9 0.00000000E+00 0.00000000E+00 3.13277077E-02 1.15682863E-02 1.91563409E-01
 9 10 0.00000000E+00 5.65996673E-02 5.94175294E-02-2.15700712E-02 0.00000000E+00
 9 11-8.40166745E-03 5.46906141E-03 4.11757285E-04-1.29511709E-02 0.00000000E+00
 9 12 0.00000000E+00-3.13277077E-02 1.15682863E-02-1.91563409E-01 0.00000000E+00
 9 13-5.65996673E-02 5.94175294E-02 2.15700712E-02 0.00000000E+00 8.40166745E-03
 9 14-5.46906141E-03-4.11757285E-04-1.29511709E-02 0.00000000E+00 0.00000000E+00
 9 15-6.26554153E-02 3.43365844E-01 0.00000000E+00 0.00000000E+00-1.13199335E-01
 9 16 2.20570701E-02 0.00000000E+00 0.00000000E+00 1.54239979E-02-9.55878583E-03
 9 17-8.23514570E-04 0.00000000E+00 0.00000000E+00 0.00000000E+00 1.07313443E-01
 9 18 5.46707603E-02-1.07313443E-01-5.46707603E-02-2.14626886E-01-1.09341521E-01
 9 19-1.07313443E-01-5.46707603E-02 1.07313443E-01 5.46707603E-02 2.14626886E-01
 9 20 1.09341521E-01
10  1-5.42611814E-02 1.91563409E-01 2.32766658E-01 0.00000000E+00-9.80334994E-02
10  2-2.15700712E-02 3.45105565E-02 0.00000000E+00-8.67633165E-03 1.37557543E-02
10  3-7.13184538E-04 6.94645494E-03 0.00000000E+00 0.00000000E+00-5.42611814E-02
10  4-1.91563409E-01 2.32766658E-01 0.00000000E+00-9.80334994E-02 2.15700712E-02
10  5 3.45105565E-02 0.00000000E+00-8.67633165E-03 1.37557543E-02-7.13184538E-04
10  6-6.94645494E-03 0.00000000E+00 0.00000000E+00 0.00000000E+00 0.00000000E+00
10  7-9.90308996E-02 0.00000000E+00 0.00000000E+00 0.00000000E+00 7.18710158E-02
10  8 0.00000000E+00 0.00000000E+00 0.00000000E+00 0.00000000E+00-1.54856310E-02
10  9 0.00000000E+00 0.00000000E+00 5.42611814E-02 1.91563409E-01 2.32766658E-01
10 10 0.00000000E+00 9.80334994E-02-2.15700712E-02 3.45105565E-02 0.00000000E+00
10 11 8.67633165E-03-1.37557543E-02 7.13184538E-04-6.94645494E-03 0.00000000E+00
10 12 0.00000000E+00 5.42611814E-02-1.91563409E-01 2.32766658E-01 0.00000000E+00
10 13 9.80334994E-02 2.15700712E-02 3.45105565E-02 0.00000000E+00 8.67633165E-03
10 14-1.37557543E-02 7.13184538E-04 6.94645494E-03 0.00000000E+00 0.00000000E+00
10 15 0.00000000E+00 0.00000000E+00-9.90308996E-02 0.00000000E+00 0.00000000E+00
10 16 0.00000000E+00 7.18710158E-02 0.00000000E+00 0.00000000E+00 0.00000000E+00
10 17 0.00000000E+00 1.54856310E-02 0.00000000E+00 0.00000000E+00 1.85872336E-01
10 18 9.46925345E-02 1.85872336E-01 9.46925345E-02 0.00000000E+00 0.00000000E+00
10 19-1.85872336E-01-9.46925345E-02-1.85872336E-01-9.46925345E-02 0.00000000E+00
10 20 0.00000000E+00
11  1 0.00000000E+00 0.00000000E+00 0.00000000E+00 2.55899152E-01 0.00000000E+00
11  2 0.00000000E+00 0.00000000E+00 8.05282709E-02 0.00000000E+00 0.00000000E+00
11  3 0.00000000E+00 0.00000000E+00-6.10756151E-03-1.05786068E-02 0.00000000E+00
11  4 0.00000000E+00 0.00000000E+00 2.55899152E-01 0.00000000E+00 0.00000000E+00
11  5 0.00000000E+00 8.05282709E-02 0.00000000E+00 0.00000000E+00 0.00000000E+00
11  6 0.00000000E+00 6.10756151E-03-1.05786068E-02 0.00000000E+00 0.00000000E+00
11  7 0.00000000E+00 2.55899152E-01 0.00000000E+00 0.00000000E+00 0.00000000E+00
11  8 8.05282709E-02 0.00000000E+00 0.00000000E+00 0.00000000E+00 0.00000000E+00
11  9 1.22151230E-02 0.00000000E+00 0.00000000E+00 0.00000000E+00 0.00000000E+00
11 10 2.55899152E-01 0.00000000E+00 0.00000000E+00 0.00000000E+00 8.05282709E-02
11 11 0.00000000E+00 0.00000000E+00 0.00000000E+00 0.00000000E+00 6.10756151E-03
11 12 1.05786068E-02 0.00000000E+00 0.00000000E+00 0.00000000E+00 2.55899152E-01
11 13 0.00000000E+00 0.00000000E+00 0.00000000E+00 8.05282709E-02 0.00000000E+00
11 14 0.00000000E+00 0.00000000E+00 0.00000000E+00-6.10756151E-03 1.05786068E-02
11 15 0.00000000E+00 0.00000000E+00 0.00000000E+00 2.55899152E-01 0.00000000E+00
11 16 0.00000000E+00 0.00000000E+00 8.05282709E-02 0.00000000E+00 0.00000000E+00
11 17 0.00000000E+00 0.00000000E+00-1.22151230E-02 0.00000000E+00 0.00000000E+00
11 18 0.00000000E+00 0.00000000E+00 0.00000000E+00 0.00000000E+00 0.00000000E+00
11 19 0.00000000E+00 0.00000000E+00 0.00000000E+00 0.00000000E+00 0.00000000E+00
11 20 0.00000000E+00
12  1-8.92255674E-03 2.91551183E-01-1.62552760E-02 0.00000000E+00 2.86463165E-02
12  2 2.77309917E-02-3.26736323E-02 0.00000000E+00-1.51340792E-02 1.82051646E-02
12  3-2.55880897E-04 3.64590201E-03 0.00000000E+00 0.00000000E+00-8.92255674E-03
12  4-2.91551183E-01-1.62552760E-02 0.00000000E+00 2.86463165E-02-2.77309917E-02
12  5-3.26736323E-02 0.00000000E+00-1.51340792E-02 1.82051646E-02-2.55880897E-04
12  6-3.64590201E-03 0.00000000E+00 0.00000000E+00 1.78451135E-02 2.63396219E-01
12  7 0.00000000E+00 0.00000000E+00-5.72926331E-02-2.88613996E-02 0.00000000E+00
12  8 0.00000000E+00-2.52095603E-02 1.90673895E-02 5.11761795E-04 0.00000000E+00
12  9 0.00000000E+00 0.00000000E+00-8.92255674E-03-2.91551183E-01 1.62552760E-02
12 10 0.00000000E+00 2.86463165E-02-2.77309917E-02 3.26736323E-02 0.00000000E+00
12 11-1.51340792E-02 1.82051646E-02-2.55880897E-04 3.64590201E-03 0.00000000E+00
12 12 0.00000000E+00-8.92255674E-03 2.91551183E-01 1.62552760E-02 0.00000000E+00
12 13 2.86463165E-02 2.77309917E-02 3.26736323E-02 0.00000000E+00-1.51340792E-02
12 14 1.82051646E-02-2.55880897E-04-3.64590201E-03 0.00000000E+00 0.00000000E+00
12 15 1.78451135E-02-2.63396219E-01 0.00000000E+00 0.00000000E+00-5.72926331E-02
12 16 2.88613996E-02 0.00000000E+00 0.00000000E+00-2.52095603E-02 1.90673895E-02
12 17 5.11761795E-04 0.00000000E+00 0.00000000E+00 0.00000000E+00 1.08196263E-01
12 18 7.38971460E-02 1.08196263E-01 7.38971460E-02-2.16392526E-01-1.47794292E-01
12 19 1.08196263E-01 7.38971460E-02 1.08196263E-01 7.38971460E-02-2.16392526E-01
12 20-1.47794292E-01
13  1-1.54543216E-02-1.62552760E-02 2.72781207E-01 0.00000000E+00 4.96168757E-02
13  2-3.26736323E-02-9.99726913E-03 0.00000000E+00-4.97805806E-04 5.81708172E-03
13  3-4.43198715E-04 2.34583464E-02 0.00000000E+00 0.00000000E+00 1.54543216E-02
13  4-1.62552760E-02-2.72781207E-01 0.00000000E+00-4.96168757E-02-3.26736323E-02
13  5 9.99726913E-03 0.00000000E+00 4.97805806E-04-5.81708172E-03 4.43198715E-04
13  6 2.34583464E-02 0.00000000E+00 0.00000000E+00 0.00000000E+00 0.00000000E+00
13  7 3.00936171E-01 0.00000000E+00 0.00000000E+00 0.00000000E+00 4.65951222E-02
13  8 0.00000000E+00 0.00000000E+00 0.00000000E+00 0.00000000E+00 1.71434589E-02
13  9 0.00000000E+00 0.00000000E+00-1.54543216E-02 1.62552760E-02-2.72781207E-01
13 10 0.00000000E+00 4.96168757E-02 3.26736323E-02 9.99726913E-03 0.00000000E+00
13 11-4.97805806E-04 5.81708172E-03-4.43198715E-04 2.34583464E-02 0.00000000E+00
13 12 0.00000000E+00 1.54543216E-02 1.62552760E-02 2.72781207E-01 0.00000000E+00
13 13-4.96168757E-02 3.26736323E-02-9.99726913E-03 0.00000000E+00 4.97805806E-04
13 14-5.81708172E-03 4.43198715E-04 2.34583464E-02 0.00000000E+00 0.00000000E+00
13 15 0.00000000E+00 0.00000000E+00-3.00936171E-01 0.00000000E+00 0.00000000E+00
13 16 0.00000000E+00-4.65951222E-02 0.00000000E+00 0.00000000E+00 0.00000000E+00
13 17 0.00000000E+00 1.71434589E-02 0.00000000E+00 0.00000000E+00 1.87401425E-01
13 18 1.27993611E-01-1.87401425E-01-1.27993611E-01 0.00000000E+00 0.00000000E+00
13 19 1.87401425E-01 1.27993611E-01-1.87401425E-01-1.27993611E-01 0.00000000E+00
13 20 0.00000000E+00
14  1 0.00000000E+00 0.00000000E+00 0.00000000E+00-3.35390100E-01 0.00000000E+00
14  2 0.00000000E+00 0.00000000E+00-1.70618227E-01 0.00000000E+00 0.00000000E+00
14  3 0.00000000E+00 0.00000000E+00 1.40223773E-02 1.56954604E-03 0.00000000E+00
14  4 0.00000000E+00 0.00000000E+00-3.35390100E-01 0.00000000E+00 0.00000000E+00
14  5 0.00000000E+00-1.70618227E-01 0.00000000E+00 0.00000000E+00 0.00000000E+00
14  6 0.00000000E+00-1.40223773E-02 1.56954604E-03 0.00000000E+00 0.00000000E+00
14  7 0.00000000E+00 0.00000000E+00 0.00000000E+00 0.00000000E+00 0.00000000E+00
14  8 0.00000000E+00 0.00000000E+00 0.00000000E+00 0.00000000E+00 0.00000000E+00
14  9 0.00000000E+00-2.27179239E-02 0.00000000E+00 0.00000000E+00 0.00000000E+00
14 10 3.35390100E-01 0.00000000E+00 0.00000000E+00 0.00000000E+00 1.70618227E-01
14 11 0.00000000E+00 0.00000000E+00 0.00000000E+00 0.00000000E+00 1.40223773E-02
14 12 1.56954604E-03 0.00000000E+00 0.00000000E+00 0.00000000E+00 3.35390100E-01
14 13 0.00000000E+00 0.00000000E+00 0.00000000E+00 1.70618227E-01 0.00000000E+00
14 14 0.00000000E+00 0.00000000E+00 0.00000000E+00-1.40223773E-02 1.56954604E-03
14 15 0.00000000E+00 0.00000000E+00 0.00000000E+00 0.00000000E+00 0.00000000E+00
14 16 0.00000000E+00 0.00000000E+00 0.00000000E+00 0.00000000E+00 0.00000000E+00
14 17 0.00000000E+00 0.00000000E+00 0.00000000E+00-2.27179239E-02 0.00000000E+00
14 18 0.00000000E+00 0.00000000E+00 0.00000000E+00 0.00000000E+00 0.00000000E+00
14 19 0.00000000E+00 0.00000000E+00 0.00000000E+00 0.00000000E+00 0.00000000E+00
14 20 0.00000000E+00
15  1 0.00000000E+00 0.00000000E+00 0.00000000E+00-1.93637565E-01 0.00000000E+00
15  2 0.00000000E+00 0.00000000E+00-9.85064795E-02 0.00000000E+00 0.00000000E+00
15  3 0.00000000E+00 0.00000000E+00-1.46221006E-02 1.40223773E-02 0.00000000E+00
15  4 0.00000000E+00 0.00000000E+00 1.93637565E-01 0.00000000E+00 0.00000000E+00
15  5 0.00000000E+00 9.85064795E-02 0.00000000E+00 0.00000000E+00 0.00000000E+00
15  6 0.00000000E+00-1.46221006E-02-1.40223773E-02 0.00000000E+00 0.00000000E+00
15  7 0.00000000E+00 3.87275129E-01 0.00000000E+00 0.00000000E+00 0.00000000E+00
15  8 1.97012959E-01 0.00000000E+00 0.00000000E+00 0.00000000E+00 0.00000000E+00
15  9 9.66536935E-03 0.00000000E+00 0.00000000E+00 0.00000000E+00 0.00000000E+00
15 10 1.93637565E-01 0.00000000E+00 0.00000000E+00 0.00000000E+00 9.85064795E-02
15 11 0.00000000E+00 0.00000000E+00 0.00000000E+00 0.00000000E+00-1.46221006E-02
15 12 1.40223773E-02 0.00000000E+00 0.00000000E+00 0.00000000E+00-1.93637565E-01
15 13 0.00000000E+00 0.00000000E+00 0.00000000E+00-9.85064795E-02 0.00000000E+00
15 14 0.00000000E+00 0.00000000E+00 0.00000000E+00-1.46221006E-02-1.40223773E-02
15 15 0.00000000E+00 0.00000000E+00 0.00000000E+00-3.87275129E-01 0.00000000E+00
15 16 0.00000000E+00 0.00000000E+00-1.97012959E-01 0.00000000E+00 0.00000000E+00
15 17 0.00000000E+00 0.00000000E+00 9.66536935E-03 0.00000000E+00 0.00000000E+00
15 18 0.00000000E+00 0.00000000E+00 0.00000000E+00 0.00000000E+00 0.00000000E+00
15 19 0.00000000E+00 0.00000000E+00 0.00000000E+00 0.00000000E+00 0.00000000E+00
15 20 0.00000000E+00
16  1 0.00000000E+00 0.00000000E+00 0.00000000E+00-4.53787984E-01 0.00000000E+00
16  2 0.00000000E+00 0.00000000E+00-2.68395644E-01 0.00000000E+00 0.00000000E+00
16  3 0.00000000E+00 0.00000000E+00-1.67861495E-02 1.74549805E-02 0.00000000E+00
16  4 0.00000000E+00 0.00000000E+00 4.53787984E-01 0.00000000E+00 0.00000000E+00
16  5 0.00000000E+00 2.68395644E-01 0.00000000E+00 0.00000000E+00 0.00000000E+00
16  6 0.00000000E+00-1.67861495E-02-1.74549805E-02 0.00000000E+00 0.00000000E+00
16  7 0.00000000E+00 0.00000000E+00 0.00000000E+00 0.00000000E+00 0.00000000E+00
16  8 0.00000000E+00 0.00000000E+00 0.00000000E+00 0.00000000E+00 0.00000000E+00
16  9 0.00000000E+00 4.65294443E-02 0.00000000E+00 0.00000000E+00 0.00000000E+00
16 10-4.53787984E-01 0.00000000E+00 0.00000000E+00 0.00000000E+00-2.68395644E-01
16 11 0.00000000E+00 0.00000000E+00 0.00000000E+00 0.00000000E+00 1.67861495E-02
16 12-1.74549805E-02 0.00000000E+00 0.00000000E+00 0.00000000E+00 4.53787984E-01
16 13 0.00000000E+00 0.00000000E+00 0.00000000E+00 2.68395644E-01 0.00000000E+00
16 14 0.00000000E+00 0.00000000E+00 0.00000000E+00 1.67861495E-02 1.74549805E-02
16 15 0.00000000E+00 0.00000000E+00 0.00000000E+00 0.00000000E+00 0.00000000E+00
16 16 0.00000000E+00 0.00000000E+00 0.00000000E+00 0.00000000E+00 0.00000000E+00
16 17 0.00000000E+00 0.00000000E+00 0.00000000E+00-4.65294443E-02 0.00000000E+00
16 18 0.00000000E+00 0.00000000E+00 0.00000000E+00 0.00000000E+00 0.00000000E+00
16 19 0.00000000E+00 0.00000000E+00 0.00000000E+00 0.00000000E+00 0.00000000E+00
16 20 0.00000000E+00
17  1 0.00000000E+00 0.00000000E+00 0.00000000E+00-2.61994615E-01 0.00000000E+00
17  2 0.00000000E+00 0.00000000E+00-1.54958297E-01 0.00000000E+00 0.00000000E+00
17  3 0.00000000E+00 0.00000000E+00 3.68379564E-02-1.67861495E-02 0.00000000E+00
17  4 0.00000000E+00 0.00000000E+00-2.61994615E-01 0.00000000E+00 0.00000000E+00
17  5 0.00000000E+00-1.54958297E-01 0.00000000E+00 0.00000000E+00 0.00000000E+00
17  6 0.00000000E+00-3.68379564E-02-1.67861495E-02 0.00000000E+00 0.00000000E+00
17  7 0.00000000E+00 5.23989229E-01 0.00000000E+00 0.00000000E+00 0.00000000E+00
17  8 3.09916595E-01 0.00000000E+00 0.00000000E+00 0.00000000E+00 0.00000000E+00
17  9 7.76349253E-03 0.00000000E+00 0.00000000E+00 0.00000000E+00 0.00000000E+00
17 10-2.61994615E-01 0.00000000E+00 0.00000000E+00 0.00000000E+00-1.54958297E-01
17 11 0.00000000E+00 0.00000000E+00 0.00000000E+00 0.00000000E+00-3.68379564E-02
17 12 1.67861495E-02 0.00000000E+00 0.00000000E+00 0.00000000E+00-2.61994615E-01
17 13 0.00000000E+00 0.00000000E+00 0.00000000E+00-1.54958297E-01 0.00000000E+00
17 14 0.00000000E+00 0.00000000E+00 0.00000000E+00 3.68379564E-02 1.67861495E-02
17 15 0.00000000E+00 0.00000000E+00 0.00000000E+00 5.23989229E-01 0.00000000E+00
17 16 0.00000000E+00 0.00000000E+00 3.09916595E-01 0.00000000E+00 0.00000000E+00
17 17 0.00000000E+00 0.00000000E+00-7.76349253E-03 0.00000000E+00 0.00000000E+00
17 18 0.00000000E+00 0.00000000E+00 0.00000000E+00 0.00000000E+00 0.00000000E+00
17 19 0.00000000E+00 0.00000000E+00 0.00000000E+00 0.00000000E+00 0.00000000E+00
17 20 0.00000000E+00
18  1 0.00000000E+00 0.00000000E+00 0.00000000E+00 4.30020690E-01 0.00000000E+00
18  2 0.00000000E+00 0.00000000E+00 4.17958280E-01 0.00000000E+00 0.00000000E+00
18  3 0.00000000E+00 0.00000000E+00 4.69395423E-03 8.13016722E-03 0.00000000E+00
18  4 0.00000000E+00 0.00000000E+00-4.30020690E-01 0.00000000E+00 0.00000000E+00
18  5 0.00000000E+00-4.17958280E-01 0.00000000E+00 0.00000000E+00 0.00000000E+00
18  6 0.00000000E+00 4.69395423E-03-8.13016722E-03 0.00000000E+00 0.00000000E+00
18  7 0.00000000E+00 4.30020690E-01 0.00000000E+00 0.00000000E+00 0.00000000E+00
18  8 4.17958280E-01 0.00000000E+00 0.00000000E+00 0.00000000E+00 0.00000000E+00
18  9-9.38790846E-03 0.00000000E+00 0.00000000E+00 0.00000000E+00 0.00000000E+00
18 10-4.30020690E-01 0.00000000E+00 0.00000000E+00 0.00000000E+00-4.17958280E-01
18 11 0.00000000E+00 0.00000000E+00 0.00000000E+00 0.00000000E+00 4.69395423E-03
18 12 8.13016722E-03 0.00000000E+00 0.00000000E+00 0.00000000E+00 4.30020690E-01
18 13 0.00000000E+00 0.00000000E+00 0.00000000E+00 4.17958280E-01 0.00000000E+00
18 14 0.00000000E+00 0.00000000E+00 0.00000000E+00 4.69395423E-03-8.13016722E-03
18 15 0.00000000E+00 0.00000000E+00 0.00000000E+00-4.30020690E-01 0.00000000E+00