!  Test of Das' line search code for stabilizing excited states.
!  The active space contains pi,sigma,n,pi* orbitals, state=2-1A'
!
!  FINAL E= -113.5781699676 after 21 iters, RMS GRAD=0.044516871
!        The line search routine is called 5 times
!
!  This run takes 0 seconds on 2.66 GHz Cloverton (26 Apr 2015)
!  no significant changes to results since at least 2005
!
 $contrl scftyp=mcscf mult=1 runtyp=gradient nzvar=6 $end
 $system mwords=1 memddi=0 $end
--- $drt    group=cs fors=.t. nmcc=5 ndoc=3 nval=1 $end
--- $gugdia nstate=3 $end
--- $gugdm2 wstate(1)=0,1 $end
!    WSTATE skips past the ground state to the 2-A' pi->pi* state,
!    as the singlet n->pi* is A'' symmetry.  We also don't need to
!    worry about the triplet n-pi* state, but we must find the 3-A''
!    pi->pi* state that lies below the singlet coupling.  There is
!    some other triplet state below the desired singlet when using
!    the initial orbitals, although by the time convergence is
!    reached, the singlet pi->pi* does become the third overall A'
!    state.  So, nstate=4 to fix the first iterations.
 $det    ncore=5 nact=4 nels=6 nstate=4 pures=.true. wstate(1)=0,1 $end
 $mcscf  cistep=aldet fullnr=.true. linser=.true. $end
 $guess  guess=moread norb=9 $end
 $basis  gbasis=n31 ngauss=6 $end
 $zmat   izmat(1)=1,1,2,  1,1,3,   1,1,4,
                  2,2,1,3,   2,2,1,4,  4,2,1,3,4  $end
 $data
S2 (1A') formaldehyde ... pi-->pi* excitation ... DZ basis
Cs
 
CARBON      6.0    .6704639108   -.0229062232    .0000000000
OXYGEN      8.0   -.6891517724   -.0086745307    .0000000000
HYDROGEN    1.0   1.1028292066    .3155756448   -.9287395077
 $end

--- orbital 6=pi(mainly on O), 7=CO sigma, 8=n, 9=pi* (polarized to C)
--- GVB ORBITALS --- GENERATED AT  8:00:24 CST 27-SEP-1995
S1 (1A'') formaldehyde ... n-->pi* state
E(GVB)=     -113.7389122619, E(NUC)=   28.9934411286,   10 ITERS
 $VEC
 1  1 3.84325080E-05-2.90811636E-04-2.77732075E-04 3.17083935E-05 0.00000000E+00
 1  2 4.79124036E-03-2.81936978E-03 2.10975962E-04 0.00000000E+00 9.95885545E-01
 1  3 2.20322298E-02 1.96703865E-03-6.22535588E-06 0.00000000E+00-9.59609811E-03
 1  4-3.37884806E-03-3.51874529E-05 0.00000000E+00-2.82669370E-04-1.38189891E-04
 1  5-2.82669370E-04-1.38189891E-04
 2  1 9.96143556E-01 2.37655664E-02-1.14214889E-03 9.46196154E-04 0.00000000E+00
 2  2-1.07781536E-02-5.05963139E-04-1.00933617E-03 0.00000000E+00-1.12698520E-04
 2  3 3.37720083E-05 9.18087305E-05-1.13292582E-04 0.00000000E+00 6.19209618E-04
 2  4-5.85805001E-04 8.97906155E-05 0.00000000E+00-2.90794824E-04 2.90209123E-03
 2  5-2.90794824E-04 2.90209123E-03
 3  1-8.75136541E-02 1.78869507E-01-1.32610306E-01 1.65306177E-02 0.00000000E+00
 3  2 2.39210705E-02 3.52601451E-02 8.02041167E-03 0.00000000E+00-2.06793010E-01
 3  3 4.65496756E-01 1.20971895E-01-2.91339941E-04 0.00000000E+00 4.87213127E-01
 3  4 7.70420333E-02-1.25977717E-03 0.00000000E+00 3.13776075E-02 1.45333854E-03
 3  5 3.13776075E-02 1.45333854E-03
 4  1-1.70205622E-01 3.55029659E-01 8.63758572E-02 9.88811968E-02 0.00000000E+00
 4  2 3.34117174E-01 2.70200114E-02 4.95565503E-02 0.00000000E+00 8.96624299E-02
 4  3-2.05788784E-01 1.73168005E-01 1.83700793E-02 0.00000000E+00-3.04215386E-01
 4  4 7.35027572E-02 4.54242094E-04 0.00000000E+00 1.77320977E-01 6.39750489E-02
 4  5 1.77320977E-01 6.39750489E-02
 5  1 0.00000000E+00 0.00000000E+00 0.00000000E+00 0.00000000E+00 4.57039521E-01
 5  2 0.00000000E+00 0.00000000E+00 0.00000000E+00 1.98229830E-01 0.00000000E+00
 5  3 0.00000000E+00 0.00000000E+00 0.00000000E+00 8.29970385E-02 0.00000000E+00
 5  4 0.00000000E+00 0.00000000E+00 2.34070512E-02 2.45074717E-01 1.72060811E-01
 5  5-2.45074717E-01-1.72060811E-01
 6  1 1.55334832E-02-3.13160219E-02-1.15255621E-01 9.69029160E-02 0.00000000E+00
 6  2-2.99169056E-02-2.32392661E-02 4.80252025E-02 0.00000000E+00 9.61946862E-03
 6  3-2.25871291E-02 1.44098943E-01 6.14782138E-01 0.00000000E+00-3.70940689E-02
 6  4 9.46433925E-02 4.41288797E-01 0.00000000E+00-4.39380195E-02-4.89499943E-02
 6  5-4.39380195E-02-4.89499943E-02
 7  1-2.87977496E-03 3.26315467E-02-3.46456530E-01-9.51120206E-02 0.00000000E+00
 7  2-8.63639740E-02-6.38912994E-02-4.15158516E-02 0.00000000E+00 4.89809050E-02
 7  3-1.17700417E-01 4.85013837E-01-1.72186945E-01 0.00000000E+00-1.68722686E-01
 7  4 3.17716333E-01-1.13960327E-01 0.00000000E+00-1.04552667E-01-7.98946407E-02
 7  5-1.04552667E-01-7.98946407E-02
 8  1 0.00000000E+00 0.00000000E+00 0.00000000E+00 0.00000000E+00-6.87571274E-02
 8  2 0.00000000E+00 0.00000000E+00 0.00000000E+00-1.70042195E-02 0.00000000E+00
 8  3 0.00000000E+00 0.00000000E+00 0.00000000E+00 6.88925676E-01 0.00000000E+00
 8  4 0.00000000E+00 0.00000000E+00 4.57977679E-01-8.55611310E-02-1.03366309E-01
 8  5 8.55611310E-02 1.03366309E-01
 9  1 5.93155002E-02-1.24566028E-01-1.04825688E-01 5.94458885E-01 0.00000000E+00
 9  2-2.96339079E-01-8.74923814E-02 4.75123473E-01 0.00000000E+00-5.51714480E-03
 9  3 1.45365953E-02 4.35793874E-02-2.10659928E-01 0.00000000E+00 1.65231695E-02
 9  4 3.87282723E-02-2.49644380E-01 0.00000000E+00 5.60435600E-02 8.18307322E-02
 9  5 5.60435600E-02 8.18307322E-02
 $end

! TRAVIS-CI SMALL

