!  rotated H2C=NH ... exp. spectrum:  J.Phys.Chem.A 108, 4433-4439(2004)
!  MCSCF/TZV++(2df,2pd)//MCSCF/3-21G(d)
!  There are 128 AOs, and 18 1-A'' determinants in Cs symmetry.
!  this is a transformation bound MCSCF calculation.
!
!       FINAL energy= -94.0117284100, after 7 iters.
!
!  This run takes 42 seconds on 2.66 GHz Cloverton (26 Apr 2015)
!  results have not changed since 2005
!
 $contrl scftyp=mcscf runtyp=energy nzvar=9 $end
 $system mwords=2 memddi=10 $end
 $guess  guess=moread norb=10 
         norder=1 iorder(3)=4,5,6,7,  3,8,9,10 $end
 $zmat   izmat(1)= 1,2,1,  1,3,2,  2,3,2,1,  1,5,3,  2,5,3,2,
            3,5,3,2,1,  1,4,3,  2,4,3,2,  3,4,3,2,1  $end
!                nstate is two so we find also the 3-A'' state
 $mcscf  cistep=aldet fullnr=.true. $end
 $det    stsym=App ncore=6 nact=4 nels=4 nstate=2 $end
 $data
H2C=NH...at the rotational transition state
Cs

H           1.0     -1.1182540878       .8561180363       .0000000000
   tzv
   s 1 ; 1 0.036  1.0
   p 1 ; 1 2.0    1.0
   p 1 ; 1 0.5    1.0
   d 1 ; 1 1.0    1.0
       
N           7.0      -.7231013873      -.0878084615       .0000000000
   tzv
   l 1 ; 1 0.0639 1.0 1.0
   d 1 ; 1 1.96   1.0
   d 1 ; 1 0.49   1.0
   f 1 ; 1 1.0    1.0
       
C           6.0       .7315113444       .0629083616       .0000000000
   tzv
   l 1 ; 1 0.0438 1.0 1.0
   d 1 ; 1 1.44   1.0
   d 1 ; 1 0.36   1.0
   f 1 ; 1 1.0    1.0
       
H           1.0      1.2276474767      -.1925579665       .9251216425
   tzv
   s 1 ; 1 0.036  1.0
   p 1 ; 1 2.0    1.0
   p 1 ; 1 0.5    1.0
   d 1 ; 1 1.0    1.0
       
 $end      

   The orbitals were generated by:
1. ROHF on 3A'' state: N,C radical electrons are orb 8,9
2. SYMLOC to clean up the doubly occupied space: CN sigma= orb 3
3. MVOQ=6 to clean up the virtual space: CN sigma*= orb 10

--- ROHF ORBITALS --- GENERATED AT 12:34:08 CST 27-OCT-1993
H2C=NH...at the rotational transition state                                     
E(ROHF)=      -93.9941940626, E(NUC)=   30.3738739358,    2 ITERS
 $VEC
 1  1 2.32515344E-05-7.04417221E-04 2.85489482E-05 1.61400198E-04 8.43459553E-05
 1  2-1.68412683E-04 0.00000000E+00-2.80104852E-04 8.10555782E-04 0.00000000E+00
 1  3-1.05049610E-04-4.02108381E-04-8.04786427E-05 1.18508234E-04 0.00000000E+00
 1  4 0.00000000E+00 5.58246143E-01 4.71875152E-01 5.65768108E-02-1.27151895E-02
 1  5-9.00441248E-03 1.16709871E-03 1.93921673E-03 0.00000000E+00-2.42097749E-04
 1  6 1.33352722E-03 0.00000000E+00-9.20331059E-04-1.35092353E-04 0.00000000E+00
 1  7 3.40450789E-03 9.65357352E-04 5.76692640E-05 0.00000000E+00 1.56541815E-03
 1  8 1.64280742E-03 1.41734569E-03-2.02403047E-05 0.00000000E+00 0.00000000E+00
 1  9 3.78180859E-03 4.71301398E-03 4.19449343E-03-2.52162053E-04 0.00000000E+00
 1 10 0.00000000E+00-7.93211870E-04-8.38528038E-04 0.00000000E+00-4.13271932E-04
 1 11 0.00000000E+00-3.63318001E-04 0.00000000E+00-2.62594686E-04-4.33305840E-04
 1 12 0.00000000E+00 1.60589970E-05 6.50296731E-05-5.00220091E-04 9.01126584E-04
 1 13 1.47645234E-03 1.10510315E-04 2.51366294E-05 0.00000000E+00-7.27973491E-04
 1 14-5.72960856E-05 0.00000000E+00-3.53909988E-04-4.60143619E-05 0.00000000E+00
 1 15-2.70893811E-03 7.93032005E-04 1.37235649E-04 0.00000000E+00 1.87635856E-04
 1 16-7.19091358E-05-3.88161088E-05 2.36967628E-05 0.00000000E+00 0.00000000E+00
 1 17 3.86903897E-04-2.95035534E-04-2.87732725E-04 1.54386199E-05 0.00000000E+00
 1 18 0.00000000E+00-4.26275394E-04-5.99826462E-06 0.00000000E+00-5.70161371E-05
 1 19 0.00000000E+00 9.50834696E-05 0.00000000E+00 1.15298026E-04-1.42580998E-05
 1 20 0.00000000E+00 3.55881546E-05-1.30886440E-04-1.36138457E-05 2.63406753E-04
 1 21-2.43937746E-06-6.90094039E-06-1.86622094E-05-2.79358554E-06-1.64596510E-06
 1 22-5.43639249E-05 2.88013461E-05 3.65127242E-05-9.47565758E-06 5.69106738E-06
 1 23 2.47065767E-05-8.91705955E-06 3.55881546E-05-1.30886440E-04-1.36138457E-05
 1 24 2.63406753E-04-2.43937746E-06-6.90094039E-06 1.86622094E-05-2.79358554E-06
 1 25-1.64596510E-06 5.43639249E-05 2.88013461E-05 3.65127242E-05-9.47565758E-06
 1 26 5.69106738E-06-2.47065767E-05 8.91705955E-06
 2  1 2.13146880E-05 3.80704469E-04-1.85550965E-04 1.19574002E-04-1.12632185E-05
 2  2 1.03601445E-06 0.00000000E+00-2.29921872E-05-8.51101685E-05 0.00000000E+00
 2  3-8.47204993E-05 2.32840427E-05 1.11003241E-05 3.40592322E-05 0.00000000E+00
 2  4 0.00000000E+00-8.88643003E-05-9.45011201E-05-8.25044826E-05 2.31567882E-04
 2  5-2.93476813E-05 1.38989171E-04 8.59406387E-06 0.00000000E+00-6.31662743E-05
 2  6-1.69856081E-04 0.00000000E+00 7.91472606E-05-8.60320344E-05 0.00000000E+00
 2  7 1.55783844E-03 5.73567561E-04 1.22689400E-04 0.00000000E+00 1.30720449E-04
 2  8-2.57316765E-05-4.08698687E-05 1.39474002E-05 0.00000000E+00 0.00000000E+00
 2  9 1.60255203E-04-8.98934171E-05-5.66822091E-05 1.06632663E-04 0.00000000E+00
 2 10 0.00000000E+00 1.64843412E-04 4.37640512E-05 0.00000000E+00 1.11193565E-05
 2 11 0.00000000E+00 5.10966862E-05 0.00000000E+00 1.73486049E-06 8.97073046E-06
 2 12 0.00000000E+00 5.75897851E-01 4.57110618E-01 5.40366338E-02-1.44639844E-02
 2 13-8.00114025E-03-8.15485376E-04-5.77912463E-04 0.00000000E+00 1.03082095E-04
 2 14-2.39880487E-04 0.00000000E+00 1.62580675E-04 2.20720850E-04 0.00000000E+00
 2 15 8.66666398E-04 3.84928701E-04-1.52397611E-04 0.00000000E+00 1.44147773E-03
 2 16 1.29271860E-03 1.62763494E-03-5.80801969E-05 0.00000000E+00 0.00000000E+00
 2 17 4.41723334E-03 4.43300736E-03 4.77610051E-03-9.49525467E-05 0.00000000E+00
 2 18 0.00000000E+00 3.29073570E-04 2.40227203E-04 0.00000000E+00 3.03476381E-05
 2 19 0.00000000E+00 2.23530720E-04 0.00000000E+00 5.26713963E-04-6.20426766E-05
 2 20 0.00000000E+00 2.08282623E-04-6.87727593E-04 6.93855097E-04-6.28696902E-04
 2 21-1.60303284E-05 6.71254652E-06 1.84402025E-05 9.35436357E-05-6.90142628E-05
 2 22-1.80827611E-04 5.68943259E-06 1.45030304E-05-1.09949525E-04 1.67766559E-05
 2 23 5.99658988E-05-3.74606147E-05 2.08282623E-04-6.87727593E-04 6.93855097E-04
 2 24-6.28696902E-04-1.60303284E-05 6.71254652E-06-1.84402025E-05 9.35436357E-05
 2 25-6.90142628E-05 1.80827611E-04 5.68943259E-06 1.45030304E-05-1.09949525E-04
 2 26 1.67766559E-05-5.99658988E-05 3.74606147E-05
 3  1-1.09978691E-02-3.40953671E-02-1.89381440E-02-4.80934729E-03 2.99499212E-03
 3  2 1.52140216E-03 0.00000000E+00 1.33589895E-02 4.07251556E-03 0.00000000E+00
 3  3 3.24263073E-03-1.88364520E-03 1.69611340E-03-1.53253537E-03 0.00000000E+00
 3  4 0.00000000E+00-5.30407975E-02-8.79849111E-02 2.45678293E-02 2.34206009E-01
 3  5 7.92116691E-02 3.07174452E-01 3.59427229E-02 0.00000000E+00 2.38887963E-01
 3  6 2.59424514E-02 0.00000000E+00 9.64032107E-02 1.48261548E-02 0.00000000E+00
 3  7-7.54204469E-02-1.87117159E-02 4.76822905E-03 0.00000000E+00 1.13394609E-02
 3  8-3.16816385E-03-3.92543706E-03 5.06373845E-03 0.00000000E+00 0.00000000E+00
 3  9 4.47040815E-02-1.19541855E-02-1.16895327E-02 1.78372576E-02 0.00000000E+00
 3 10 0.00000000E+00 1.13811271E-02 1.83041069E-03 0.00000000E+00 3.10651299E-03
 3 11 0.00000000E+00-3.29312055E-03 0.00000000E+00-2.93940018E-03 6.20639493E-04
 3 12 0.00000000E+00-6.12029035E-02-9.64207655E-02 2.65331644E-02 2.39709698E-01
 3 13 1.14801332E-01-2.51154392E-01 7.73327664E-03 0.00000000E+00-1.40097277E-01
 3 14 1.63313411E-02 0.00000000E+00-4.23419321E-02 6.71679243E-03 0.00000000E+00
 3 15 5.33676310E-02-5.87257774E-03-4.20612662E-03 0.00000000E+00 1.72421593E-02
 3 16-3.93811621E-03-4.59257488E-03 2.88904346E-03 0.00000000E+00 0.00000000E+00
 3 17 1.70807277E-02-1.36140278E-02-1.92702356E-02 9.90087503E-04 0.00000000E+00
 3 18 0.00000000E+00-5.47144257E-03-3.38291552E-04 0.00000000E+00-1.35502197E-03
 3 19 0.00000000E+00 3.69817544E-03 0.00000000E+00 3.83044438E-03-6.81125147E-04
 3 20 0.00000000E+00-8.85337119E-03-2.02419499E-02-2.87385371E-02-5.89581126E-03
 3 21-1.46132129E-03 1.95935278E-05-6.63791635E-04-6.94504409E-03-1.02376321E-04
 3 22-1.95810613E-03 1.11923420E-03 2.52019216E-04-8.80765324E-04-2.01741217E-04
 3 23-5.11378923E-04 3.93028052E-05-8.85337119E-03-2.02419499E-02-2.87385371E-02
 3 24-5.89581126E-03-1.46132129E-03 1.95935278E-05 6.63791635E-04-6.94504409E-03
 3 25-1.02376321E-04 1.95810613E-03 1.11923420E-03 2.52019216E-04-8.80765324E-04
 3 26-2.01741217E-04 5.11378923E-04-3.93028052E-05
 4  1 3.22423122E-03 1.28803573E-02 1.29883644E-02 6.18287215E-05-6.14070561E-04
 4  2-6.88514690E-05 0.00000000E+00-2.52762748E-03-1.36171359E-03 0.00000000E+00
 4  3-2.31874214E-04 4.10721161E-04-2.52056340E-04 1.23395331E-04 0.00000000E+00
 4  4 0.00000000E+00 1.11134817E-02 1.93816792E-02-5.49779231E-03-5.37088258E-02
 4  5-6.05093715E-02-5.16176024E-02-3.27263418E-03 0.00000000E+00-3.91402149E-02
 4  6-3.62808481E-03 0.00000000E+00-3.82215297E-02 2.46709767E-03 0.00000000E+00
 4  7-9.81561500E-03-2.12671291E-03 3.49057578E-04 0.00000000E+00-1.70757684E-04
 4  8-1.19707702E-04 9.30265320E-05-1.27089526E-03 0.00000000E+00 0.00000000E+00
 4  9-5.84840739E-05 1.39566959E-03 2.55943020E-03-4.52860312E-03 0.00000000E+00
 4 10 0.00000000E+00-1.37579345E-03-5.24304496E-04 0.00000000E+00-7.44647724E-04
 4 11 0.00000000E+00-5.39590547E-05 0.00000000E+00 2.66347538E-04-4.79461668E-05
 4 12 0.00000000E+00-9.00816676E-02-1.43980263E-01 4.88163584E-02 3.37101792E-01
 4 13 2.10465689E-01 2.00109485E-01-6.26561867E-02 0.00000000E+00 1.14117884E-01
 4 14-3.15496401E-02 0.00000000E+00 3.07497120E-02-1.98686030E-02 0.00000000E+00
 4 15-1.50103080E-02-7.33437287E-03 2.64974709E-03 0.00000000E+00-1.91691472E-03
 4 16-3.69701268E-04 1.46324367E-02-3.72637992E-03 0.00000000E+00 0.00000000E+00
 4 17-1.47756969E-02-5.14697201E-03 1.10912999E-02-6.51246694E-03 0.00000000E+00
 4 18 0.00000000E+00-4.12351598E-03 2.06488946E-03 0.00000000E+00 9.65259260E-05
 4 19 0.00000000E+00-2.66313478E-03 0.00000000E+00 6.98985507E-04-1.10137561E-03
 4 20 0.00000000E+00 1.27638983E-01 1.77853243E-01 3.93509655E-02 8.15462025E-03
 4 21-2.44961050E-03 1.55326692E-03 7.36491054E-03-8.00190602E-03 4.72973407E-03
 4 22 2.52970335E-02 7.97375035E-04 1.27810359E-04 5.24682853E-03-6.16160425E-04
 4 23-2.50404189E-03 1.41835492E-03 1.27638983E-01 1.77853243E-01 3.93509655E-02
 4 24 8.15462025E-03-2.44961050E-03 1.55326692E-03-7.36491054E-03-8.00190602E-03
 4 25 4.72973407E-03-2.52970335E-02 7.97375035E-04 1.27810359E-04 5.24682853E-03
 4 26-6.16160425E-04 2.50404189E-03-1.41835492E-03
 5  1 0.00000000E+00 0.00000000E+00 0.00000000E+00 0.00000000E+00 0.00000000E+00
 5  2 0.00000000E+00 6.06888229E-04 0.00000000E+00 0.00000000E+00 1.61960943E-03
 5  3 0.00000000E+00 0.00000000E+00 0.00000000E+00 0.00000000E+00 1.36504103E-04
 5  4-3.07754752E-04 0.00000000E+00 0.00000000E+00 0.00000000E+00 0.00000000E+00
 5  5 0.00000000E+00 0.00000000E+00 0.00000000E+00 5.19163190E-02 0.00000000E+00
 5  6 0.00000000E+00 4.05452905E-02 0.00000000E+00 0.00000000E+00-8.29048214E-04
 5  7 0.00000000E+00 0.00000000E+00 0.00000000E+00-5.52620040E-04 0.00000000E+00
 5  8 0.00000000E+00 0.00000000E+00 0.00000000E+00 3.73150948E-03 5.93731247E-04
 5  9 0.00000000E+00 0.00000000E+00 0.00000000E+00 0.00000000E+00 1.32175725E-02
 5 10 2.71078104E-03 0.00000000E+00 0.00000000E+00-1.48688042E-03 0.00000000E+00
 5 11 3.35482600E-03 0.00000000E+00-5.34806127E-04 0.00000000E+00 0.00000000E+00
 5 12 4.67608007E-04 0.00000000E+00 0.00000000E+00 0.00000000E+00 0.00000000E+00
 5 13 0.00000000E+00 0.00000000E+00 0.00000000E+00 3.58286288E-01 0.00000000E+00
 5 14 0.00000000E+00 2.00019495E-01 0.00000000E+00 0.00000000E+00 8.01562119E-02
 5 15 0.00000000E+00 0.00000000E+00 0.00000000E+00-2.52865938E-02 0.00000000E+00
 5 16 0.00000000E+00 0.00000000E+00 0.00000000E+00 1.07466198E-02-7.15960866E-03
 5 17 0.00000000E+00 0.00000000E+00 0.00000000E+00 0.00000000E+00 8.42551515E-03
 5 18-8.02561791E-03 0.00000000E+00 0.00000000E+00-4.11656378E-03 0.00000000E+00
 5 19-9.91210692E-04 0.00000000E+00-4.43207933E-03 0.00000000E+00 0.00000000E+00
 5 20-5.67277130E-04-1.46385450E-01-2.31262518E-01-8.13970127E-02-1.93565101E-02
 5 21 4.59420271E-03-2.25606874E-03-5.59304879E-03 1.63194086E-02-8.07319962E-03
 5 22-2.00223294E-02-1.47915590E-03 1.31433110E-04-3.29587481E-03 8.77991182E-04
 5 23 3.29908622E-03-1.35999581E-03 1.46385450E-01 2.31262518E-01 8.13970127E-02
 5 24 1.93565101E-02-4.59420271E-03 2.25606874E-03-5.59304879E-03-1.63194086E-02
 5 25 8.07319962E-03-2.00223294E-02 1.47915590E-03-1.31433110E-04 3.29587481E-03
 5 26-8.77991182E-04 3.29908622E-03-1.35999581E-03
 6  1-1.90128325E-01-2.64915651E-01-7.83401691E-02-6.88710520E-03-4.93698757E-03
 6  2 1.23009565E-02 0.00000000E+00-1.50054865E-02 3.37848623E-02 0.00000000E+00
 6  3 5.92039152E-04-7.61236116E-03 1.40885248E-03 4.36593447E-03 0.00000000E+00
 6  4 0.00000000E+00 5.96669404E-02 9.86214304E-02-3.39967762E-02-2.36541764E-01
 6  5-9.29840991E-02 1.44789862E-01-2.76620680E-01 0.00000000E+00 9.83818744E-02
 6  6-1.86412991E-01 0.00000000E+00 3.03667755E-02-7.98342839E-02 0.00000000E+00
 6  7 2.02384279E-02-8.98365497E-03 3.11452237E-03 0.00000000E+00 2.20212775E-03
 6  8-1.43699582E-02 1.59090937E-03 5.29910794E-03 0.00000000E+00 0.00000000E+00
 6  9 1.17035890E-02-2.61928887E-02 5.89296476E-03 3.11165785E-03 0.00000000E+00
 6 10 0.00000000E+00-2.54887204E-03-5.06842602E-04 0.00000000E+00-1.62790335E-03
 6 11 0.00000000E+00 8.19113572E-04 0.00000000E+00-1.42045237E-03 1.80405330E-03
 6 12 0.00000000E+00-4.15065230E-03-7.20948267E-03 1.31576001E-03 2.24177085E-02
 6 13 2.82410447E-02-3.51478119E-02-4.72192866E-02 0.00000000E+00-3.16705042E-02
 6 14-3.00188950E-02 0.00000000E+00-1.64604553E-02-2.32148290E-03 0.00000000E+00
 6 15 6.70473378E-03 1.43120586E-03 1.76073374E-04 0.00000000E+00-4.83416602E-04
 6 16 5.63791141E-04-2.16626096E-06 4.76604187E-03 0.00000000E+00 0.00000000E+00
 6 17-5.40595702E-04 5.26610491E-04-2.42154048E-03 1.27811092E-02 0.00000000E+00
 6 18 0.00000000E+00 5.11858232E-04 1.22535052E-03 0.00000000E+00-3.51155198E-03
 6 19 0.00000000E+00 2.94276120E-04 0.00000000E+00 9.53641424E-04 4.46632562E-04
 6 20 0.00000000E+00-2.00587465E-03-5.14799728E-03-8.66394734E-03-4.32656491E-04
 6 21-3.87564670E-04-4.51311824E-04-1.54278221E-04-2.46958355E-03-1.41526537E-03
 6 22 1.71741932E-04 7.18227767E-04-6.26717533E-05-4.13617222E-04 5.84691995E-05
 6 23-1.31370174E-04-3.92557990E-04-2.00587465E-03-5.14799728E-03-8.66394734E-03
 6 24-4.32656491E-04-3.87564670E-04-4.51311824E-04 1.54278221E-04-2.46958355E-03
 6 25-1.41526537E-03-1.71741932E-04 7.18227767E-04-6.26717533E-05-4.13617222E-04
 6 26 5.84691995E-05 1.31370174E-04 3.92557990E-04
 7  1 2.38863420E-02 7.59259690E-02 6.13892226E-02 9.17598371E-03 2.51157111E-03
 7  2 1.36406104E-03 0.00000000E+00 1.32814278E-02 6.67869682E-03 0.00000000E+00
 7  3 2.54144427E-04-3.19228470E-03-1.00658885E-03-1.26960160E-03 0.00000000E+00
 7  4 0.00000000E+00 9.16713916E-02 1.55595847E-01-5.72947336E-02-4.16197331E-01
 7  5-3.79305363E-01 1.46267560E-01 2.84645335E-01 0.00000000E+00 1.06257121E-01
 7  6 2.25066681E-01 0.00000000E+00 7.23630634E-02 1.23861521E-01 0.00000000E+00
 7  7-9.15969479E-02 9.12357602E-03 2.01161925E-03 0.00000000E+00-4.10249659E-03
 7  8-9.96751137E-04-7.15057635E-03 3.07466508E-03 0.00000000E+00 0.00000000E+00
 7  9-1.47594234E-02 2.90583569E-03-1.73480235E-02 1.57791132E-02 0.00000000E+00
 7 10 0.00000000E+00-2.40730215E-03-4.12142070E-03 0.00000000E+00 3.71184708E-04
 7 11 0.00000000E+00-5.70761889E-05 0.00000000E+00 2.90494563E-06-1.29641418E-03
 7 12 0.00000000E+00-1.04524518E-02-1.77785972E-02 6.32579696E-03 6.02674046E-02
 7 13 5.87764500E-02-3.13069435E-02 7.86672882E-02 0.00000000E+00-4.63605803E-02
 7 14 5.50425503E-02 0.00000000E+00-1.82713258E-02 1.33331456E-02 0.00000000E+00
 7 15 1.52202386E-02 6.03769289E-04-2.39860209E-03 0.00000000E+00 4.33160732E-04
 7 16 3.66632773E-04 8.08771967E-04-4.95891607E-03 0.00000000E+00 0.00000000E+00
 7 17 1.07329124E-02 1.28489873E-03 1.35201927E-03-1.58778559E-02 0.00000000E+00
 7 18 0.00000000E+00-1.50814789E-03-1.96052419E-03 0.00000000E+00 3.16807461E-03
 7 19 0.00000000E+00 1.27055779E-03 0.00000000E+00 3.59989234E-04-4.82050212E-04
 7 20 0.00000000E+00-2.34807630E-03-7.20150620E-03-6.52402760E-03-3.88068178E-03
 7 21-2.95275109E-04 6.91999361E-04-1.58161088E-04-6.75274863E-04 2.70596554E-03
 7 22-7.43830180E-04 3.54326426E-04 6.31895492E-04 1.03392650E-04-3.03599579E-04
 7 23-2.83434402E-04 4.85378852E-04-2.34807630E-03-7.20150620E-03-6.52402760E-03
 7 24-3.88068178E-03-2.95275109E-04 6.91999361E-04 1.58161088E-04-6.75274863E-04
 7 25 2.70596554E-03 7.43830180E-04 3.54326426E-04 6.31895492E-04 1.03392650E-04
 7 26-3.03599579E-04 2.83434402E-04-4.85378852E-04
 8  1 0.00000000E+00 0.00000000E+00 0.00000000E+00 0.00000000E+00 0.00000000E+00
 8  2 0.00000000E+00 5.43664886E-03 0.00000000E+00 0.00000000E+00 2.39278703E-02
 8  3 0.00000000E+00 0.00000000E+00 0.00000000E+00 0.00000000E+00 1.37815046E-03
 8  4-4.02203933E-03 0.00000000E+00 0.00000000E+00 0.00000000E+00 0.00000000E+00
 8  5 0.00000000E+00 0.00000000E+00 0.00000000E+00 5.05248944E-01 0.00000000E+00
 8  6 0.00000000E+00 4.15984048E-01 0.00000000E+00 0.00000000E+00 2.44471736E-01
 8  7 0.00000000E+00 0.00000000E+00 0.00000000E+00 5.84535091E-03 0.00000000E+00
 8  8 0.00000000E+00 0.00000000E+00 0.00000000E+00 1.72494311E-03 4.55412098E-03
 8  9 0.00000000E+00 0.00000000E+00 0.00000000E+00 0.00000000E+00 1.09762589E-02
 8 10 2.03703572E-02 0.00000000E+00 0.00000000E+00 2.07902868E-03 0.00000000E+00
 8 11-1.36485007E-03 0.00000000E+00-4.20568391E-03 0.00000000E+00 0.00000000E+00
 8 12-1.20881151E-03 0.00000000E+00 0.00000000E+00 0.00000000E+00 0.00000000E+00
 8 13 0.00000000E+00 0.00000000E+00 0.00000000E+00-4.46410498E-02 0.00000000E+00
 8 14 0.00000000E+00-3.54899881E-02 0.00000000E+00 0.00000000E+00-2.41438785E-02
 8 15 0.00000000E+00 0.00000000E+00 0.00000000E+00 3.89643475E-02 0.00000000E+00
 8 16 0.00000000E+00 0.00000000E+00 0.00000000E+00-1.13952031E-02 7.32245649E-04
 8 17 0.00000000E+00 0.00000000E+00 0.00000000E+00 0.00000000E+00-2.88576579E-02
 8 18 1.72256037E-03 0.00000000E+00 0.00000000E+00 9.48570142E-04 0.00000000E+00
 8 19 6.96510797E-03 0.00000000E+00 3.92953128E-04 0.00000000E+00 0.00000000E+00
 8 20 9.59447251E-04 4.06292310E-02 7.42844276E-02 7.57620059E-02 3.16760462E-02
 8 21-1.46215605E-04 5.82251684E-04 1.48987681E-03-4.10160374E-03 1.71823227E-03
 8 22 5.45005603E-03-5.63886103E-04-2.19817019E-04 2.10884250E-03-4.16170731E-04
 8 23-1.24419454E-03 1.01319396E-03-4.06292310E-02-7.42844276E-02-7.57620059E-02
 8 24-3.16760462E-02 1.46215605E-04-5.82251684E-04 1.48987681E-03 4.10160374E-03
 8 25-1.71823227E-03 5.45005603E-03 5.63886103E-04 2.19817019E-04-2.10884250E-03
 8 26 4.16170731E-04-1.24419454E-03 1.01319396E-03
 9  1-5.02156255E-02-1.00533353E-01-8.20143877E-02-3.66932439E-03-8.68581032E-04
 9  2 1.87277097E-03 0.00000000E+00-8.33388895E-03 6.69790250E-03 0.00000000E+00
 9  3-1.83736657E-04-2.36575929E-03-3.19296157E-04 2.30600821E-03 0.00000000E+00
 9  4 0.00000000E+00-6.65287427E-03-1.17425390E-02 5.39764539E-03 3.69622868E-02
 9  5 7.98194380E-02-6.94783486E-02-1.18732808E-01 0.00000000E+00-5.28219632E-02
 9  6-9.19622710E-02 0.00000000E+00-4.99075637E-02-9.85853634E-02 0.00000000E+00
 9  7 5.37287257E-02-5.43895502E-03-3.17180655E-02 0.00000000E+00-8.19574299E-04
 9  8-1.36449474E-03 3.19729486E-03 5.97353343E-03 0.00000000E+00 0.00000000E+00
 9  9-1.60298331E-03-7.89007565E-04 8.96039568E-03 1.50978764E-02 0.00000000E+00
 9 10 0.00000000E+00-4.09393342E-03 2.48828203E-04 0.00000000E+00 5.19451423E-03
 9 11 0.00000000E+00 2.27116310E-03 0.00000000E+00-1.26189892E-03-9.04901230E-04
 9 12 0.00000000E+00-2.51557882E-02-4.24441464E-02 1.34736071E-02 1.20192267E-01
 9 13 2.20785869E-01 4.93353610E-02 4.73010941E-01 0.00000000E+00 3.90770812E-02
 9 14 4.07565320E-01 0.00000000E+00 1.05214427E-02 2.48595782E-01 0.00000000E+00
 9 15 8.55205219E-02 1.01318550E-02 1.18525658E-02 0.00000000E+00-3.28812924E-03
 9 16 6.20318779E-03-2.22046659E-03 3.56963376E-03 0.00000000E+00 0.00000000E+00
 9 17-1.56994276E-02 1.71785763E-02-1.62008955E-02 1.72374502E-02 0.00000000E+00
 9 18 0.00000000E+00 1.09688110E-03 1.12160821E-03 0.00000000E+00-2.06934298E-03
 9 19 0.00000000E+00 5.34617600E-04 0.00000000E+00-1.04942649E-03-7.97661585E-04
 9 20 0.00000000E+00-2.36492560E-02-4.71164937E-02-5.20506319E-02-1.86211826E-02
 9 21 1.16752079E-03 4.59131531E-03-1.43766490E-03 2.22687801E-03 2.03288814E-02
 9 22-2.31618666E-03 7.39258565E-04 2.22421797E-03 6.87384060E-05-1.38870714E-03
 9 23 9.96198762E-04 2.67177710E-03-2.36492560E-02-4.71164937E-02-5.20506319E-02
 9 24-1.86211826E-02 1.16752079E-03 4.59131531E-03 1.43766490E-03 2.22687801E-03
 9 25 2.03288814E-02 2.31618666E-03 7.39258565E-04 2.22421797E-03 6.87384060E-05
 9 26-1.38870714E-03-9.96198762E-04-2.67177710E-03
10  1 9.80604179E-03 1.69711547E-02 2.26548915E-03 1.02271043E-02 3.68277815E-03
10  2 1.82966100E-04 0.00000000E+00 6.15727783E-03 2.15548670E-03 0.00000000E+00
10  3 2.22832685E-03-1.08853389E-03-5.07270860E-04-3.55249385E-03 0.00000000E+00
10  4 0.00000000E+00-6.10886055E-02-1.10054571E-01 7.90716153E-02 4.16987947E-01
10  5 7.03351462E-02 6.78203415E-01 1.05414883E-02 0.00000000E+00 2.03283430E-01
10  6 1.20279757E-02 0.00000000E+00-3.06724575E-02 5.33358630E-03 0.00000000E+00
10  7-2.62724346E-02 1.24411593E-03-6.40065606E-03 0.00000000E+00-8.60332900E-03
10  8 1.64521835E-02 1.32797582E-02-6.50717212E-03 0.00000000E+00 0.00000000E+00
10  9-7.26254127E-02 3.18949751E-02 1.86717944E-02-1.10387903E-02 0.00000000E+00
10 10 0.00000000E+00-3.27098228E-03 1.84397201E-03 0.00000000E+00-3.46941209E-03
10 11 0.00000000E+00 8.68065385E-03 0.00000000E+00 6.13035782E-03-1.93634134E-04
10 12 0.00000000E+00 6.64061958E-02 1.12377494E-01-5.07610464E-02-4.32652869E-01
10 13-1.08700064E-01 4.95174930E-01 7.27597246E-02 0.00000000E+00 3.04262426E-01
10 14 4.95249722E-02 0.00000000E+00-9.45817489E-03 1.50028365E-02 0.00000000E+00
10 15 5.18913639E-02 8.92820195E-03-3.36862208E-03 0.00000000E+00-1.53190979E-02
10 16-1.17181894E-03 1.60145129E-03-2.63352043E-04 0.00000000E+00 0.00000000E+00
10 17-5.18042092E-02 1.11569120E-02 1.94170358E-02-6.58967809E-03 0.00000000E+00
10 18 0.00000000E+00 1.19413662E-02 1.12572978E-03 0.00000000E+00 6.86921061E-04
10 19 0.00000000E+00 4.65646299E-03 0.00000000E+00 1.55181355E-03 9.87833974E-04
10 20 0.00000000E+00 2.51643484E-02 4.10950685E-02 2.65271132E-02-1.78009426E-02
10 21 2.37091770E-03 1.10886135E-03 1.62779635E-03 4.09461799E-03 3.72904423E-03
10 22 9.16780105E-03-1.31570533E-03 6.81089188E-04 2.89110406E-03 4.75169546E-06
10 23 9.22355289E-04 1.16893314E-03 2.51643484E-02 4.10950685E-02 2.65271132E-02
10 24-1.78009426E-02 2.37091770E-03 1.10886135E-03-1.62779635E-03 4.09461799E-03
10 25 3.72904423E-03-9.16780105E-03-1.31570533E-03 6.81089188E-04 2.89110406E-03
10 26 4.75169546E-06-9.22355289E-04-1.16893314E-03
 $end

! TRAVIS-CI SMALL

! TRAVIS-CI SKIP
