!  WATER ... Joe's FORS-II ansatz, constrained into four ORMAS subspaces
!  test case created around 2005
!
!  the ORMAS gradient program should optimize like this:
!     NSERCH:   0  E= -76.1354773381  R.M.S.=  0.0133117
!     NSERCH:   1  E= -76.1353961636  R.M.S.=  0.0102544
!     NSERCH:   2  E= -76.1361849887  R.M.S.=  0.0024162
!     NSERCH:   3  E= -76.1362617072  R.M.S.=  0.0007442
!     NSERCH:   4  E= -76.1362650316  R.M.S.=  0.0003464
!     NSERCH:   5  E= -76.1362656761  R.M.S.=  0.0000109
!
!  This run takes 1 seconds on 2.66 GHz Cloverton (26 Apr 2015)
!  results more or less unchanged since 2005
!
!  -------------------------
!  ---- ORMAS Calculation ----
!  ORMAS/6-31G(d,p)     : Here the FORSII set of orbitals
!  have been localized in two parts, the SCF orbs in one set,
!  and the next 4 virtuals from an MVOQ=4 in the 2nd set.
!  The ORMAS space then consists of 4 spaces, each containing
!  1) O-H + O-H*
!  2) O-H + O-H*
!  3) O (sigma lp) + O (sigma lp*)
!  4) O (pi lp) + O (pi lp*)
!
 $CONTRL SCFTYP=MCSCF RUNTYP=optimize $END
 $SYSTEM MWORDS=1 memddi=0 $END
 $MCSCF  CISTEP=ORMAS FULLNR=.TRUE. $END
 $BASIS  GBASIS=N31 NGAUSS=6 NDFUNC=1 NPFUNC=1 $END
 $DET    GROUP=C1 STSYM=A NCORE=1 NACT=8 NELS=8 $END
 $ORMAS  NSPACE=4 MSTArt(1)=2,4,6,8 MINE(1)=2,2,2,2 MAXE(1)=2,2,2,2 $END
 $GUESS  GUESS=MOREAD NORB=9 NORDER=1 IORDER(2)=2,6, 3,7, 4,8, 5,9 $END
 $DATA
Water...orbitals below lack any symmetry
C1
O           8.0    .0000000000    .0000000000    .0214993901
H           1.0   -.7530035962    .0000000000    .5892503050
H           1.0    .7530035962    .0000000000    .5892503050
 $END

ENERGY LOCALIZED ORBITALS
 $VEC
 1  1 9.94626874E-01 2.13463358E-02 0.00000000E+00 0.00000000E+00 2.63209771E-03
 1  2 4.00393061E-03 0.00000000E+00 0.00000000E+00 6.08461062E-04-3.83137980E-03
 1  3-4.05945333E-03-3.81145295E-03 0.00000000E+00 0.00000000E+00 0.00000000E+00
 1  4 3.64836244E-04-1.72884458E-04-3.28226629E-04 0.00000000E+00 2.55780758E-04
 1  5 3.64836244E-04-1.72884458E-04 3.28226629E-04 0.00000000E+00 2.55780758E-04
 2  1-9.37447113E-02 2.10977448E-01-3.59448719E-01-6.65860609E-07 2.77313457E-01
 2  2 9.84135826E-02-1.83342282E-01-5.25429898E-07 1.72461950E-01 3.20323758E-03
 2  3-3.96454154E-03 1.91048957E-02 0.00000000E+00-2.41303142E-02-2.89897325E-08
 2  4 3.18571407E-01 1.44015627E-01 2.37426002E-02-2.18931426E-08-1.58437409E-02
 2  5-2.83962189E-02-4.93550473E-02-1.07813693E-02-2.18931426E-08 7.71758730E-03
 3  1-9.37448144E-02 2.10977676E-01 3.59448753E-01-8.06499102E-07 2.77313178E-01
 3  2 9.84139049E-02 1.83342299E-01-6.36407582E-07 1.72461746E-01 3.20323598E-03
 3  3-3.96453871E-03 1.91048743E-02 0.00000000E+00 2.41303165E-02-3.51127441E-08
 3  4-2.83962680E-02-4.93551035E-02 1.07813683E-02-2.65172614E-08 7.71757995E-03
 3  5 3.18571390E-01 1.44015589E-01-2.37426004E-02-2.65172614E-08-1.58437505E-02
 4  1 1.27592286E-01-2.81761925E-01 1.01423584E-07-4.50007101E-01 2.88267069E-01
 4  2-3.78121191E-01 5.17326405E-08-3.55100124E-01 2.14222400E-01 1.48029310E-03
 4  3-2.80296252E-03 2.22773252E-02 0.00000000E+00 6.80871241E-09-1.95920667E-02
 4  4 2.18143043E-02 4.86770141E-02-1.42534273E-03-1.47959941E-02 1.00757819E-02
 4  5 2.18144022E-02 4.86770686E-02 1.42533908E-03-1.47959941E-02 1.00757752E-02
 5  1 1.27592389E-01-2.81762140E-01 2.13761061E-07 4.50005654E-01 2.88268903E-01
 5  2-3.78122085E-01 1.09032078E-07 3.55098983E-01 2.14223653E-01 1.48030834E-03
 5  3-2.80298451E-03 2.22774594E-02 0.00000000E+00 1.43500903E-08 1.95920037E-02
 5  4 2.18147950E-02 4.86772952E-02-1.42529286E-03 1.47959465E-02 1.00758047E-02
 5  5 2.18150013E-02 4.86774102E-02 1.42528516E-03 1.47959465E-02 1.00757906E-02
 6  1-8.98487663E-02 5.48489804E-01-6.80431197E-01-8.11349541E-07 5.06654213E-01
 6  2 1.50059700E-03 1.34584521E-01 8.41064104E-07-1.33938572E-01-4.13244704E-02
 6  3-5.10837610E-02-6.03954675E-02 0.00000000E+00-2.72819938E-02 4.97997247E-08
 6  4-5.48834739E-01-3.03824756E-01-2.99984886E-02 4.33539480E-08 9.53760504E-03
 6  5 2.09196577E-02 5.19935286E-02 8.10292705E-04 4.33539480E-08-1.61316880E-02
 7  1-8.98487654E-02 5.48489806E-01 6.80431230E-01-1.15665668E-06 5.06654171E-01
 7  2 1.50057753E-03-1.34584528E-01 1.19901765E-06-1.33938547E-01-4.13244745E-02
 7  3-5.10837630E-02-6.03954677E-02 0.00000000E+00 2.72819951E-02 7.09942897E-08
 7  4 2.09196840E-02 5.19935445E-02-8.10290547E-04 6.18052161E-08-1.61316881E-02
 7  5-5.48834740E-01-3.03824757E-01 2.99984878E-02 6.18052161E-08 9.53760618E-03
 8  1 8.88211734E-02-7.54916221E-01-1.59543639E-07-6.81045433E-01 4.74225754E-01
 8  2 5.09429925E-01 3.15566135E-08 7.05987787E-01-5.03077761E-01 1.58006473E-01
 8  3 1.17657416E-01 7.96726659E-02 0.00000000E+00-6.39692682E-09 4.18018047E-02
 8  4 6.07644224E-03-3.27721422E-02-1.86555578E-02 3.63912307E-02-9.48100105E-03
 8  5 6.07657583E-03-3.27720588E-02 1.86555510E-02 3.63912307E-02-9.48100707E-03
 9  1-8.88211284E-02 7.54916460E-01-1.85452573E-07-6.81043788E-01-4.74228364E-01
 9  2-5.09431160E-01 3.66812190E-08 7.05986081E-01 5.03079364E-01-1.58006735E-01
 9  3-1.17657553E-01-7.96726839E-02 0.00000000E+00-7.43574951E-09 4.18017037E-02
 9  4-6.07583861E-03 3.27724951E-02 1.86556400E-02 3.63911427E-02 9.48103999E-03
 9  5-6.07568332E-03 3.27725920E-02-1.86556480E-02 3.63911427E-02 9.48103300E-03
 $END

! TRAVIS-CI SMALL

! TRAVIS-CI SKIP
