!   This job reproduces the MCSCF localized orbital analysis of
!        D.F.Feller, M.W.Schmidt, K.Ruedenberg
!        J.Am.Chem.Soc. 104, 960-967(1982)
!   The coordinates come from Table I, laboriously hand optimized!
!   Basis B, which is C(10s5p)/[3s2p] and H(4s)/[2s], has 56 AOs.
!   Literature values are E(RHF)= -157.0813 and E(FORS)= -157.1524
!
!   In the old days we had to approximate the FORS calculation by
!   optimizing the orbitals using the 8 most important CSFs in
!   a MCSCF, followed by a CI with all 42 Ag CSFs.  Today it is
!   trivial to fully optimize this active space directly, so the
!   FINAL MCSCF E= -157.1528851147 is a bit lower than the paper.
!   The present program uses 104 determinants of Ag symmetry.
!
!   The results of the oriented localized orbital analysis are
!                         present  Table IV
!        C(populations)     1.011   1.0006
!        H(populations)     0.979   0.9987
!        CH(neighbor)       0.68    0.6798
!        CC(neighbor)       0.51    0.5122
!        CH(next)            --     0.0006
!        CC(next)            --    -0.0018
!        CH(third)         -0.38   -0.3778
!        CC(third)         -0.11   -0.1128
!   Note that no orienting is actually done in this example,
!   since there is but one localized active orbital on each atom.
!   Phase changes in a localized orbital can lead to phase changes in
!   printed bond orders, values above are after correct phase choices.
!
!   answers have not changed since at least May 2005
!   This run takes 1 seconds on a 2.66 GHz Cloverton (18 Mar 2010)
!
 $contrl scftyp=mcscf runtyp=energy local=ruednbrg units=bohr $end
 $system mwords=2 memddi=0 $end
!   We need to raise an occupied Ag orbital up into the active space.
!   In the MVOQ=4 RHF virtuals, we bring a B2u down to be active.
 $guess  guess=moread norb=56 norder=1
         iorder(11)=12,13,14,15,  11,16,17,18,19,26,  20,21,22,23,24,25 $end
 $mcscf  cistep=aldet soscf=.true. $end
 $det    ncore=14 nact=6 nels=6 $end
 $local  orient=.true. $end
 $data
concerted dihydrogen exchange between ethane and ethylene
Dnh 2

Carbon   6.0  2.555  1.341  0.0
  S 10  ! alpha=0.049887 beta=3.11117
   1     .1552069378 1.41007939E-03
   2     .4828751686 -4.07038651E-03
   3    1.5023067384 9.55265735E-02
   4    4.6739316554 4.81163776E-01
   5   14.5413959483 3.85761545E-01
   6   45.2407548326 1.41664966E-01
   7  140.7516792125 4.05331465E-02
   8  437.9024018156 1.05009183E-02
   9 1362.3888154568 2.17817335E-03
  10 4238.6232109846 9.35623679E-04
  S 10
   1     .1552069378 5.42649758E-01
   2     .4828751686 5.67864722E-01
   3    1.5023067384 -1.78861279E-02
   4    4.6739316554 -1.97655575E-01
   5   14.5413959483 -9.75032440E-02
   6   45.2407548326 -3.27760322E-02
   7  140.7516792125 -8.67648917E-03
   8  437.9024018156 -2.29805412E-03
   9 1362.3888154568 -4.54517785E-04
  10 4238.6232109846 -2.01729068E-04
  S 1
   1 .1552069378 1.0
  P 5  ! alpha=0.038056 beta=3.35026
   1     .1274974946 3.77118855E-01
   2     .4271497561 5.19723961E-01
   3    1.4310627420 2.59865694E-01
   4    4.7944322619 6.27968735E-02
   5   16.0625946296 1.45441185E-02
  P 1
   1     .1274974946 1.0

Hydrogen 1.0  0.0    1.878  0.0
  S 4  ! alpha=0.0330878 beta=4.07414
   1   .1348043295 5.80858884E-01
   2   .5492117110 4.34032867E-01
   3  2.2375654001 9.50274783E-02
   4  9.1161546991 2.46980753E-02
  S 1
   1   .1348043295 1.0

Hydrogen 1.0  3.095  2.315  1.729
  S 4
   1   .1348043295 5.80858884E-01
   2   .5492117110 4.34032867E-01
   3  2.2375654001 9.50274783E-02
   4  9.1161546991 2.46980753E-02
  S 1
   1   .1348043295 1.0

 $end

These were produced using MVOQ=4 to prepare the virtuals for the MCSCF
--- CLOSED SHELL ORBITALS --- GENERATED AT 15:24:41 CST 24-OCT-2001
E(RHF)=     -157.0813321236, E(NUC)=  127.3470907323,   10 ITERS
 $VEC
 1  1 5.00277086E-01 2.71002106E-03-1.73426323E-03 1.35790898E-04 4.30853651E-04
 1  2 0.00000000E+00-1.20776377E-04-2.81841026E-04 0.00000000E+00-5.00277086E-01
 1  3-2.71002106E-03 1.73426323E-03 1.35790898E-04-4.30853651E-04 0.00000000E+00
 1  4-1.20776377E-04 2.81841026E-04 0.00000000E+00 5.00277086E-01 2.71002106E-03
 1  5-1.73426323E-03 1.35790898E-04-4.30853651E-04 0.00000000E+00-1.20776377E-04
 1  6 2.81841026E-04 0.00000000E+00-5.00277086E-01-2.71002106E-03 1.73426323E-03
 1  7 1.35790898E-04 4.30853651E-04 0.00000000E+00-1.20776377E-04-2.81841026E-04
 1  8 0.00000000E+00 0.00000000E+00 0.00000000E+00 0.00000000E+00 0.00000000E+00
 1  9 5.12379035E-04-3.93957373E-04-5.12379035E-04 3.93957373E-04 5.12379035E-04
 1 10-3.93957373E-04-5.12379035E-04 3.93957373E-04 5.12379035E-04-3.93957373E-04
 1 11-5.12379035E-04 3.93957373E-04 5.12379035E-04-3.93957373E-04-5.12379035E-04
 1 12 3.93957373E-04
 2  1 5.00299094E-01 2.74830161E-03-2.01442613E-03 4.22626002E-05 4.39777745E-04
 2  2 0.00000000E+00-1.47294790E-04-2.00567032E-04 0.00000000E+00 5.00299094E-01
 2  3 2.74830161E-03-2.01442613E-03-4.22626002E-05 4.39777745E-04 0.00000000E+00
 2  4 1.47294790E-04-2.00567032E-04 0.00000000E+00 5.00299094E-01 2.74830161E-03
 2  5-2.01442613E-03 4.22626002E-05-4.39777745E-04 0.00000000E+00-1.47294790E-04
 2  6 2.00567032E-04 0.00000000E+00 5.00299094E-01 2.74830161E-03-2.01442613E-03
 2  7-4.22626002E-05-4.39777745E-04 0.00000000E+00 1.47294790E-04 2.00567032E-04
 2  8 0.00000000E+00 4.24463205E-04 7.81221841E-05 4.24463205E-04 7.81221841E-05
 2  9 5.46359525E-04-3.85620630E-04 5.46359525E-04-3.85620630E-04 5.46359525E-04
 2 10-3.85620630E-04 5.46359525E-04-3.85620630E-04 5.46359525E-04-3.85620630E-04
 2 11 5.46359525E-04-3.85620630E-04 5.46359525E-04-3.85620630E-04 5.46359525E-04
 2 12-3.85620630E-04
 3  1 5.00283391E-01 2.07426799E-03-1.85565217E-03 1.28414750E-04-2.20951652E-04
 3  2 0.00000000E+00-2.79231300E-04 6.28758274E-05 0.00000000E+00 5.00283391E-01
 3  3 2.07426799E-03-1.85565217E-03-1.28414750E-04-2.20951652E-04 0.00000000E+00
 3  4 2.79231300E-04 6.28758274E-05 0.00000000E+00-5.00283391E-01-2.07426799E-03
 3  5 1.85565217E-03-1.28414750E-04-2.20951652E-04 0.00000000E+00 2.79231300E-04
 3  6 6.28758274E-05 0.00000000E+00-5.00283391E-01-2.07426799E-03 1.85565217E-03
 3  7 1.28414750E-04-2.20951652E-04 0.00000000E+00-2.79231300E-04 6.28758274E-05
 3  8 0.00000000E+00 5.17003336E-04 2.12650497E-04-5.17003336E-04-2.12650497E-04
 3  9 6.34069566E-04-4.41239144E-04-6.34069566E-04 4.41239144E-04 6.34069566E-04
 3 10-4.41239144E-04 6.34069566E-04-4.41239144E-04-6.34069566E-04 4.41239144E-04
 3 11 6.34069566E-04-4.41239144E-04-6.34069566E-04 4.41239144E-04-6.34069566E-04
 3 12 4.41239144E-04
 4  1 5.00258782E-01 1.99250992E-03-1.51384159E-03 1.30615904E-04-2.18987292E-04
 4  2 0.00000000E+00-1.21914195E-04-3.20053426E-05 0.00000000E+00-5.00258782E-01
 4  3-1.99250992E-03 1.51384159E-03 1.30615904E-04 2.18987292E-04 0.00000000E+00
 4  4-1.21914195E-04 3.20053426E-05 0.00000000E+00-5.00258782E-01-1.99250992E-03
 4  5 1.51384159E-03-1.30615904E-04-2.18987292E-04 0.00000000E+00 1.21914195E-04
 4  6-3.20053426E-05 0.00000000E+00 5.00258782E-01 1.99250992E-03-1.51384159E-03
 4  7-1.30615904E-04 2.18987292E-04 0.00000000E+00 1.21914195E-04 3.20053426E-05
 4  8 0.00000000E+00 0.00000000E+00 0.00000000E+00 0.00000000E+00 0.00000000E+00
 4  9 6.02583819E-04-4.49760903E-04 6.02583819E-04-4.49760903E-04 6.02583819E-04
 4 10-4.49760903E-04-6.02583819E-04 4.49760903E-04-6.02583819E-04 4.49760903E-04
 4 11-6.02583819E-04 4.49760903E-04-6.02583819E-04 4.49760903E-04 6.02583819E-04
 4 12-4.49760903E-04
 5  1-1.13046403E-02 4.11920748E-01-7.93686538E-02 2.21208763E-02 8.59789541E-02
 5  2 0.00000000E+00-2.17253144E-03-3.46377462E-02 0.00000000E+00-1.13046403E-02
 5  3 4.11920748E-01-7.93686538E-02-2.21208763E-02 8.59789541E-02 0.00000000E+00
 5  4 2.17253144E-03-3.46377462E-02 0.00000000E+00-1.13046403E-02 4.11920748E-01
 5  5-7.93686538E-02 2.21208763E-02-8.59789541E-02 0.00000000E+00-2.17253144E-03
 5  6 3.46377462E-02 0.00000000E+00-1.13046403E-02 4.11920748E-01-7.93686538E-02
 5  7-2.21208763E-02-8.59789541E-02 0.00000000E+00 2.17253144E-03 3.46377462E-02
 5  8 0.00000000E+00 1.66765551E-01-9.07055255E-02 1.66765551E-01-9.07055255E-02
 5  9 1.18558409E-01-6.78797759E-02 1.18558409E-01-6.78797759E-02 1.18558409E-01
 5 10-6.78797759E-02 1.18558409E-01-6.78797759E-02 1.18558409E-01-6.78797759E-02
 5 11 1.18558409E-01-6.78797759E-02 1.18558409E-01-6.78797759E-02 1.18558409E-01
 5 12-6.78797759E-02
 6  1-1.19875053E-02 4.35050711E-01-7.15863634E-02-1.87863337E-02 9.92881418E-02
 6  2 0.00000000E+00 9.36909338E-03-4.16301710E-02 0.00000000E+00 1.19875053E-02
 6  3-4.35050711E-01 7.15863634E-02-1.87863337E-02-9.92881418E-02 0.00000000E+00
 6  4 9.36909338E-03 4.16301710E-02 0.00000000E+00-1.19875053E-02 4.35050711E-01
 6  5-7.15863634E-02-1.87863337E-02-9.92881418E-02 0.00000000E+00 9.36909338E-03
 6  6 4.16301710E-02 0.00000000E+00 1.19875053E-02-4.35050711E-01 7.15863634E-02
 6  7-1.87863337E-02 9.92881418E-02 0.00000000E+00 9.36909338E-03-4.16301710E-02
 6  8 0.00000000E+00 0.00000000E+00 0.00000000E+00 0.00000000E+00 0.00000000E+00
 6  9 1.36074120E-01-7.73749946E-02-1.36074120E-01 7.73749946E-02 1.36074120E-01
 6 10-7.73749946E-02-1.36074120E-01 7.73749946E-02 1.36074120E-01-7.73749946E-02
 6 11-1.36074120E-01 7.73749946E-02 1.36074120E-01-7.73749946E-02-1.36074120E-01
 6 12 7.73749946E-02
 7  1-6.27738461E-03 3.50631986E-01-2.30820776E-02 1.22223088E-02-1.43822417E-01
 7  2 0.00000000E+00-3.84675971E-03 4.71953446E-02 0.00000000E+00-6.27738461E-03
 7  3 3.50631986E-01-2.30820776E-02-1.22223088E-02-1.43822417E-01 0.00000000E+00
 7  4 3.84675971E-03 4.71953446E-02 0.00000000E+00 6.27738461E-03-3.50631986E-01
 7  5 2.30820776E-02-1.22223088E-02-1.43822417E-01 0.00000000E+00 3.84675971E-03
 7  6 4.71953446E-02 0.00000000E+00 6.27738461E-03-3.50631986E-01 2.30820776E-02
 7  7 1.22223088E-02-1.43822417E-01 0.00000000E+00-3.84675971E-03 4.71953446E-02
 7  8 0.00000000E+00 2.13649952E-01-6.45635093E-02-2.13649952E-01 6.45635093E-02
 7  9 1.96402019E-01-9.29006126E-02-1.96402019E-01 9.29006126E-02 1.96402019E-01
 7 10-9.29006126E-02 1.96402019E-01-9.29006126E-02-1.96402019E-01 9.29006126E-02
 7 11 1.96402019E-01-9.29006126E-02-1.96402019E-01 9.29006126E-02-1.96402019E-01
 7 12 9.29006126E-02
 8  1-8.32904379E-03 3.54971846E-01 8.12613200E-03-4.14574088E-02-1.55988813E-01
 8  2 0.00000000E+00 1.65508527E-02 4.22399413E-02 0.00000000E+00 8.32904379E-03
 8  3-3.54971846E-01-8.12613200E-03-4.14574088E-02 1.55988813E-01 0.00000000E+00
 8  4 1.65508527E-02-4.22399413E-02 0.00000000E+00 8.32904379E-03-3.54971846E-01
 8  5-8.12613200E-03 4.14574088E-02-1.55988813E-01 0.00000000E+00-1.65508527E-02
 8  6 4.22399413E-02 0.00000000E+00-8.32904379E-03 3.54971846E-01 8.12613200E-03
 8  7 4.14574088E-02 1.55988813E-01 0.00000000E+00-1.65508527E-02-4.22399413E-02
 8  8 0.00000000E+00 0.00000000E+00 0.00000000E+00 0.00000000E+00 0.00000000E+00
 8  9 2.28976407E-01-1.05537568E-01 2.28976407E-01-1.05537568E-01 2.28976407E-01
 8 10-1.05537568E-01-2.28976407E-01 1.05537568E-01-2.28976407E-01 1.05537568E-01
 8 11-2.28976407E-01 1.05537568E-01-2.28976407E-01 1.05537568E-01 2.28976407E-01
 8 12-1.05537568E-01
 9  1 0.00000000E+00 0.00000000E+00 0.00000000E+00 0.00000000E+00 0.00000000E+00
 9  2 3.30490174E-01 0.00000000E+00 0.00000000E+00-5.27779315E-02 0.00000000E+00
 9  3 0.00000000E+00 0.00000000E+00 0.00000000E+00 0.00000000E+00 3.30490174E-01
 9  4 0.00000000E+00 0.00000000E+00-5.27779315E-02 0.00000000E+00 0.00000000E+00
 9  5 0.00000000E+00 0.00000000E+00 0.00000000E+00 3.30490174E-01 0.00000000E+00
 9  6 0.00000000E+00-5.27779315E-02 0.00000000E+00 0.00000000E+00 0.00000000E+00
 9  7 0.00000000E+00 0.00000000E+00 3.30490174E-01 0.00000000E+00 0.00000000E+00
 9  8-5.27779315E-02 0.00000000E+00 0.00000000E+00 0.00000000E+00 0.00000000E+00
 9  9 2.45335692E-01-9.38325337E-02-2.45335692E-01 9.38325337E-02-2.45335692E-01
 9 10 9.38325337E-02-2.45335692E-01 9.38325337E-02-2.45335692E-01 9.38325337E-02
 9 11 2.45335692E-01-9.38325337E-02 2.45335692E-01-9.38325337E-02 2.45335692E-01
 9 12-9.38325337E-02
10  1 0.00000000E+00 0.00000000E+00 0.00000000E+00 0.00000000E+00 0.00000000E+00
10  2 3.36690898E-01 0.00000000E+00 0.00000000E+00-5.26482234E-02 0.00000000E+00
10  3 0.00000000E+00 0.00000000E+00 0.00000000E+00 0.00000000E+00-3.36690898E-01
10  4 0.00000000E+00 0.00000000E+00 5.26482234E-02 0.00000000E+00 0.00000000E+00
10  5 0.00000000E+00 0.00000000E+00 0.00000000E+00 3.36690898E-01 0.00000000E+00
10  6 0.00000000E+00-5.26482234E-02 0.00000000E+00 0.00000000E+00 0.00000000E+00
10  7 0.00000000E+00 0.00000000E+00-3.36690898E-01 0.00000000E+00 0.00000000E+00
10  8 5.26482234E-02 0.00000000E+00 0.00000000E+00 0.00000000E+00 0.00000000E+00
10  9 2.53229093E-01-9.59301229E-02 2.53229093E-01-9.59301229E-02-2.53229093E-01
10 10 9.59301229E-02 2.53229093E-01-9.59301229E-02-2.53229093E-01 9.59301229E-02
10 11-2.53229093E-01 9.59301229E-02 2.53229093E-01-9.59301229E-02-2.53229093E-01
10 12 9.59301229E-02
11  1-7.88629516E-04-7.65421341E-02 4.67432531E-03 3.07186198E-01 7.03933213E-02
11  2 0.00000000E+00-4.34416643E-02-9.50772366E-03 0.00000000E+00-7.88629516E-04
11  3-7.65421341E-02 4.67432531E-03-3.07186198E-01 7.03933213E-02 0.00000000E+00
11  4 4.34416643E-02-9.50772366E-03 0.00000000E+00-7.88629516E-04-7.65421341E-02
11  5 4.67432531E-03 3.07186198E-01-7.03933213E-02 0.00000000E+00-4.34416643E-02
11  6 9.50772366E-03 0.00000000E+00-7.88629516E-04-7.65421341E-02 4.67432531E-03
11  7-3.07186198E-01-7.03933213E-02 0.00000000E+00 4.34416643E-02 9.50772366E-03
11  8 0.00000000E+00 3.47873577E-01-8.59563563E-02 3.47873577E-01-8.59563563E-02
11  9-1.46145092E-01 4.48306748E-02-1.46145092E-01 4.48306748E-02-1.46145092E-01
11 10 4.48306748E-02-1.46145092E-01 4.48306748E-02-1.46145092E-01 4.48306748E-02
11 11-1.46145092E-01 4.48306748E-02-1.46145092E-01 4.48306748E-02-1.46145092E-01
11 12 4.48306748E-02
12  1 3.80103791E-04 6.91278821E-02-1.91478971E-02-6.44561905E-02 4.21774917E-01
12  2 0.00000000E+00 7.32901620E-03-7.76741997E-02 0.00000000E+00 3.80103791E-04
12  3 6.91278821E-02-1.91478971E-02 6.44561905E-02 4.21774917E-01 0.00000000E+00
12  4-7.32901620E-03-7.76741997E-02 0.00000000E+00 3.80103791E-04 6.91278821E-02
12  5-1.91478971E-02-6.44561905E-02-4.21774917E-01 0.00000000E+00 7.32901620E-03
12  6 7.76741997E-02 0.00000000E+00 3.80103791E-04 6.91278821E-02-1.91478971E-02
12  7 6.44561905E-02-4.21774917E-01 0.00000000E+00-7.32901620E-03 7.76741997E-02
12  8 0.00000000E+00-1.83922213E-01 2.79948316E-02-1.83922213E-01 2.79948316E-02
12  9-1.43603880E-01 4.28592311E-02-1.43603880E-01 4.28592311E-02-1.43603880E-01
12 10 4.28592311E-02-1.43603880E-01 4.28592311E-02-1.43603880E-01 4.28592311E-02
12 11-1.43603880E-01 4.28592311E-02-1.43603880E-01 4.28592311E-02-1.43603880E-01
12 12 4.28592311E-02
13  1 2.29854410E-03 5.38544579E-02-2.66923461E-02 9.54884603E-02 4.18667228E-01
13  2 0.00000000E+00-1.68916847E-02-8.19459319E-02 0.00000000E+00-2.29854410E-03
13  3-5.38544579E-02 2.66923461E-02 9.54884603E-02-4.18667228E-01 0.00000000E+00
13  4-1.68916847E-02 8.19459319E-02 0.00000000E+00 2.29854410E-03 5.38544579E-02
13  5-2.66923461E-02 9.54884603E-02-4.18667228E-01 0.00000000E+00-1.68916847E-02
13  6 8.19459319E-02 0.00000000E+00-2.29854410E-03-5.38544579E-02 2.66923461E-02
13  7 9.54884603E-02 4.18667228E-01 0.00000000E+00-1.68916847E-02-8.19459319E-02
13  8 0.00000000E+00 0.00000000E+00 0.00000000E+00 0.00000000E+00 0.00000000E+00
13  9-1.95688728E-01 5.72184026E-02 1.95688728E-01-5.72184026E-02-1.95688728E-01
13 10 5.72184026E-02 1.95688728E-01-5.72184026E-02-1.95688728E-01 5.72184026E-02
13 11 1.95688728E-01-5.72184026E-02-1.95688728E-01 5.72184026E-02 1.95688728E-01
13 12-5.72184026E-02
14  1 0.00000000E+00 0.00000000E+00 0.00000000E+00 0.00000000E+00 0.00000000E+00
14  2 3.24143633E-01 0.00000000E+00 0.00000000E+00 7.26887569E-03 0.00000000E+00
14  3 0.00000000E+00 0.00000000E+00 0.00000000E+00 0.00000000E+00 3.24143633E-01
14  4 0.00000000E+00 0.00000000E+00 7.26887569E-03 0.00000000E+00 0.00000000E+00
14  5 0.00000000E+00 0.00000000E+00 0.00000000E+00-3.24143633E-01 0.00000000E+00
14  6 0.00000000E+00-7.26887569E-03 0.00000000E+00 0.00000000E+00 0.00000000E+00
14  7 0.00000000E+00 0.00000000E+00-3.24143633E-01 0.00000000E+00 0.00000000E+00
14  8-7.26887569E-03 0.00000000E+00 0.00000000E+00 0.00000000E+00 0.00000000E+00
14  9 3.05735259E-01-1.08574673E-01 3.05735259E-01-1.08574673E-01-3.05735259E-01
14 10 1.08574673E-01-3.05735259E-01 1.08574673E-01 3.05735259E-01-1.08574673E-01
14 11 3.05735259E-01-1.08574673E-01-3.05735259E-01 1.08574673E-01-3.05735259E-01
14 12 1.08574673E-01
15  1 0.00000000E+00 0.00000000E+00 0.00000000E+00 0.00000000E+00 0.00000000E+00
15  2 3.29648767E-01 0.00000000E+00 0.00000000E+00 1.73527833E-03 0.00000000E+00
15  3 0.00000000E+00 0.00000000E+00 0.00000000E+00 0.00000000E+00-3.29648767E-01
15  4 0.00000000E+00 0.00000000E+00-1.73527833E-03 0.00000000E+00 0.00000000E+00
15  5 0.00000000E+00 0.00000000E+00 0.00000000E+00-3.29648767E-01 0.00000000E+00
15  6 0.00000000E+00-1.73527833E-03 0.00000000E+00 0.00000000E+00 0.00000000E+00
15  7 0.00000000E+00 0.00000000E+00 3.29648767E-01 0.00000000E+00 0.00000000E+00
15  8 1.73527833E-03 0.00000000E+00 0.00000000E+00 0.00000000E+00 0.00000000E+00
15  9 3.13341064E-01-1.05694142E-01-3.13341064E-01 1.05694142E-01-3.13341064E-01
15 10 1.05694142E-01 3.13341064E-01-1.05694142E-01 3.13341064E-01-1.05694142E-01
15 11-3.13341064E-01 1.05694142E-01-3.13341064E-01 1.05694142E-01 3.13341064E-01
15 12-1.05694142E-01
16  1-2.42444897E-03-4.86545954E-02 4.18711751E-02 2.92402399E-01 4.91148824E-02
16  2 0.00000000E+00-8.17805067E-03 2.89726908E-02 0.00000000E+00-2.42444897E-03
16  3-4.86545954E-02 4.18711751E-02-2.92402399E-01 4.91148824E-02 0.00000000E+00
16  4 8.17805067E-03 2.89726908E-02 0.00000000E+00 2.42444897E-03 4.86545954E-02
16  5-4.18711751E-02-2.92402399E-01 4.91148824E-02 0.00000000E+00 8.17805067E-03
16  6 2.89726908E-02 0.00000000E+00 2.42444897E-03 4.86545954E-02-4.18711751E-02
16  7 2.92402399E-01 4.91148824E-02 0.00000000E+00-8.17805067E-03 2.89726908E-02
16  8 0.00000000E+00 5.16273686E-01-1.02138463E-02-5.16273686E-01 1.02138463E-02
16  9-1.64227117E-01 4.04940889E-02 1.64227117E-01-4.04940889E-02-1.64227117E-01
16 10 4.04940889E-02-1.64227117E-01 4.04940889E-02 1.64227117E-01-4.04940889E-02
16 11-1.64227117E-01 4.04940889E-02 1.64227117E-01-4.04940889E-02 1.64227117E-01
16 12-4.04940889E-02
17  1-7.77490245E-03 5.92632894E-02 1.08466574E-01 4.34557525E-01-1.25083838E-01
17  2 0.00000000E+00 6.10527138E-02-1.50885285E-02 0.00000000E+00 7.77490245E-03
17  3-5.92632894E-02-1.08466574E-01 4.34557525E-01 1.25083838E-01 0.00000000E+00
17  4 6.10527138E-02 1.50885285E-02 0.00000000E+00-7.77490245E-03 5.92632894E-02
17  5 1.08466574E-01 4.34557525E-01 1.25083838E-01 0.00000000E+00 6.10527138E-02
17  6 1.50885285E-02 0.00000000E+00 7.77490245E-03-5.92632894E-02-1.08466574E-01
17  7 4.34557525E-01-1.25083838E-01 0.00000000E+00 6.10527138E-02-1.50885285E-02
17  8 0.00000000E+00 0.00000000E+00 0.00000000E+00 0.00000000E+00 0.00000000E+00
17  9-5.88626798E-03-3.30540114E-03 5.88626798E-03 3.30540114E-03-5.88626798E-03
17 10-3.30540114E-03 5.88626798E-03 3.30540114E-03-5.88626798E-03-3.30540114E-03
17 11 5.88626798E-03 3.30540114E-03-5.88626798E-03-3.30540114E-03 5.88626798E-03
17 12 3.30540114E-03
18  1-1.96543905E-03 1.83517108E-01 2.97129042E-01 5.84470327E-01 1.56682316E-02
18  2 0.00000000E+00 4.10061150E-02 8.15185948E-02 0.00000000E+00 1.96543905E-03
18  3-1.83517108E-01-2.97129042E-01 5.84470327E-01-1.56682316E-02 0.00000000E+00
18  4 4.10061150E-02-8.15185948E-02 0.00000000E+00 1.96543905E-03-1.83517108E-01
18  5-2.97129042E-01-5.84470327E-01 1.56682316E-02 0.00000000E+00-4.10061150E-02
18  6 8.15185948E-02 0.00000000E+00-1.96543905E-03 1.83517108E-01 2.97129042E-01
18  7-5.84470327E-01-1.56682316E-02 0.00000000E+00-4.10061150E-02-8.15185948E-02
18  8 0.00000000E+00 0.00000000E+00 0.00000000E+00 0.00000000E+00 0.00000000E+00
18  9-1.23071495E-01 3.93934149E-02-1.23071495E-01 3.93934149E-02-1.23071495E-01
18 10 3.93934149E-02 1.23071495E-01-3.93934149E-02 1.23071495E-01-3.93934149E-02
18 11 1.23071495E-01-3.93934149E-02 1.23071495E-01-3.93934149E-02-1.23071495E-01
18 12 3.93934149E-02
19  1-1.32997868E-02-2.12768397E-01-2.05140314E-01-4.17687403E-01 4.15523859E-02
19  2 0.00000000E+00-2.39485662E-01 4.88097323E-02 0.00000000E+00-1.32997868E-02
19  3-2.12768397E-01-2.05140314E-01 4.17687403E-01 4.15523859E-02 0.00000000E+00
19  4 2.39485662E-01 4.88097323E-02 0.00000000E+00-1.32997868E-02-2.12768397E-01
19  5-2.05140314E-01-4.17687403E-01-4.15523859E-02 0.00000000E+00-2.39485662E-01
19  6-4.88097323E-02 0.00000000E+00-1.32997868E-02-2.12768397E-01-2.05140314E-01
19  7 4.17687403E-01-4.15523859E-02 0.00000000E+00 2.39485662E-01-4.88097323E-02
19  8 0.00000000E+00 8.72233170E-01 7.25120802E-01 8.72233170E-01 7.25120802E-01
19  9-1.11657460E-01-6.36409705E-02-1.11657460E-01-6.36409705E-02-1.11657460E-01
19 10-6.36409705E-02-1.11657460E-01-6.36409705E-02-1.11657460E-01-6.36409705E-02
19 11-1.11657460E-01-6.36409705E-02-1.11657460E-01-6.36409705E-02-1.11657460E-01
19 12-6.36409705E-02
20  1 5.49108527E-02 4.80771550E-01 5.04263837E-01 7.83421901E-02-4.95378904E-02
20  2 0.00000000E+00-2.09394163E-01-4.58470899E-01 0.00000000E+00 5.49108527E-02
20  3 4.80771550E-01 5.04263837E-01-7.83421901E-02-4.95378904E-02 0.00000000E+00
20  4 2.09394163E-01-4.58470899E-01 0.00000000E+00 5.49108527E-02 4.80771550E-01
20  5 5.04263837E-01 7.83421901E-02 4.95378904E-02 0.00000000E+00-2.09394163E-01
20  6 4.58470899E-01 0.00000000E+00 5.49108527E-02 4.80771550E-01 5.04263837E-01
20  7-7.83421901E-02 4.95378904E-02 0.00000000E+00 2.09394163E-01 4.58470899E-01
20  8 0.00000000E+00 2.12063365E-01-2.27067553E-01 2.12063365E-01-2.27067553E-01
20  9-1.18217482E-01-4.57330510E-01-1.18217482E-01-4.57330510E-01-1.18217482E-01
20 10-4.57330510E-01-1.18217482E-01-4.57330510E-01-1.18217482E-01-4.57330510E-01
20 11-1.18217482E-01-4.57330510E-01-1.18217482E-01-4.57330510E-01-1.18217482E-01
20 12-4.57330510E-01
21  1 2.03310138E-02 4.77597147E-01 1.13332229E+00 1.39393406E-01 2.86796862E-01
21  2 0.00000000E+00-6.13981049E-02 7.05477395E-01 0.00000000E+00 2.03310138E-02
21  3 4.77597147E-01 1.13332229E+00-1.39393406E-01 2.86796862E-01 0.00000000E+00
21  4 6.13981049E-02 7.05477395E-01 0.00000000E+00-2.03310138E-02-4.77597147E-01
21  5-1.13332229E+00-1.39393406E-01 2.86796862E-01 0.00000000E+00 6.13981049E-02
21  6 7.05477395E-01 0.00000000E+00-2.03310138E-02-4.77597147E-01-1.13332229E+00
21  7 1.39393406E-01 2.86796862E-01 0.00000000E+00-6.13981049E-02 7.05477395E-01
21  8 0.00000000E+00 2.06983115E-02-4.15737611E-01-2.06983115E-02 4.15737611E-01
21  9-4.71686053E-02 6.09888987E-03 4.71686053E-02-6.09888987E-03-4.71686053E-02
21 10 6.09888987E-03-4.71686053E-02 6.09888987E-03 4.71686053E-02-6.09888987E-03
21 11-4.71686053E-02 6.09888987E-03 4.71686053E-02-6.09888987E-03 4.71686053E-02
21 12-6.09888987E-03
22  1 0.00000000E+00 0.00000000E+00 0.00000000E+00 0.00000000E+00 0.00000000E+00
22  2 2.32835981E-01 0.00000000E+00 0.00000000E+00 5.82532282E-01 0.00000000E+00
22  3 0.00000000E+00 0.00000000E+00 0.00000000E+00 0.00000000E+00 2.32835981E-01
22  4 0.00000000E+00 0.00000000E+00 5.82532282E-01 0.00000000E+00 0.00000000E+00
22  5 0.00000000E+00 0.00000000E+00 0.00000000E+00 2.32835981E-01 0.00000000E+00
22  6 0.00000000E+00 5.82532282E-01 0.00000000E+00 0.00000000E+00 0.00000000E+00
22  7 0.00000000E+00 0.00000000E+00 2.32835981E-01 0.00000000E+00 0.00000000E+00
22  8 5.82532282E-01 0.00000000E+00 0.00000000E+00 0.00000000E+00 0.00000000E+00
22  9-3.36647924E-01-5.79819763E-01 3.36647924E-01 5.79819763E-01 3.36647924E-01
22 10 5.79819763E-01 3.36647924E-01 5.79819763E-01 3.36647924E-01 5.79819763E-01
22 11-3.36647924E-01-5.79819763E-01-3.36647924E-01-5.79819763E-01-3.36647924E-01
22 12-5.79819763E-01
23  1 0.00000000E+00 0.00000000E+00 0.00000000E+00 0.00000000E+00 0.00000000E+00
23  2-4.44329218E-01 0.00000000E+00 0.00000000E+00-3.15827703E-01 0.00000000E+00
23  3 0.00000000E+00 0.00000000E+00 0.00000000E+00 0.00000000E+00 4.44329218E-01
23  4 0.00000000E+00 0.00000000E+00 3.15827703E-01 0.00000000E+00 0.00000000E+00
23  5 0.00000000E+00 0.00000000E+00 0.00000000E+00-4.44329218E-01 0.00000000E+00
23  6 0.00000000E+00-3.15827703E-01 0.00000000E+00 0.00000000E+00 0.00000000E+00
23  7 0.00000000E+00 0.00000000E+00 4.44329218E-01 0.00000000E+00 0.00000000E+00
23  8 3.15827703E-01 0.00000000E+00 0.00000000E+00 0.00000000E+00 0.00000000E+00
23  9 2.81143000E-01 5.41715552E-01 2.81143000E-01 5.41715552E-01-2.81143000E-01
23 10-5.41715552E-01 2.81143000E-01 5.41715552E-01-2.81143000E-01-5.41715552E-01
23 11-2.81143000E-01-5.41715552E-01 2.81143000E-01 5.41715552E-01-2.81143000E-01
23 12-5.41715552E-01
24  1 3.93843641E-02 4.11680149E-01 6.00136164E-01-1.16879370E-01-1.74778358E-01
24  2 0.00000000E+00-1.60785280E-01-3.69411345E-01 0.00000000E+00-3.93843641E-02
24  3-4.11680149E-01-6.00136164E-01-1.16879370E-01 1.74778358E-01 0.00000000E+00
24  4-1.60785280E-01 3.69411345E-01 0.00000000E+00 3.93843641E-02 4.11680149E-01
24  5 6.00136164E-01-1.16879370E-01 1.74778358E-01 0.00000000E+00-1.60785280E-01
24  6 3.69411345E-01 0.00000000E+00-3.93843641E-02-4.11680149E-01-6.00136164E-01
24  7-1.16879370E-01-1.74778358E-01 0.00000000E+00-1.60785280E-01-3.69411345E-01
24  8 0.00000000E+00 0.00000000E+00 0.00000000E+00 0.00000000E+00 0.00000000E+00
24  9-1.63762427E-01-5.34913792E-01 1.63762427E-01 5.34913792E-01-1.63762427E-01
24 10-5.34913792E-01 1.63762427E-01 5.34913792E-01-1.63762427E-01-5.34913792E-01
24 11 1.63762427E-01 5.34913792E-01-1.63762427E-01-5.34913792E-01 1.63762427E-01
24 12 5.34913792E-01
25  1 3.06886858E-02 5.14036470E-01 1.08194719E+00-9.81823350E-02 4.69479301E-01
25  2 0.00000000E+00-1.57113427E-01 7.94674769E-01 0.00000000E+00-3.06886858E-02
25  3-5.14036470E-01-1.08194719E+00-9.81823350E-02-4.69479301E-01 0.00000000E+00
25  4-1.57113427E-01-7.94674769E-01 0.00000000E+00-3.06886858E-02-5.14036470E-01
25  5-1.08194719E+00 9.81823350E-02 4.69479301E-01 0.00000000E+00 1.57113427E-01
25  6 7.94674769E-01 0.00000000E+00 3.06886858E-02 5.14036470E-01 1.08194719E+00
25  7 9.81823350E-02-4.69479301E-01 0.00000000E+00 1.57113427E-01-7.94674769E-01
25  8 0.00000000E+00 0.00000000E+00 0.00000000E+00 0.00000000E+00 0.00000000E+00
25  9-6.16276853E-02 1.08801625E-02-6.16276853E-02 1.08801625E-02-6.16276853E-02
25 10 1.08801625E-02 6.16276853E-02-1.08801625E-02 6.16276853E-02-1.08801625E-02
25 11 6.16276853E-02-1.08801625E-02 6.16276853E-02-1.08801625E-02-6.16276853E-02
25 12 1.08801625E-02
26  1-1.65471543E-02-1.54912404E-01 1.41387785E-03-4.98187607E-01 3.66364067E-01
26  2 0.00000000E+00-4.89355961E-01 5.03616978E-01 0.00000000E+00-1.65471543E-02
26  3-1.54912404E-01 1.41387785E-03 4.98187607E-01 3.66364067E-01 0.00000000E+00
26  4 4.89355961E-01 5.03616978E-01 0.00000000E+00 1.65471543E-02 1.54912404E-01
26  5-1.41387785E-03 4.98187607E-01 3.66364067E-01 0.00000000E+00 4.89355961E-01
26  6 5.03616978E-01 0.00000000E+00 1.65471543E-02 1.54912404E-01-1.41387785E-03
26  7-4.98187607E-01 3.66364067E-01 0.00000000E+00-4.89355961E-01 5.03616978E-01
26  8 0.00000000E+00 7.49634597E-01 1.34226693E+00-7.49634597E-01-1.34226693E+00
26  9-2.40232468E-02 1.48486886E-01 2.40232468E-02-1.48486886E-01-2.40232468E-02
26 10 1.48486886E-01-2.40232468E-02 1.48486886E-01 2.40232468E-02-1.48486886E-01
26 11-2.40232468E-02 1.48486886E-01 2.40232468E-02-1.48486886E-01 2.40232468E-02
26 12-1.48486886E-01
27  1 0.00000000E+00 0.00000000E+00 0.00000000E+00 0.00000000E+00 0.00000000E+00
27  2-5.70070284E-01 0.00000000E+00 0.00000000E+00 7.61366664E-01 0.00000000E+00
27  3 0.00000000E+00 0.00000000E+00 0.00000000E+00 0.00000000E+00-5.70070284E-01
27  4 0.00000000E+00 0.00000000E+00 7.61366664E-01 0.00000000E+00 0.00000000E+00
27  5 0.00000000E+00 0.00000000E+00 0.00000000E+00-5.70070284E-01 0.00000000E+00
27  6 0.00000000E+00 7.61366664E-01 0.00000000E+00 0.00000000E+00 0.00000000E+00
27  7 0.00000000E+00 0.00000000E+00-5.70070284E-01 0.00000000E+00 0.00000000E+00
27  8 7.61366664E-01 0.00000000E+00 0.00000000E+00 0.00000000E+00 0.00000000E+00
27  9-1.73226758E-01-2.75215730E-02 1.73226758E-01 2.75215730E-02 1.73226758E-01
27 10 2.75215730E-02 1.73226758E-01 2.75215730E-02 1.73226758E-01 2.75215730E-02
27 11-1.73226758E-01-2.75215730E-02-1.73226758E-01-2.75215730E-02-1.73226758E-01
27 12-2.75215730E-02
28  1-1.35774816E-02-1.26778104E-01 6.97970618E-02 2.59022802E-01 3.73084162E-01
28  2 0.00000000E+00 4.03519748E-01 7.14163789E-01 0.00000000E+00-1.35774816E-02
28  3-1.26778104E-01 6.97970618E-02-2.59022802E-01 3.73084162E-01 0.00000000E+00
28  4-4.03519748E-01 7.14163789E-01 0.00000000E+00 1.35774816E-02 1.26778104E-01
28  5-6.97970618E-02-2.59022802E-01 3.73084162E-01 0.00000000E+00-4.03519748E-01
28  6 7.14163789E-01 0.00000000E+00 1.35774816E-02 1.26778104E-01-6.97970618E-02
28  7 2.59022802E-01 3.73084162E-01 0.00000000E+00 4.03519748E-01 7.14163789E-01
28  8 0.00000000E+00-3.79981847E-01-9.67739053E-02 3.79981847E-01 9.67739053E-02
28  9 1.64854458E-01 7.10551539E-01-1.64854458E-01-7.10551539E-01 1.64854458E-01
28 10 7.10551539E-01 1.64854458E-01 7.10551539E-01-1.64854458E-01-7.10551539E-01
28 11 1.64854458E-01 7.10551539E-01-1.64854458E-01-7.10551539E-01-1.64854458E-01
28 12-7.10551539E-01
29  1-5.02198145E-02-1.18459558E-01 2.44142872E-01-8.11292461E-02-5.00960257E-01
29  2 0.00000000E+00 1.62117620E-01 7.20718273E-01 0.00000000E+00-5.02198145E-02
29  3-1.18459558E-01 2.44142872E-01 8.11292461E-02-5.00960257E-01 0.00000000E+00
29  4-1.62117620E-01 7.20718273E-01 0.00000000E+00-5.02198145E-02-1.18459558E-01
29  5 2.44142872E-01-8.11292461E-02 5.00960257E-01 0.00000000E+00 1.62117620E-01
29  6-7.20718273E-01 0.00000000E+00-5.02198145E-02-1.18459558E-01 2.44142872E-01
29  7 8.11292461E-02 5.00960257E-01 0.00000000E+00-1.62117620E-01-7.20718273E-01