!  A study of the pi bond in CH3As=NCH3, using a 4 electron,
!  4 orbital sigma,pi,pi*,sigma* MCSCF calculation.
!  Electronic state is 1A', there are 103 AOs, 20 determinants
!
!  FINAL E= -2365.7290295861 after 14 iters, RMS grad= 0.009201439
!
!  This run takes 16 seconds on 2.66 GHz Cloverton (27 Apr 2015)
!  the results haven't changed since 2005.
!  This job requires about 85 MBytes of disk, in various files
!
 $contrl scftyp=mcscf runtyp=gradient coord=zmt nzvar=24 $end
 $system mwords=3 memddi=0 $end
 $basis  gbasis=dzv ndfunc=1 diffsp=.true. $end
 $guess  guess=moread norb=103 norder=1 iorder(26)=27,29, 26,28,30,31 $end
 $mcscf  cistep=aldet soscf=.true. $end
--- $drt    group=Cs fors=.true. nmcc=27 ndoc=2 nval=2 $end
 $det    ncore=27 nact=4 nels=4 $end
 $data
CH3As=NCH3...MCSCF(4e,4o)/DZV+(d)//RHF/DZV(d)
Cs

As
N  1 rAsN
C  1 rAsC  2 aCAsN
C  2 rNC   1 aCNAs  3 180.0
H  3 rCHa  1 aHCAsa 2   0.0
H  3 rCHb  1 aHCAsb 2 wHCAsNb
H  3 rCHb  1 aHCAsb 2 -wHCAsNb
H  4 rCHc  2 aHCNc  1   0.0
H  4 rCHd  2 aHCNd  1  wHCNAsd
H  4 rCHd  2 aHCNd  1 -wHCNAsd

rAsN=1.6758378
rAsC=1.9488812
aCAsN=100.4830870
rNC=1.4460571
aCNAs=120.6229976
rCHa=1.0810817
aHCAsa=109.7472245
rCHb=1.0850085
aHCAsb=109.6815486
wHCAsNb=120.8754924
rCHc=1.0900439
aHCNc=115.1714892
rCHd=1.0860362
aHCNd=108.9381810
wHCNAsd=121.8379896
 $end

MO 26=AsN sigma, 27=N lp, 28=AsN pi, 29=As lp, 30=AsN pi*, 31=AsN sigma*
--- RHF ORBITALS --- GENERATED AT 10:02:40 CST  3-MAR-1994
E(RHF)=    -2365.6609852770, E(NUC)=  263.4870802719,   13 ITERS
VALENCE= SYMLOC'd BOYS LOCALIZED ORBITALS
VIRTUAL= MVOQ=6 orbitals
 $VEC
 1  1 9.98726081E-01 3.36729067E-02-6.21795633E-02-9.49634270E-02-5.38451121E-02
 1  2-6.11430262E-02-3.78539674E-06 2.48212307E-05 0.00000000E+00 1.16773582E-05
 1  3-7.24186858E-05 0.00000000E+00 3.52180479E-05 5.03254775E-04 0.00000000E+00
 1  4-2.61464966E-03-5.54558148E-03 0.00000000E+00 8.16678356E-02 8.16921840E-02
 1  5 8.16248046E-02 1.72142898E-05 0.00000000E+00 0.00000000E+00-2.59162458E-03
 1  6 1.71682133E-03-1.84534824E-03 0.00000000E+00 2.51260230E-02 2.50568952E-02
 1  7 2.60054701E-02-5.22017932E-04 0.00000000E+00 0.00000000E+00-5.23888801E-05
 1  8-4.67607680E-04 9.48612464E-04-1.15105158E-04-1.90024538E-04 0.00000000E+00
 1  9-1.49313399E-03-1.97491848E-04 0.00000000E+00 1.43553770E-02-3.44179950E-03
 1 10-6.05229525E-03 0.00000000E+00 4.16784596E-04 2.25029371E-04-1.70276870E-04
 1 11 6.23206428E-04 0.00000000E+00 0.00000000E+00-6.55743742E-05-4.90924513E-04
 1 12 2.46403597E-03-2.86580670E-04 3.31702266E-04 0.00000000E+00 1.47700125E-03
 1 13-4.31134462E-04 0.00000000E+00 7.76036964E-03 1.64049561E-03-1.61130433E-03
 1 14 0.00000000E+00 9.26706523E-05-8.78277127E-05-1.66366135E-04-1.64777876E-04
 1 15 0.00000000E+00 0.00000000E+00 3.17744957E-05 2.01515080E-04 6.44010789E-05
 1 16-2.29236689E-04-2.77171246E-05 0.00000000E+00 7.29541895E-04 1.32346729E-03
 1 17 0.00000000E+00-2.72497836E-03 1.01923159E-03 1.54625946E-03 0.00000000E+00
 1 18 9.70880401E-06-2.34753616E-05 1.57866714E-04 3.30880696E-05 0.00000000E+00
 1 19 0.00000000E+00 2.65576595E-04-1.08458167E-03 2.13857754E-04-3.56738450E-04
 1 20 2.13857754E-04-3.56738450E-04 1.87584810E-05 7.05867413E-04 2.53736627E-05
 1 21-1.00032926E-03 2.53736627E-05-1.00032926E-03
 2  1-4.20042306E-01 1.18342471E+00-3.29874047E-01-5.05918946E-01-3.06735878E-01
 2  2-3.82547652E-01-4.98535541E-04 8.46329196E-04 0.00000000E+00 3.27122884E-05
 2  3-3.70264948E-04 0.00000000E+00 2.46095249E-04 3.25746773E-03 0.00000000E+00
 2  4-1.67329514E-02-3.53516637E-02 0.00000000E+00 4.59732333E-01 4.59876226E-01
 2  5 4.59489333E-01 1.08190777E-04 0.00000000E+00 0.00000000E+00-1.65707223E-02
 2  6 1.08806030E-02-1.16605734E-02 0.00000000E+00 1.52427754E-01 1.51934663E-01
 2  7 1.57883000E-01-3.31578214E-03 0.00000000E+00 0.00000000E+00-2.98292775E-04
 2  8-3.05302013E-03 5.99173772E-03-5.29331391E-04-1.01209463E-03 0.00000000E+00
 2  9-9.68291939E-03-1.34390441E-03 0.00000000E+00 9.15033876E-02-2.20187069E-02
 2 10-3.85788457E-02 0.00000000E+00 2.62411595E-03 1.43106924E-03-1.00853232E-03
 2 11 3.91232304E-03 0.00000000E+00 0.00000000E+00-4.06115188E-04-2.91721375E-03
 2 12 1.58709600E-02-1.90538920E-03 2.17797888E-03 0.00000000E+00 9.42763536E-03
 2 13-2.74716245E-03 0.00000000E+00 4.89766012E-02 1.02908203E-02-1.01533889E-02
 2 14 0.00000000E+00 3.62360054E-04-6.92511094E-04-1.01977528E-03-8.08641173E-04
 2 15 0.00000000E+00 0.00000000E+00 2.03901013E-04 1.18490166E-03 5.07136733E-04
 2 16-1.49893893E-03-1.95724252E-04 0.00000000E+00 4.60077093E-03 8.49646200E-03
 2 17 0.00000000E+00-1.73664896E-02 6.57017706E-03 9.86457906E-03 0.00000000E+00
 2 18 1.77051478E-04-1.21427512E-04 9.91343316E-04 2.50394142E-04 0.00000000E+00
 2 19 0.00000000E+00 1.63345006E-03-6.95110730E-03 1.29939901E-03-2.27896033E-03
 2 20 1.29939901E-03-2.27896033E-03 8.62485799E-05 4.52497682E-03 1.60581011E-04
 2 21-6.38261819E-03 1.60581011E-04-6.38261819E-03
 3  1 0.00000000E+00 0.00000000E+00 0.00000000E+00 0.00000000E+00 0.00000000E+00
 3  2 0.00000000E+00 0.00000000E+00 0.00000000E+00 9.76800987E-01 0.00000000E+00
 3  3 0.00000000E+00 6.37680414E-02 0.00000000E+00 0.00000000E+00-1.93512434E-02
 3  4 0.00000000E+00 0.00000000E+00 1.14960949E-02 0.00000000E+00 0.00000000E+00
 3  5 0.00000000E+00 0.00000000E+00-1.67705335E-05 4.24387853E-05 0.00000000E+00
 3  6 0.00000000E+00 0.00000000E+00-3.28583688E-03 0.00000000E+00 0.00000000E+00
 3  7 0.00000000E+00 0.00000000E+00-2.69593532E-04-1.01637636E-04 0.00000000E+00
 3  8 0.00000000E+00 0.00000000E+00 0.00000000E+00 0.00000000E+00-1.41298151E-04
 3  9 0.00000000E+00 0.00000000E+00 1.96782134E-03 0.00000000E+00 0.00000000E+00
 3 10 0.00000000E+00-3.85429435E-03 0.00000000E+00 0.00000000E+00 0.00000000E+00
 3 11 0.00000000E+00-7.26230758E-04-7.20423003E-04 0.00000000E+00 0.00000000E+00
 3 12 0.00000000E+00 0.00000000E+00 0.00000000E+00 1.60435936E-04 0.00000000E+00
 3 13 0.00000000E+00-8.15538020E-04 0.00000000E+00 0.00000000E+00 0.00000000E+00
 3 14 1.05556510E-03 0.00000000E+00 0.00000000E+00 0.00000000E+00 0.00000000E+00
 3 15 2.64751554E-04-1.97065267E-04 0.00000000E+00 0.00000000E+00 0.00000000E+00
 3 16 0.00000000E+00 0.00000000E+00 4.48927111E-05 0.00000000E+00 0.00000000E+00
 3 17-2.31645017E-03 0.00000000E+00 0.00000000E+00 0.00000000E+00 2.48562611E-03
 3 18 0.00000000E+00 0.00000000E+00 0.00000000E+00 0.00000000E+00 1.06709268E-04
 3 19-4.52018331E-07 0.00000000E+00 0.00000000E+00 6.35257758E-05-4.84554506E-04
 3 20-6.35257758E-05 4.84554506E-04 0.00000000E+00 0.00000000E+00-6.33589544E-05
 3 21 1.42498368E-03 6.33589544E-05-1.42498368E-03
 4  1-1.63173596E-04 3.16369470E-04 2.34080424E-04-1.30672151E-04-5.59768396E-03
 4  2 6.54583118E-03 9.61581656E-01 1.69385713E-01 0.00000000E+00 6.41998743E-02
 4  3 1.16842244E-02 0.00000000E+00-2.65932765E-02-7.28511387E-03 0.00000000E+00
 4  4 7.82068658E-03-1.93635836E-03 0.00000000E+00-1.85582855E-04-1.42444776E-04
 4  5-2.22928305E-04 3.21708087E-04 0.00000000E+00 0.00000000E+00 3.41537298E-04
 4  6 2.07145537E-03 8.36489174E-04 0.00000000E+00-6.33137985E-03-4.54512114E-03
 4  7-1.45646420E-03-6.70126626E-03 0.00000000E+00 0.00000000E+00-3.28975259E-04
 4  8-3.45475579E-03 1.67751679E-02-1.81660486E-03-1.84539867E-03 0.00000000E+00
 4  9-1.18545859E-02-1.17220270E-02 0.00000000E+00 1.01008671E-03 1.37206840E-02
 4 10 6.91479461E-03 0.00000000E+00 1.81303142E-03 1.51682893E-03-2.00638333E-03
 4 11 3.34061605E-03 0.00000000E+00 0.00000000E+00 4.68119194E-05 1.90244211E-03
 4 12-2.70762590E-03-1.09118011E-03 1.04742457E-03 0.00000000E+00-8.56071505E-04
 4 13 5.02698895E-04 0.00000000E+00 9.91469802E-03 4.12150723E-03-3.72016254E-03
 4 14 0.00000000E+00-1.14155387E-03-1.06273474E-03 3.20911920E-04 1.76529182E-03
 4 15 0.00000000E+00 0.00000000E+00 6.66930505E-05 1.03862564E-03-3.71516964E-03
 4 16 1.22453199E-03 5.35610252E-04 0.00000000E+00 1.73147924E-03 3.42129567E-03
 4 17 0.00000000E+00-1.31804899E-02 3.10146120E-03-4.24896029E-03 0.00000000E+00
 4 18-9.82629270E-04 1.29922328E-04 1.08116886E-04-4.87660516E-04 0.00000000E+00
 4 19 0.00000000E+00-4.30425564E-05 1.03725413E-03 1.17718152E-04 1.25860148E-04
 4 20 1.17718152E-04 1.25860148E-04 2.24520198E-04 1.75623009E-03 2.31935950E-04
 4 21-4.48638110E-04 2.31935950E-04-4.48638110E-04
 5  1 2.36090554E-04-1.91619855E-03 3.46362293E-03 1.61457873E-03-4.40334865E-03
 5  2 2.23878636E-02-1.69616813E-01 9.61767375E-01 0.00000000E+00-1.08338860E-02
 5  3 6.35447157E-02 0.00000000E+00 1.56107703E-03-2.30192102E-02 0.00000000E+00
 5  4-3.42511438E-03 1.05066377E-02 0.00000000E+00-3.26021264E-03-3.19379106E-03
 5  5-3.42571215E-03-1.91605789E-05 0.00000000E+00 0.00000000E+00 5.70980537E-03
 5  6 8.97702353E-04-2.62166799E-04 0.00000000E+00-9.06246486E-03-8.34620289E-03
 5  7-5.08178549E-03-1.79573400E-03 0.00000000E+00 0.00000000E+00-2.19644254E-05
 5  8-1.26380751E-03 4.84288694E-03-8.90592557E-04-1.12740061E-03 0.00000000E+00
 5  9-9.43394234E-03-4.00328579E-03 0.00000000E+00-6.66095449E-03 1.30525578E-02
 5 10 2.98877726E-03 0.00000000E+00 2.38501154E-03 1.13607501E-04-6.07281255E-04
 5 11 1.73374620E-03 0.00000000E+00 0.00000000E+00-1.63395486E-04-2.58230309E-03
 5 12 6.40040584E-03 1.41523087E-03-1.08761854E-03 0.00000000E+00 1.82406270E-05
 5 13-3.53231913E-04 0.00000000E+00-6.17171164E-05-7.69466263E-05 1.73884727E-03
 5 14 0.00000000E+00 1.63185211E-03 5.42512770E-04-6.59832716E-04-1.84779104E-03
 5 15 0.00000000E+00 0.00000000E+00-3.91223887E-05 5.00371810E-05 3.61260139E-03
 5 16 1.73417000E-04 2.33355469E-04 0.00000000E+00-1.18749211E-03 1.92826045E-03
 5 17 0.00000000E+00-6.00047436E-03 3.45431811E-04-2.05288249E-03 0.00000000E+00
 5 18-4.70597341E-04-9.59875027E-05-8.37615432E-05 2.01160427E-04 0.00000000E+00
 5 19 0.00000000E+00-6.98922037E-05-1.88009573E-03 6.82283793E-05-2.77801628E-03
 5 20 6.82283793E-05-2.77801628E-03-2.19945741E-04 7.14159621E-04 5.48904987E-05
 5 21-1.66171607E-03 5.48904987E-05-1.66171607E-03
 6  1-3.01379235E-06 4.02924107E-05-4.34357234E-05-1.74832892E-04 1.24099142E-05
 6  2 2.88045003E-04 1.10261288E-05 7.26347649E-06 0.00000000E+00-3.49238671E-05
 6  3-2.30522917E-05 0.00000000E+00-3.53810025E-07-4.85806285E-05 0.00000000E+00
 6  4 9.77989426E-05 4.21899949E-06 0.00000000E+00 6.13443681E-05 6.29906024E-05
 6  5 5.49284706E-05-3.33122425E-06 0.00000000E+00 0.00000000E+00 9.15943676E-05
 6  6 3.49659619E-05 1.09001631E-04 0.00000000E+00-1.08447104E-04-1.57863370E-04
 6  7 5.34627077E-05-1.11069794E-04 0.00000000E+00 0.00000000E+00 9.99412704E-01
 6  8 1.48971788E-03 9.95287234E-04 3.16421589E-04-1.46284718E-03 0.00000000E+00
 6  9-5.47775710E-04 9.84014238E-04 0.00000000E+00-8.14877430E-04 6.49360197E-04
 6 10-4.76404506E-04 0.00000000E+00 4.61126806E-04 4.50619257E-04-1.16552034E-05
 6 11 5.50834232E-05 0.00000000E+00 0.00000000E+00 5.62691128E-06 1.19522487E-05
 6 12-1.95018988E-05 7.31694817E-06 2.44056754E-06 0.00000000E+00-1.19372655E-04
 6 13-7.26952498E-05 0.00000000E+00 4.15145943E-04 2.76628245E-04 1.00376930E-05
 6 14 0.00000000E+00 2.50410185E-06 5.90721676E-06 2.89392139E-05-3.23697118E-06
 6 15 0.00000000E+00 0.00000000E+00 7.50683579E-06 2.32734765E-04 7.35144771E-05
 6 16-8.71517535E-05 2.25607283E-05 0.00000000E+00-9.62698457E-05-2.36998138E-04
 6 17 0.00000000E+00-1.44103588E-04-1.64957498E-05 1.57403678E-04 0.00000000E+00
 6 18-1.06387415E-04-1.79377262E-05-1.26030179E-05 2.40175820E-05 0.00000000E+00
 6 19 0.00000000E+00 2.61739144E-05 4.74788615E-05 1.02509602E-06-7.45393127E-05
 6 20 1.02509602E-06-7.45393127E-05-4.07644252E-06-1.47183731E-04 3.95885173E-06
 6 21 3.13063032E-05 3.95885173E-06 3.13063032E-05
 7  1 1.26129227E-06 1.69705199E-06-1.33565743E-05-1.57092421E-06 6.68329038E-05
 7  2-2.77194589E-04 1.14773625E-06-1.55359299E-06 0.00000000E+00-3.64151060E-06
 7  3 4.51959602E-06 0.00000000E+00 4.31405985E-05 8.12017155E-06 0.00000000E+00
 7  4 3.08663161E-05-5.16230564E-05 0.00000000E+00 9.51448265E-06 2.36270917E-05
 7  5 1.31823707E-05 4.30572743E-06 0.00000000E+00 0.00000000E+00-1.75438009E-04
 7  6-2.90878777E-05-3.57235254E-05 0.00000000E+00 1.23855548E-04 1.46710762E-06
 7  7 5.32454728E-05 1.91276323E-05 0.00000000E+00 0.00000000E+00-1.62157505E-04
 7  8 3.49245906E-04-6.49059340E-04 4.41975195E-04-1.72990124E-04 0.00000000E+00
 7  9-4.21926212E-04 2.25567831E-04 0.00000000E+00 3.56190927E-04 4.43055277E-04
 7 10-2.01010232E-04 0.00000000E+00 1.85296316E-04 4.42807557E-05 4.59803209E-05
 7 11-9.92822782E-05 0.00000000E+00 0.00000000E+00 6.09770846E-05 7.10235504E-06
 7 12 2.61134683E-05 1.08746843E-05-4.77312641E-07 0.00000000E+00 1.16362193E-05
 7 13-6.43250881E-06 0.00000000E+00 3.01416225E-04 1.27711899E-04-7.30829947E-06
 7 14 0.00000000E+00 5.18330084E-06-1.44443341E-06 9.15744719E-06-1.08591291E-06
 7 15 0.00000000E+00 0.00000000E+00 9.98687631E-01 5.46330842E-03 9.95537335E-04
 7 16-4.11686828E-04 1.05256122E-04 0.00000000E+00 2.39997930E-04-3.16194382E-05
 7 17 0.00000000E+00-1.77072835E-05-2.03057058E-05-1.24329887E-05 0.00000000E+00
 7 18-7.52759480E-04-6.76641430E-04-6.52349219E-04 3.65541529E-05 0.00000000E+00
 7 19 0.00000000E+00 1.07673125E-05-2.00429857E-05-5.77040980E-07-8.92347675E-06
 7 20-5.77040980E-07-8.92347675E-06 5.75968791E-04-4.27349483E-04 5.77852709E-04
 7 21-4.43828631E-04 5.77852709E-04-4.43828631E-04
 8  1-5.36461566E-06-3.86814199E-06 5.34213349E-05-5.09285155E-06 2.96448224E-04
 8  2-4.61818041E-04-2.31850888E-05 1.93127868E-05 0.00000000E+00 7.65764907E-05
 8  3-6.38994040E-05 0.00000000E+00-1.96947920E-04 1.60612014E-04 0.00000000E+00
 8  4-8.92702260E-05-5.97857610E-05 0.00000000E+00-6.00556394E-05-5.74149266E-05
 8  5-5.86650324E-05 1.13148420E-05 0.00000000E+00 0.00000000E+00-3.01271060E-04
 8  6 1.37960182E-04-7.36403918E-05 0.00000000E+00 1.04582235E-04 8.29668302E-05
 8  7 2.13295223E-05-1.68716907E-04 0.00000000E+00 0.00000000E+00 4.25124628E-06
 8  8-1.43456012E-05 1.00504673E-04 4.02829847E-06-1.35099800E-05 0.00000000E+00
 8  9-3.05077144E-05-5.53702876E-05 0.00000000E+00 1.05051483E-04 4.26327749E-05
 8 10-2.13193974E-05 0.00000000E+00-5.12881641E-06 5.17974517E-06 9.16071011E-07
 8 11 7.61392082E-06 0.00000000E+00 0.00000000E+00 9.98624813E-01 5.80050224E-03
 8 12 5.26797346E-04-6.94106821E-05-1.01705828E-04 0.00000000E+00-6.27965257E-05
 8 13 1.91399210E-04 0.00000000E+00 7.08206726E-04 1.05153155E-04-1.45479774E-04
 8 14 0.00000000E+00-7.94751641E-04-7.86445906E-04-7.51246997E-04 6.65851317E-05
 8 15 0.00000000E+00 0.00000000E+00-6.13484131E-05 3.37781162E-06-1.19190555E-05
 8 16-2.48375714E-06 1.90910683E-06 0.00000000E+00 1.48273347E-05-8.28207103E-06
 8 17 0.00000000E+00-7.25853975E-05 9.17112881E-06 1.02486757E-05 0.00000000E+00
 8 18-2.42738688E-07 1.05826786E-06 0.00000000E+00-6.83162695E-07 0.00000000E+00
 8 19 0.00000000E+00 5.74915521E-04-3.70097496E-04 5.28426446E-04-3.10660632E-04
 8 20 5.28426446E-04-3.10660632E-04 4.49019280E-06-1.34017722E-05 8.63350208E-07
 8 21-9.22855789E-06 8.63350208E-07-9.22855789E-06
 9  1 1.62388935E-01-9.36918612E-01 9.52259778E-01 1.33863635E+00 3.96622589E-01
 9  2 4.95685161E-01 7.35491168E-04-2.90191146E-03 0.00000000E+00-1.89680434E-03
 9  3 7.27743718E-03 0.00000000E+00-5.11842191E-04-3.72751598E-03 0.00000000E+00
 9  4 2.16563157E-02 4.56108079E-02 0.00000000E+00-5.51034934E-01-5.52126235E-01
 9  5-5.50207184E-01-1.25564184E-04 0.00000000E+00 0.00000000E+00 2.18854272E-02
 9  6-1.42611013E-02 1.54363559E-02 0.00000000E+00-1.95831482E-01-1.95224505E-01
 9  7-2.02792006E-01 4.05560940E-03 0.00000000E+00 0.00000000E+00 2.25202970E-04
 9  8 3.81447564E-03-7.41132020E-03 2.99190676E-04 8.97165516E-04 0.00000000E+00
 9  9 1.23011828E-02 1.56441031E-03 0.00000000E+00-1.18964466E-01 2.94482159E-02
 9 10 5.06599127E-02 0.00000000E+00-2.94368313E-03-1.55429886E-03 1.24828153E-03
 9 11-4.44578944E-03 0.00000000E+00 0.00000000E+00 4.13454273E-04 3.80942444E-03
 9 12-2.02968146E-02 2.58104951E-03-2.90373337E-03 0.00000000E+00-1.22559900E-02
 9 13 3.72020596E-03 0.00000000E+00-6.39484632E-02-1.34350362E-02 1.32935663E-02
 9 14 0.00000000E+00-3.64473677E-04 7.84277201E-04 1.08649327E-03 7.95805448E-04
 9 15 0.00000000E+00 0.00000000E+00-2.35726895E-04-1.37291073E-03-1.12642765E-03
 9 16 1.90387013E-03 2.45915825E-04 0.00000000E+00-5.77616496E-03-1.10755828E-02
 9 17 0.00000000E+00 2.21340800E-02-8.55048400E-03-1.31842776E-02 0.00000000E+00
 9 18-2.69518184E-04 8.96892436E-05-1.08763401E-03-2.87958988E-04 0.00000000E+00
 9 19 0.00000000E+00-1.90003052E-03 8.77675088E-03-1.51696659E-03 2.82353746E-03
 9 20-1.51696659E-03 2.82353746E-03-2.76980901E-05-5.88963475E-03-1.96781293E-04
 9 21 8.31116932E-03-1.96781293E-04 8.31116932E-03
10  1 0.00000000E+00 0.00000000E+00 0.00000000E+00 0.00000000E+00 0.00000000E+00
10  2 0.00000000E+00 0.00000000E+00 0.00000000E+00-4.19616640E-01 0.00000000E+00
10  3 0.00000000E+00 1.05697513E+00 0.00000000E+00 0.00000000E+00 1.99319432E-02
10  4 0.00000000E+00 0.00000000E+00-4.97724932E-03 0.00000000E+00 0.00000000E+00
10  5 0.00000000E+00 0.00000000E+00-4.35373101E-04 3.33812788E-03 0.00000000E+00
10  6 0.00000000E+00 0.00000000E+00 1.30147871E-03 0.00000000E+00 0.00000000E+00
10  7 0.00000000E+00 0.00000000E+00-9.35804388E-05-2.10177731E-04 0.00000000E+00
10  8 0.00000000E+00 0.00000000E+00 0.00000000E+00 0.00000000E+00 1.00975360E-04
10  9 0.00000000E+00 0.00000000E+00-6.06684371E-04 0.00000000E+00 0.00000000E+00
10 10 0.00000000E+00 1.37829611E-03 0.00000000E+00 0.00000000E+00 0.00000000E+00
10 11 0.00000000E+00 2.69896176E-05 5.00907772E-05 0.00000000E+00 0.00000000E+00
10 12 0.00000000E+00 0.00000000E+00 0.00000000E+00-4.96710857E-05 0.00000000E+00
10 13 0.00000000E+00 2.59015631E-04 0.00000000E+00 0.00000000E+00 0.00000000E+00
10 14-3.62717024E-04 0.00000000E+00 0.00000000E+00 0.00000000E+00 0.00000000E+00
10 15-4.99409211E-05 5.69020378E-05 0.00000000E+00 0.00000000E+00 0.00000000E+00
10 16 0.00000000E+00 0.00000000E+00-2.90798609E-06 0.00000000E+00 0.00000000E+00
10 17 8.06244932E-04 0.00000000E+00 0.00000000E+00 0.00000000E+00-9.01563015E-04
10 18 0.00000000E+00 0.00000000E+00 0.00000000E+00 0.00000000E+00-3.75758396E-05
10 19 1.80433514E-05 0.00000000E+00 0.00000000E+00 1.43654260E-06 1.64430658E-04
10 20-1.43654260E-06-1.64430658E-04 0.00000000E+00 0.00000000E+00 1.16260628E-05
10 21-4.85622583E-04-1.16260628E-05 4.85622583E-04
11  1 2.31140868E-04-1.22088282E-03 9.62859817E-04 2.02664457E-03 1.22970747E-03
11  2-1.57644829E-03-4.19233024E-01-1.66597211E-02 0.00000000E+00 1.05596652E+00
11  3 4.19437191E-02 0.00000000E+00 2.08310897E-02 1.12720659E-03 0.00000000E+00
11  4-5.47539794E-03 3.45831799E-04 0.00000000E+00-1.21792253E-03 1.61575462E-05
11  5-4.92567020E-04 3.85040038E-03 0.00000000E+00 0.00000000E+00 8.39266807E-04
11  6-5.16304622E-04 8.19364383E-05 0.00000000E+00 7.91867092E-04 4.74685197E-04
11  7 1.05084552E-04 4.76524835E-04 0.00000000E+00 0.00000000E+00-3.62511176E-04
11  8 1.02358708E-03-3.46719731E-03-5.32595825E-04-5.22459157E-04 0.00000000E+00
11  9 1.41756105E-03 2.11541909E-03 0.00000000E+00 2.57155303E-03-2.85079608E-03
11 10-2.18903562E-03 0.00000000E+00 2.71442339E-04 3.01610036E-04 3.01510221E-04
11 11 2.99931788E-04 0.00000000E+00 0.00000000E+00 1.08291460E-04-3.44980043E-04
11 12 3.49454344E-04 4.73586126E-05-6.34981053E-05 0.00000000E+00 7.56934756E-05
11 13 1.98972459E-04 0.00000000E+00-4.35611115E-03-1.56037562E-03 1.43315187E-03
11 14 0.00000000E+00 3.25159945E-05 5.78510188E-05-5.43075688E-05-1.34398156E-04
11 15 0.00000000E+00 0.00000000E+00 1.10861356E-05-1.11809670E-04 9.56541162E-04
11 16-3.63012966E-04-7.42711567E-05 0.00000000E+00-5.35374883E-04-3.30714741E-04
11 17 0.00000000E+00 2.12753567E-03-4.94450980E-04 7.32742288E-04 0.00000000E+00
11 18 2.69423613E-04-5.09254956E-05 6.84913836E-05 1.16035073E-04 0.00000000E+00
11 19 0.00000000E+00-4.06447732E-05-2.93321078E-04-1.12723096E-04 7.40115249E-05
11 20-1.12723096E-04 7.40115249E-05-1.92938518E-05-1.57229787E-04-6.29884708E-05
11 21-5.59948633E-05-6.29884708E-05-5.59948633E-05
12  1-1.17699366E-03 7.51175288E-03-9.79055345E-03-8.72836548E-03-1.40341743E-03
12  2-8.59895018E-03 1.66862295E-02-4.19329832E-01 0.00000000E+00-4.20511288E-02
12  3 1.05637983E+00 0.00000000E+00-5.23709179E-04 1.92869678E-02 0.00000000E+00
12  4 1.16494911E-04-4.50430232E-03 0.00000000E+00 3.68142933E-03 8.66016868E-03
12  5 2.71353959E-03-6.54734959E-04 0.00000000E+00 0.00000000E+00-1.54341026E-03
12  6-2.75392994E-05 2.18198356E-04 0.00000000E+00 2.81880895E-03 2.73893345E-03
12  7 2.50257785E-03 2.51113889E-04 0.00000000E+00 0.00000000E+00-3.13900230E-04
12  8 4.66813231E-04-1.25716462E-03-5.57634619E-04-3.06283043E-04 0.00000000E+00
12  9 2.01445526E-03 7.81657142E-04 0.00000000E+00 4.25402347E-03-3.22105887E-03
12 10-1.17077511E-03 0.00000000E+00 2.37652874E-04 2.31175203E-04 5.68260215E-05
12 11 3.08407315E-04 0.00000000E+00 0.00000000E+00-8.01105728E-05 3.39637246E-04
12 12-1.22293645E-03-9.65895255E-05 7.06386352E-05 0.00000000E+00 1.91776509E-04
12 13-2.63325083E-05 0.00000000E+00 1.70892150E-04-7.74579611E-05-4.00579556E-04
12 14 0.00000000E+00-6.38865787E-05 7.25539182E-05 8.96217658E-05 5.80465025E-05
12 15 0.00000000E+00 0.00000000E+00 1.39616658E-05 3.62755381E-05-9.40812087E-04
12 16-4.09520518E-05-9.28859015E-05 0.00000000E+00 2.27022333E-04-5.03189987E-04
12 17 0.00000000E+00 3.05009745E-04 3.99970383E-04 4.71239397E-04 0.00000000E+00
12 18 1.24811552E-04-4.15409761E-05 2.86581012E-05 4.94261972E-05 0.00000000E+00
12 19 0.00000000E+00 1.16498996E-04 4.10815141E-04 4.18556837E-05 6.57660777E-04
12 20 4.18556837E-05 6.57660777E-04 3.56922974E-05-1.71739624E-04-1.65944309E-05
12 21 3.81470037E-04-1.65944309E-05 3.81470037E-04
13  1 1.32093623E-04-4.75647193E-04-6.19167851E-04 2.94350391E-03-4.35338326E-03
13  2 5.96188556E-03-6.20070151E-04-6.53282529E-04 0.00000000E+00 1.62458260E-03
13  3 1.65537852E-03 0.00000000E+00-2.53839964E-04 6.85346055E-04 0.00000000E+00
13  4 2.03143368E-03 3.09953357E-03 0.00000000E+00-7.35189420E-01-1.69847854E-01
13  5 9.05260367E-01-2.49065502E-01 0.00000000E+00 0.00000000E+00 6.60205675E-04
13  6-2.90475546E-04-1.84986686E-04 0.00000000E+00-1.49573129E-02-2.85511023E-03
13  7 1.82596339E-02-4.98386014E-03 0.00000000E+00 0.00000000E+00 6.23360201E-03
13  8-1.29098050E-02-6.42332147E-03 1.04726818E-02 1.14687254E-02 0.00000000E+00
13  9 2.93931299E-04 5.22869110E-04 0.00000000E+00-1.83358415E-03 2.16206976E-03
13 10 1.25546196E-03 0.00000000E+00-8.82696845E-04-1.89571320E-03 1.60723747E-03
13 11-2.49039200E-03 0.00000000E+00 0.00000000E+00 1.04259480E-03-1.08360098E-03
13 12-2.60501029E-03-1.94228819E-03 2.50692072E-03 0.00000000E+00-9.53945205E-04
13 13-2.01664158E-04 0.00000000E+00 1.04510360E-04 5.75235160E-04-4.73348159E-05
13 14 0.00000000E+00-4.14236441E-04-1.00145219E-03 3.22274806E-04 1.03119487E-03
13 15 0.00000000E+00 0.00000000E+00 4.56300971E-04-7.54713205E-04-5.70456367E-04
13 16 8.94889065E-04-8.82275744E-05 0.00000000E+00-4.28672327E-04-2.02035135E-04
13 17 0.00000000E+00-1.05122559E-03 3.21675136E-04-4.96881819E-04 0.00000000E+00
13 18-6.79893303E-05 1.53626895E-04 1.96675338E-04 2.26588314E-04 0.00000000E+00
13 19 0.00000000E+00-4.39627731E-05 7.77680372E-04-1.50370025E-04 2.09175747E-04
13 20-1.50370025E-04 2.09175747E-04-4.00903459E-05 4.46693766E-05-1.25050268E-04
13 21 2.20377370E-04-1.25050268E-04 2.20377370E-04
14  1 0.00000000E+00 0.00000000E+00 0.00000000E+00 0.00000000E+00 0.00000000E+00
14  2 0.00000000E+00 0.00000000E+00 0.00000000E+00-3.45352933E-04 0.00000000E+00
14  3 0.00000000E+00 1.11203723E-03 0.00000000E+00 0.00000000E+00-2.32180059E-03
14  4 0.00000000E+00 0.00000000E+00 4.60011776E-04 0.00000000E+00 0.00000000E+00
14  5 0.00000000E+00 0.00000000E+00 9.94058952E-01 4.52622426E-02 0.00000000E+00
14  6 0.00000000E+00 0.00000000E+00-1.21580997E-04 0.00000000E+00 0.00000000E+00
14  7 0.00000000E+00 0.00000000E+00 2.09491928E-02 8.22127701E-04 0.00000000E+00
14  8 0.00000000E+00 0.00000000E+00 0.00000000E+00 0.00000000E+00 5.26209233E-03
14  9 0.00000000E+00 0.00000000E+00 1.35866314E-03 0.00000000E+00 0.00000000E+00
14 10 0.00000000E+00-9.37941539E-04 0.00000000E+00 0.00000000E+00 0.00000000E+00
14 11 0.00000000E+00-1.74976963E-03-2.11605000E-03 0.00000000E+00 0.00000000E+00
14 12 0.00000000E+00 0.00000000E+00 0.00000000E+00-1.58268537E-03 0.00000000E+00
14 13 0.00000000E+00-4.12692106E-04 0.00000000E+00 0.00000000E+00 0.00000000E+00
14 14 3.19777441E-04 0.00000000E+00 0.00000000E+00 0.00000000E+00 0.00000000E+00
14 15-7.12078281E-04 8.36887908E-04 0.00000000E+00 0.00000000E+00 0.00000000E+00
14 16 0.00000000E+00 0.00000000E+00 3.87429796E-05 0.00000000E+00 0.00000000E+00
14 17-6.97768402E-04 0.00000000E+00 0.00000000E+00 0.00000000E+00 4.36735619E-04
14 18 0.00000000E+00 0.00000000E+00 0.00000000E+00 0.00000000E+00 2.77890530E-05
14 19 4.53398422E-05 0.00000000E+00 0.00000000E+00-1.07921706E-04 2.19565334E-04
14 20 1.07921706E-04-2.19565334E-04 0.00000000E+00 0.00000000E+00-6.14914477E-05
14 21 3.23266638E-04 6.14914477E-05-3.23266638E-04
15  1-1.46121265E-04 1.01533946E-03-1.24830033E-03-2.09387369E-03 8.02338365E-04
15  2-2.48096020E-04 2.03193739E-03 1.26054259E-05 0.00000000E+00-5.36087318E-03
15  3-7.77591487E-05 0.00000000E+00 3.86477477E-04 7.31790593E-04 0.00000000E+00
15  4-4.35102408E-03 6.59775112E-06 0.00000000E+00-2.11652444E-01-1.20972777E-02
15  5 2.26051155E-01 9.60786949E-01 0.00000000E+00 0.00000000E+00 9.74479197E-04
15  6-6.70279854E-04 4.39721039E-04 0.00000000E+00-3.85267036E-03-2.77123364E-04
15  7 4.60551826E-03 1.89041383E-02 0.00000000E+00 0.00000000E+00-6.00021120E-03
15  8 1.28087511E-02 4.87217236E-03-1.18894884E-02-8.44845282E-03 0.00000000E+00
15  9 3.91443446E-05 2.72270310E-04 0.00000000E+00 1.18690620E-03-2.17758196E-03
15 10-1.56113865E-03 0.00000000E+00 1.95369845E-03-1.93198756E-05-5.70228885E-04
15 11 2.51404334E-03 0.00000000E+00 0.00000000E+00 3.18584128E-03-4.08619200E-03
15 12-4.60246507E-03-7.44037437E-03 6.21875712E-03 0.00000000E+00-1.45902076E-04
15 13 5.17872005E-04 0.00000000E+00-4.39522736E-03-1.20253992E-03 9.84152558E-04
15 14 0.00000000E+00-2.74411221E-03-1.70905148E-03 4.28392351E-04 3.12741758E-03
15 15 0.00000000E+00 0.00000000E+00-1.86569488E-04 3.56796026E-04-8.68674750E-06
15 16-7.48074510E-04 1.77559502E-05 0.00000000E+00 1.00428938E-04 4.32941510E-04
15 17 0.00000000E+00 2.10211245E-03-7.14264526E-04 4.39681432E-04 0.00000000E+00
15 18 4.07923956E-04-9.22385122E-05-1.52336911E-05 5.40938459E-05 0.00000000E+00
15 19 0.00000000E+00-5.03846232E-04 7.50511573E-04-5.25370857E-04 1.00034711E-03
15 20-5.25370857E-04 1.00034711E-03-5.48164802E-05 5.84250927E-04 3.18558378E-05
15 21-1.74415776E-04 3.18558378E-05-1.74415776E-04
16  1 0.00000000E+00 0.00000000E+00 0.00000000E+00 0.00000000E+00 0.00000000E+00
16  2 0.00000000E+00 0.00000000E+00 0.00000000E+00 1.39300293E-03 0.00000000E+00
16  3 0.00000000E+00-3.65795035E-03 0.00000000E+00 0.00000000E+00 5.18791801E-04
16  4 0.00000000E+00 0.00000000E+00-1.42687204E-03 0.00000000E+00 0.00000000E+00
16  5 0.00000000E+00 0.00000000E+00-4.54621406E-02 9.94168441E-01 0.00000000E+00
16  6 0.00000000E+00 0.00000000E+00 4.96705980E-04 0.00000000E+00 0.00000000E+00
16  7 0.00000000E+00 0.00000000E+00-1.03114268E-03 2.07951429E-02 0.00000000E+00
16  8 0.00000000E+00 0.00000000E+00 0.00000000E+00 0.00000000E+00 3.99060170E-03
16  9 0.00000000E+00 0.00000000E+00 8.57588654E-04 0.00000000E+00 0.00000000E+00
16 10 0.00000000E+00-3.28013568E-04 0.00000000E+00 0.00000000E+00 0.00000000E+00
16 11 0.00000000E+00-1.75720926E-03-9.56048207E-04 0.00000000E+00 0.00000000E+00
16 12 0.00000000E+00 0.00000000E+00 0.00000000E+00 1.44440964E-03 0.00000000E+00
16 13 0.00000000E+00 7.53903952E-04 0.00000000E+00 0.00000000E+00 0.00000000E+00
16 14-3.13177575E-04 0.00000000E+00 0.00000000E+00 0.00000000E+00 0.00000000E+00
16 15 8.08264929E-04-6.62350850E-04 0.00000000E+00 0.00000000E+00 0.00000000E+00
16 16 0.00000000E+00 0.00000000E+00 5.68409040E-05 0.00000000E+00 0.00000000E+00
16 17-9.93541056E-05 0.00000000E+00 0.00000000E+00 0.00000000E+00 4.93744188E-05
16 18 0.00000000E+00 0.00000000E+00 0.00000000E+00 0.00000000E+00-5.58145959E-05
16 19 4.26032213E-05 0.00000000E+00 0.00000000E+00 1.44698972E-04-3.80778699E-04
16 20-1.44698972E-04 3.80778699E-04 0.00000000E+00 0.00000000E+00-1.40614265E-05
16 21-4.63338349E-06 1.40614265E-05 4.63338349E-06
17  1 2.42578776E-04-1.63802606E-03 2.27212334E-03 2.73026453E-03 2.79512595E-04
17  2-4.75808786E-03 1.93606384E-04 1.71870128E-03 0.00000000E+00-5.86775171E-04
17  3-4.69397552E-03 0.00000000E+00 1.13153547E-03 3.32720653E-03 0.00000000E+00
17  4 5.54589326E-04-2.67093797E-03 0.00000000E+00-6.36295664E-01 9.79297497E-01
17  5-3.46312772E-01-3.07942280E-02 0.00000000E+00 0.00000000E+00-9.65230804E-04
17  6-3.23406270E-05 3.06703168E-04 0.00000000E+00-1.15000562E-02 2.21033559E-02
17  7-5.73880706E-03-2.61019300E-04 0.00000000E+00 0.00000000E+00 2.61034768E-04
17  8 2.33657320E-04-2.40197736E-03-2.61682535E-03 4.51768977E-03 0.00000000E+00
17  9 4.57286835E-04 2.30069549E-03 0.00000000E+00-3.64941936E-04-1.47335363E-03
17 10-1.11657264E-03 0.00000000E+00 2.14672552E-03-2.42116166E-03 1.07240811E-04
17 11-7.83490647E-04 0.00000000E+00 0.00000000E+00-1.99669609E-04 5.33714500E-04
17 12 2.30301010E-04 1.75369262E-03 1.17002016E-03 0.00000000E+00 6.24655773E-04
17 13 4.59518929E-04 0.00000000E+00 8.31955672E-04 1.51790712E-04-5.69863798E-04
17 14 0.00000000E+00 1.35922148E-03-1.03797082E-03-1.05701413E-04 2.57384266E-04
17 15 0.00000000E+00 0.00000000E+00 2.57174689E-04-7.11244061E-04 1.80028995E-03
17 16 3.92291045E-04-2.52774820E-04 0.00000000E+00-7.17190966E-04-2.74648359E-04
17 17 0.00000000E+00 1.36963408E-03-9.99760523E-06 4.89217006E-04 0.00000000E+00
17 18-2.36075324E-05-1.24843922E-04 7.91124004E-05 4.24816942E-04 0.00000000E+00
17 19 0.00000000E+00 2.04682950E-04-3.98369063E-04-5.64748336E-05 3.77895358E-04
17 20-5.64748336E-05 3.77895358E-04-5.62611567E-05-5.09942633E-04-1.40904932E-04