!   this molecule from Dan Crawford's group (poster at 2010 Sanibel)
!   CCT has 190 AOs, 164 MOs
!   active space is all valence MOs except five CC sigma and one CH sigma.
!
!      FINAL E= -189.815889389, 2 iters, RMS grad= 0.000003513
!
!   This run takes 68 seconds on 2.66 GHz Cloverton (27 Apr 2015)
!
!   ---------------------------------------------------------------------
!   2-A' state has a structure with a triangular base, and external CCH,
!   but which is not C2v symmetric.  E= -189.815
!   2'A' state NOON:  1.9730(a'), 1.9441(a''), 1.9354(a'), 1.9224(a''),
!         1.0178(a'), 0.0760(a''), 0.0630(a'), 0.0448(a''), 0.0234(a'')
!   this electronic state has 7,920 determinants
!
!   A geometry optimization for 2-A'' started at the 2-A' geometry
!   began at E= -189.7135, after 43 steps reached E= -189.851 at
!   a nearly linear geometry of all 5 C atoms.
!   At the 2-A' state's geometry, 2-A'' NOON are more multireference,
!     1.9486(a''), 1.9299(a'), 1.8946(a''), 1.7641(a'),
!     0.9665(a''), 0.2556(a'), 0.1267(a''), 0.0572(a''), 0.0568(a')
!   After the optimization ends, it is a radical cumulene,
!     1.9489(a''), 1.9424(a'), 1.9153(a''), 1.9117(a'),
!     1.0076(a''), 0.1004(a'), 0.0832(a''), 0.0462(a'), 0.0444(a'')
!   All these orbitals are pi type.  The 5th filled valence orbital
!   is a sp lone pair at the terminal carbon.
!
 $contrl scftyp=mcscf mult=2 runtyp=gradient ispher=1 $end
 $system mwords=25 $end
 $basis  gbasis=cct $end
 $guess  guess=moread norb=164 $end
 $mcscf  cistep=aldet soscf=.true. $end
 $det    stsym=Ap ncore=11 nact=9 nels=9 $end
 $statpt opttol=1d-5 $end
 $data
C3C2H molecule (Dan Crawford group)
Cs

H      1.0   0.0561967517   4.8582446198   0.0000000000
C      6.0   0.0000154931   3.8062804249   0.0000000000
C      6.0  -0.0599216792   2.6022956708   0.0000000000
C      6.0  -0.0915046767   1.2114759309   0.0000000000
C      6.0  -0.6344987444   0.0046582112   0.0000000000
C      6.0   0.7297128554   0.0170451424   0.0000000000
 $end

----- 2A'' geometry, E= -189.8514175356, hessian=??
H      1.0   0.1945911852   5.0761473474   0.0000000000
C      6.0   0.1262784023   4.0250985647   0.0000000000
C      6.0   0.0476670699   2.8162609431   0.0000000000
C      6.0  -0.0402749922   1.4639701344   0.0000000000
C      6.0  -0.2074520986  -1.1070334345   0.0000000000
C      6.0  -0.1208095667   0.2255564450   0.0000000000

----- 2A' geometry, E= -189.8158893882, hessian=??
H      1.0   0.0561967517   4.8582446198   0.0000000000
C      6.0   0.0000154931   3.8062804249   0.0000000000
C      6.0  -0.0599216792   2.6022956708   0.0000000000
C      6.0  -0.0915046767   1.2114759309   0.0000000000
C      6.0  -0.6344987444   0.0046582112   0.0000000000
C      6.0   0.7297128554   0.0170451424   0.0000000000
 
--- NATURAL ORBITALS OF MCSCF --- GENERATED AT Sun Mar  7 11:32:02 2010
E(MCSCF)=     -189.8158893886, E(NUC)=      109.0104848954
 $VEC   
 1  1-2.47399763E-05 1.39750737E-03 2.08773537E-04 2.17489858E-06-5.35323016E-05
 1  2 0.00000000E+00-4.59558387E-05-6.84507082E-04 0.00000000E+00-5.13965812E-05
 1  3 1.08181424E-04-5.67848428E-05 8.27253756E-06 0.00000000E+00 0.00000000E+00
 1  4 3.50156161E-04 4.16372661E-04-1.05789276E-04-1.27957619E-03 9.01060541E-06
 1  5 1.83307462E-04 0.00000000E+00-8.89840953E-05-1.64647888E-03 0.00000000E+00
 1  6 3.97016852E-05-2.33633532E-04 0.00000000E+00 5.72255013E-05-1.08240498E-04
 1  7 5.10149969E-05-2.98077934E-06 0.00000000E+00 0.00000000E+00 1.09357400E-04
 1  8-2.11715017E-04 1.02357617E-04-7.68971925E-06 0.00000000E+00 0.00000000E+00
 1  9 4.68546577E-06 4.01207503E-06 0.00000000E+00-1.50537145E-05 0.00000000E+00
 1 10-9.75789770E-06 0.00000000E+00 3.47168572E-06 9.67095101E-06 0.00000000E+00
 1 11 8.34848098E-03 1.37473638E-03 8.24122677E-04-4.80040096E-03-6.30619041E-05
 1 12-3.14996182E-04 0.00000000E+00-6.18118848E-05-1.68167608E-03 0.00000000E+00
 1 13 2.36883955E-05 2.68674682E-03 0.00000000E+00-3.17953638E-05 6.49384758E-05
 1 14-3.31431120E-05-6.15643178E-06 0.00000000E+00 0.00000000E+00 3.91051900E-04
 1 15-7.84451721E-04 3.93399821E-04-8.31626095E-05 0.00000000E+00 0.00000000E+00
 1 16-4.99410994E-05 4.57994294E-04 0.00000000E+00-3.36300021E-04 0.00000000E+00
 1 17 8.76493799E-05 0.00000000E+00-2.06463640E-05-2.78163803E-04 0.00000000E+00
 1 18 9.77979306E-01 1.17597259E-03 4.19999718E-02 6.31486202E-03-1.96752710E-04
 1 19 4.19941002E-04 0.00000000E+00-7.72293964E-04-1.79225002E-03 0.00000000E+00
 1 20-4.19620287E-05 2.77362449E-03 0.00000000E+00-3.91415797E-04 1.18535003E-03
 1 21-7.93934234E-04 1.64129084E-04 0.00000000E+00 0.00000000E+00 9.36200859E-04
 1 22-1.46999836E-03 5.33797498E-04 4.87904838E-05 0.00000000E+00 0.00000000E+00
 1 23 9.99778904E-05 2.08508934E-05 0.00000000E+00-2.11660223E-04 0.00000000E+00
 1 24-1.75467185E-04 0.00000000E+00 4.13327696E-05 1.83685814E-04 0.00000000E+00
 1 25 1.95295851E-02 6.34929004E-04 1.45300791E-03 2.05030092E-05-3.47617264E-05
 1 26 2.94065206E-04 0.00000000E+00-2.30225074E-04-7.32055312E-04 0.00000000E+00
 1 27-5.13083546E-05-5.63848687E-04 0.00000000E+00 4.42106235E-05-1.57304921E-04
 1 28 1.13094298E-04-1.50858977E-04 0.00000000E+00 0.00000000E+00 2.11651693E-04
 1 29-6.51758950E-04 4.40107258E-04-2.43430597E-04 0.00000000E+00 0.00000000E+00
 1 30 9.28755548E-05-2.49220227E-04 0.00000000E+00 7.53552301E-05 0.00000000E+00
 1 31-2.38413610E-04 0.00000000E+00 1.13807977E-04 2.59008792E-04 0.00000000E+00
 1 32 7.46777273E-03 3.80566079E-04 6.58976927E-04-3.09035105E-04-1.18962760E-04
 1 33 5.29213099E-05 0.00000000E+00-3.38940020E-06-5.02286046E-04 0.00000000E+00
 1 34 1.62150374E-04-5.20322766E-04 0.00000000E+00 8.58248062E-06-4.21305802E-05
 1 35 3.35480996E-05 4.33656507E-05 0.00000000E+00 0.00000000E+00 1.03666889E-04
 1 36-3.70748623E-04 2.67081734E-04 1.70553371E-04 0.00000000E+00 0.00000000E+00
 1 37-6.15869297E-05-1.18116887E-04 0.00000000E+00-4.13483790E-05 0.00000000E+00
 1 38 2.14657167E-04 0.00000000E+00-1.32029630E-04 1.99818812E-04 0.00000000E+00
 2  1-8.59591717E-06 9.96517540E-04-9.92328857E-04-9.36882096E-06 3.24153569E-06
 2  2 0.00000000E+00-4.05551061E-05-4.87112507E-04 0.00000000E+00-1.83863265E-05
 2  3 3.47733962E-05-1.63870697E-05 2.24405466E-05 0.00000000E+00 0.00000000E+00
 2  4-5.04860717E-05 1.96790862E-04 7.52189210E-05-1.17994664E-02-6.36839465E-05
 2  5 5.27218235E-06 0.00000000E+00 8.91052559E-05-4.16912017E-04 0.00000000E+00
 2  6 3.56071115E-04 4.32181365E-03 0.00000000E+00 4.13453587E-06-1.63295999E-05
 2  7 1.21950640E-05-2.92452407E-05 0.00000000E+00 0.00000000E+00 2.42633594E-04
 2  8-4.99999846E-04 2.57366252E-04-2.13555839E-04 0.00000000E+00 0.00000000E+00
 2  9-4.19852923E-05-2.29993300E-05 0.00000000E+00 2.74264228E-05 0.00000000E+00
 2 10 7.65910807E-05 0.00000000E+00-2.02619002E-05 3.43041632E-06 0.00000000E+00
 2 11-1.40678814E-03 1.68653322E-04 1.16355686E-04-1.50233008E-03 1.20344161E-04
 2 12 5.33481599E-05 0.00000000E+00-2.71592639E-05 5.65932605E-04 0.00000000E+00
 2 13-1.50059056E-04 1.19250462E-02 0.00000000E+00 2.77137248E-05-4.96468731E-05
 2 14 2.19331484E-05-1.38830439E-05 0.00000000E+00 0.00000000E+00 2.88803689E-04
 2 15-6.43648782E-04 3.54845093E-04-1.65667900E-04 0.00000000E+00 0.00000000E+00
 2 16 7.67925758E-05 1.35392174E-04 0.00000000E+00-7.12498940E-05 0.00000000E+00
 2 17-1.39460571E-04 0.00000000E+00 3.64325195E-05-1.10397768E-04 0.00000000E+00
 2 18-2.04331730E-02 6.73200127E-04-2.81073709E-04 3.21212962E-03 7.95563550E-04
 2 19-6.92520097E-04 0.00000000E+00 1.67675971E-03 1.47511001E-03 0.00000000E+00
 2 20 2.32118040E-03 9.79727657E-03 0.00000000E+00 1.60167322E-05-7.13990276E-05
 2 21 5.53822955E-05-2.11971448E-04 0.00000000E+00 0.00000000E+00 3.23892732E-04
 2 22-7.78856897E-04 4.54964165E-04-4.42401270E-04 0.00000000E+00 0.00000000E+00
 2 23-2.20698130E-04 3.50489644E-04 0.00000000E+00-1.15550758E-04 0.00000000E+00
 2 24 4.28298499E-04 0.00000000E+00-1.32200886E-04-3.54680444E-04 0.00000000E+00
 2 25 9.75944044E-01-7.33540142E-04 4.08196927E-02 1.26786888E-02 1.31575186E-03
 2 26 1.18761804E-03 0.00000000E+00 2.25887678E-03 1.50691592E-03 0.00000000E+00
 2 27 2.92768173E-03 2.89537238E-03 0.00000000E+00 3.95868036E-04 2.18840053E-04
 2 28-6.14708089E-04 4.73039847E-04 0.00000000E+00 0.00000000E+00 3.45380082E-04
 2 29 1.48180604E-04-4.93560686E-04 4.68082815E-04 0.00000000E+00 0.00000000E+00
 2 30 5.95066191E-05 9.62040926E-05 0.00000000E+00 2.76960473E-05 0.00000000E+00
 2 31 1.45003123E-04 0.00000000E+00-2.24839630E-04-1.56767382E-04 0.00000000E+00
 2 32 6.58740324E-02 8.45543673E-05 3.01459359E-03-2.67363988E-03-7.57944123E-04
 2 33 9.60959445E-04 0.00000000E+00 2.98132979E-04 9.73539934E-04 0.00000000E+00
 2 34 7.18353586E-04 6.74892099E-04 0.00000000E+00-1.16565288E-04 1.41136031E-04
 2 35-2.45707423E-05-9.77699158E-05 0.00000000E+00 0.00000000E+00-3.85433979E-04
 2 36 8.69705125E-05 2.98463466E-04-1.19083879E-04 0.00000000E+00 0.00000000E+00
 2 37 2.77094046E-04-3.18922918E-05 0.00000000E+00 1.98939285E-05 0.00000000E+00
 2 38-1.74603268E-04 0.00000000E+00-1.97157405E-04 2.28940709E-05 0.00000000E+00
 3  1 7.52432856E-06 5.31365613E-04-3.96553086E-04 2.41427314E-05-1.35734875E-05
 3  2 0.00000000E+00-6.75247679E-05-3.11037906E-04 0.00000000E+00-2.05993810E-05
 3  3 3.22626929E-05-1.16633119E-05-1.60116045E-05 0.00000000E+00 0.00000000E+00
 3  4-9.34888258E-05 2.16617707E-04 6.01105271E-07-4.17608686E-03 5.61923190E-05
 3  5-4.99356997E-07 0.00000000E+00-2.93143647E-04-6.84719632E-04 0.00000000E+00
 3  6 9.47693856E-05 1.67694606E-03 0.00000000E+00-1.49005129E-05 2.07606213E-05
 3  7-5.86010836E-06 4.20909909E-05 0.00000000E+00 0.00000000E+00 5.32084064E-05
 3  8-7.21072946E-05 1.88988883E-05 2.43760417E-04 0.00000000E+00 0.00000000E+00
 3  9 5.81568233E-05-3.71886448E-05 0.00000000E+00 2.97701946E-05 0.00000000E+00
 3 10-1.04271413E-04 0.00000000E+00 2.62458469E-05 2.01236080E-05 0.00000000E+00
 3 11-4.41366649E-04 3.76900972E-04-3.44225711E-05 2.46072263E-03-1.92246436E-05
 3 12 3.50687708E-05 0.00000000E+00 2.01541614E-04-1.22393065E-03 0.00000000E+00
 3 13 2.27873158E-04 3.28343601E-03 0.00000000E+00-5.43320787E-06 1.62339330E-05
 3 14-1.08007251E-05-3.29885683E-05 0.00000000E+00 0.00000000E+00-6.31783496E-05
 3 15 7.17532624E-05-8.57491277E-06 3.63473788E-04 0.00000000E+00 0.00000000E+00
 3 16-7.38740958E-05-7.37975175E-05 0.00000000E+00 1.04915308E-04 0.00000000E+00
 3 17 1.45457439E-04 0.00000000E+00-4.63449395E-05-5.90554825E-06 0.00000000E+00
 3 18-5.82034073E-03 6.97506947E-04 3.55499615E-05 9.35094710E-04-2.81861263E-05
 3 19-8.19189319E-05 0.00000000E+00 1.01585788E-04-1.41173295E-03 0.00000000E+00
 3 20-5.37681984E-04 9.16278865E-04 0.00000000E+00-3.55749734E-05 8.92127742E-05
 3 21-5.36378008E-05-8.65721067E-05 0.00000000E+00 0.00000000E+00 3.53326101E-04
 3 22-6.40732976E-04 2.87406874E-04 1.22294886E-04 0.00000000E+00 0.00000000E+00
 3 23 1.05687562E-04-2.82108796E-05 0.00000000E+00 1.53924427E-04 0.00000000E+00
 3 24-3.28643520E-04 0.00000000E+00 1.86848777E-04-1.16075560E-04 0.00000000E+00
 3 25-6.60225420E-02 1.20374363E-03-2.21446084E-03-1.56778262E-03 2.74016038E-04
 3 26-1.35859098E-04 0.00000000E+00 1.77945283E-04-5.11317969E-04 0.00000000E+00
 3 27-7.94099599E-04-7.50664796E-05 0.00000000E+00-1.03427163E-05-6.76370220E-05
 3 28 7.79797383E-05-6.59976337E-05 0.00000000E+00 0.00000000E+00-2.37793386E-04
 3 29-7.10863117E-05 3.08879698E-04-1.20929671E-04 0.00000000E+00 0.00000000E+00
 3 30-3.97266700E-04-2.78045390E-05 0.00000000E+00-4.35920518E-06 0.00000000E+00
 3 31 1.69452027E-04 0.00000000E+00 3.63537182E-04 4.16629088E-05 0.00000000E+00
 3 32 9.75802939E-01-2.22220165E-04 4.08941354E-02 3.94423149E-03-2.89870319E-03
 3 33 1.09076991E-03 0.00000000E+00 1.55148502E-03-1.23606123E-03 0.00000000E+00
 3 34-6.31692949E-04 1.29473504E-04 0.00000000E+00 6.90817289E-04-1.33677176E-04
 3 35-5.57140112E-04-2.71524041E-04 0.00000000E+00 0.00000000E+00-2.67859364E-04
 3 36-8.07913277E-05 3.48650691E-04 4.86547979E-04 0.00000000E+00 0.00000000E+00
 3 37-6.81923298E-05 1.65414497E-05 0.00000000E+00-5.72751323E-05 0.00000000E+00
 3 38 6.29598108E-05 0.00000000E+00 2.85298001E-05 3.50824487E-05 0.00000000E+00
 4  1 1.91461919E-04 3.42722601E-03-1.08598492E-03 9.50171867E-06 1.04783014E-04
 4  2 0.00000000E+00-6.99091434E-05-1.05978606E-03 0.00000000E+00 7.35360440E-05
 4  3-1.48742501E-04 7.52064567E-05-1.14423577E-05 0.00000000E+00 0.00000000E+00
 4  4 4.08975599E-01-2.24710689E-05 1.84517851E-02-1.23899995E-02 4.71162511E-05
 4  5-1.20507403E-05 0.00000000E+00 4.46337219E-05-7.88414817E-04 0.00000000E+00
 4  6 3.47980321E-04 4.54759639E-03 0.00000000E+00-1.59685501E-04 3.33251169E-04
 4  7-1.73565667E-04 2.77823826E-05 0.00000000E+00 0.00000000E+00 1.43467427E-03
 4  8-2.87202673E-03 1.43735246E-03-2.71773649E-04 0.00000000E+00 0.00000000E+00
 4  9-1.57343119E-05 1.55464990E-04 0.00000000E+00-9.97766834E-05 0.00000000E+00
 4 10 2.84267988E-05 0.00000000E+00-7.31700411E-06-1.08801488E-04 0.00000000E+00
 4 11 8.87779523E-01 1.26476271E-03 3.95293135E-02 1.01613801E-04 6.52567050E-05
 4 12-7.58537944E-04 0.00000000E+00 2.92946135E-04 4.01274053E-03 0.00000000E+00
 4 13 3.13417751E-04 1.06790133E-02 0.00000000E+00-6.28177662E-04 1.24415362E-03
 4 14-6.15975958E-04 9.18446088E-05 0.00000000E+00 0.00000000E+00 1.49936497E-03
 4 15-3.02629780E-03 1.52693284E-03-2.39428906E-04 0.00000000E+00 0.00000000E+00
 4 16-3.29048111E-05 4.10437680E-04 0.00000000E+00-2.58389682E-04 0.00000000E+00
 4 17 5.97450897E-05 0.00000000E+00-1.55986531E-05-2.92270250E-04 0.00000000E+00
 4 18-6.43328439E-03 1.98038732E-03 2.23121785E-04 6.63267635E-03 3.44763831E-05
 4 19 1.82856541E-04 0.00000000E+00 2.16372858E-04 3.80069152E-03 0.00000000E+00
 4 20 4.66297932E-04 7.55351502E-03 0.00000000E+00-1.09832991E-04 1.78818439E-04
 4 21-6.89854487E-05 1.47935156E-05 0.00000000E+00 0.00000000E+00-1.01575700E-04
 4 22 2.07473975E-05 8.08283024E-05-2.66093799E-04 0.00000000E+00 0.00000000E+00
 4 23 1.62199830E-05-3.12542103E-04 0.00000000E+00 2.73434655E-04 0.00000000E+00
 4 24-2.08487833E-05 0.00000000E+00-9.12607454E-07 1.45884577E-04 0.00000000E+00
 4 25 1.59240480E-03 5.51283891E-04 1.51902740E-05 3.60302453E-03-1.85815858E-05
 4 26-4.16168725E-05 0.00000000E+00 1.86658449E-04 8.41725450E-04 0.00000000E+00
 4 27 5.04670920E-04 9.12926067E-04 0.00000000E+00-6.48488574E-05 9.39629592E-05
 4 28-2.91141017E-05-3.42968193E-05 0.00000000E+00 0.00000000E+00-1.67255515E-04
 4 29 2.18979746E-04-5.17242313E-05 2.47908953E-04 0.00000000E+00 0.00000000E+00
 4 30-4.09644284E-05 3.97314907E-05 0.00000000E+00-7.93416193E-05 0.00000000E+00
 4 31 1.99428495E-05 0.00000000E+00 3.50166984E-05 2.60362310E-05 0.00000000E+00
 4 32 9.06785955E-04 3.74951280E-04-3.04490823E-05 1.79531448E-03 3.04139556E-05
 4 33 2.32442454E-05 0.00000000E+00-4.27161929E-04 3.40876245E-04 0.00000000E+00
 4 34-5.03265739E-04 2.92685444E-04 0.00000000E+00-3.23917754E-05 7.55396342E-05
 4 35-4.31478589E-05-3.44866122E-05 0.00000000E+00 0.00000000E+00 1.28993241E-04
 4 36-6.19705860E-05-6.70226549E-05-2.39129177E-04 0.00000000E+00 0.00000000E+00
 4 37 5.03954794E-05-9.74298433E-06 0.00000000E+00 2.01187293E-05 0.00000000E+00
 4 38-7.88754993E-05 0.00000000E+00 1.12628687E-05-7.04714412E-06 0.00000000E+00
 5  1 4.57381467E-04 4.55047013E-03 3.05015913E-03-3.77405583E-06-1.60876119E-05
 5  2 0.00000000E+00-6.73159388E-05-1.53309748E-03 0.00000000E+00 1.21946953E-04
 5  3-2.43382701E-04 1.21435747E-04-2.18232083E-05 0.00000000E+00 0.00000000E+00
 5  4 8.88511129E-01 1.61960329E-03 3.87344878E-02 2.65177183E-02-1.39120844E-05
 5  5 4.31423069E-04 0.00000000E+00-3.24856407E-04-7.68085946E-03 0.00000000E+00
 5  6-6.54237558E-04-1.25791054E-02 0.00000000E+00-7.67169317E-04 1.56946712E-03
 5  7-8.02297808E-04 1.40126323E-04 0.00000000E+00 0.00000000E+00 4.54552988E-05
 5  8-7.04810055E-05 2.50257067E-05-7.42239904E-05 0.00000000E+00 0.00000000E+00
 5  9 4.68603237E-05-6.59580250E-04 0.00000000E+00 4.37373817E-04 0.00000000E+00
 5 10-8.42519711E-05 0.00000000E+00 2.13822495E-05 4.47545948E-04 0.00000000E+00
 5 11-4.10374115E-01-1.10188880E-03-1.74974343E-02-2.09448057E-02 3.71311929E-06
 5 12 7.03063016E-04 0.00000000E+00-3.11377778E-04-6.70169874E-03 0.00000000E+00
 5 13-7.69390863E-04-1.71364149E-02 0.00000000E+00 4.51643421E-04-8.93171488E-04
 5 14 4.41528067E-04-6.94846607E-05 0.00000000E+00 0.00000000E+00 8.93252767E-04
 5 15-1.81141987E-03 9.18167107E-04-2.98635790E-04 0.00000000E+00 0.00000000E+00
 5 16 5.47160120E-05-8.12658542E-04 0.00000000E+00 5.38659644E-04 0.00000000E+00
 5 17-9.83305027E-05 0.00000000E+00 2.49212694E-05 5.51636202E-04 0.00000000E+00
 5 18 3.14264870E-03-3.36974949E-04 2.91725652E-04-1.06235422E-02-1.24749884E-05
 5 19-8.25753727E-05 0.00000000E+00-1.46350985E-04-1.73442207E-03 0.00000000E+00
 5 20 3.54382032E-06-3.24722439E-03 0.00000000E+00 7.83587088E-05-1.39877087E-04
 5 21 6.15183786E-05 1.04048878E-05 0.00000000E+00 0.00000000E+00 5.74069202E-04
 5 22-1.10907800E-03 5.35008796E-04-9.36326902E-05 0.00000000E+00 0.00000000E+00
 5 23 2.12441382E-06-8.07027040E-06 0.00000000E+00-1.18852107E-05 0.00000000E+00
 5 24-3.44640320E-06 0.00000000E+00 5.96202977E-07 2.27126146E-05 0.00000000E+00
 5 25-3.63923024E-04 1.93697066E-04 8.36614714E-05-4.86670113E-05 9.14699374E-07
 5 26 1.49055446E-05 0.00000000E+00 6.43920685E-05-4.84514150E-05 0.00000000E+00
 5 27 2.59788796E-05 8.27787154E-05 0.00000000E+00 1.27123858E-05-2.88469516E-05
 5 28 1.61345658E-05 6.72538517E-06 0.00000000E+00 0.00000000E+00 5.74907728E-05
 5 29-9.98343061E-05 4.23435334E-05-1.26500591E-05 0.00000000E+00 0.00000000E+00
 5 30-1.98393734E-06-2.82438478E-05 0.00000000E+00 2.51777040E-05 0.00000000E+00
 5 31-5.02790021E-06 0.00000000E+00 7.68963147E-06 1.27153942E-05 0.00000000E+00
 5 32-5.64357705E-05 6.46338274E-05 4.08646633E-05-9.32285208E-05-8.23181512E-08
 5 33-1.29032540E-05 0.00000000E+00-5.09449405E-05-5.32319335E-05 0.00000000E+00
 5 34 1.37962935E-05 9.21737666E-05 0.00000000E+00 2.11041856E-05-3.61757565E-05
 5 35 1.50715709E-05 7.25493839E-06 0.00000000E+00 0.00000000E+00 2.74855581E-05
 5 36-3.14195391E-05 3.93398097E-06 1.26204285E-06 0.00000000E+00 0.00000000E+00
 5 37-1.05486484E-05-8.12111910E-06 0.00000000E+00 8.72609979E-06 0.00000000E+00
 5 38 1.97071901E-05 0.00000000E+00-5.55469322E-06 2.16952482E-06 0.00000000E+00
 6  1 9.20450315E-04-6.85169238E-03 2.82526514E-02-5.97122713E-05 3.65993568E-04
 6  2 0.00000000E+00 4.39053387E-04 7.36878436E-03 0.00000000E+00 4.05787898E-04
 6  3-7.43928800E-04 3.38140902E-04 3.44037884E-05 0.00000000E+00 0.00000000E+00
 6  4-1.89563138E-03 2.41892855E-02 6.94328443E-03 2.02280098E-01-1.20065652E-04
 6  5-8.18283806E-03 0.00000000E+00 1.59407201E-03 3.24208035E-03 0.00000000E+00
 6  6-5.58167564E-03-9.70647676E-02 0.00000000E+00-8.22209190E-05 2.51109059E-04
 6  7-1.68888140E-04-2.62111039E-04 0.00000000E+00 0.00000000E+00-4.75030634E-04
 6  8 7.47070501E-04-2.72039867E-04-4.20615062E-04 0.00000000E+00 0.00000000E+00
 6  9-4.16433804E-04 2.51360494E-03 0.00000000E+00-1.76166643E-03 0.00000000E+00
 6 10 7.33933177E-04 0.00000000E+00-1.75228601E-04-1.61068847E-03 0.00000000E+00
 6 11-4.41104016E-03 8.22180092E-02 2.18987092E-02-1.79295726E-01 1.59436403E-03
 6 12-1.94697146E-02 0.00000000E+00 2.78460495E-03 3.87484910E-04 0.00000000E+00
 6 13-5.23652154E-03-1.34545742E-01 0.00000000E+00-3.59267587E-03 7.12616306E-03
 6 14-3.53348719E-03 3.03887532E-04 0.00000000E+00 0.00000000E+00 6.77156061E-03
 6 15-1.31268607E-02 6.35530013E-03-2.77101920E-03 0.00000000E+00 0.00000000E+00
 6 16 2.00765111E-05 2.46712081E-03 0.00000000E+00-2.16058202E-03 0.00000000E+00
 6 17-8.31236816E-05 0.00000000E+00 5.61882155E-05-1.14940788E-03 0.00000000E+00
 6 18-2.07301652E-02 3.21205987E-01 6.73051263E-02-4.78916867E-02 9.06440546E-03
 6 19-8.51492530E-02 0.00000000E+00 1.81172875E-02-4.83475557E-02 0.00000000E+00
 6 20 6.55243089E-03 1.77992925E-02 0.00000000E+00-6.69081833E-03 1.97161348E-02
 6 21-1.30253165E-02-9.15786149E-04 0.00000000E+00 0.00000000E+00-5.64479768E-03
 6 22 1.10956980E-02-5.45090032E-03-5.33030677E-03 0.00000000E+00 0.00000000E+00
 6 23-6.43906632E-04-4.56219335E-04 0.00000000E+00-1.77592792E-03 0.00000000E+00
 6 24 1.72156064E-03 0.00000000E+00-8.57669244E-04 2.38801039E-03 0.00000000E+00
 6 25-2.24323488E-02 2.57553236E-01 5.08698746E-02 8.14919012E-02 8.51904451E-02
 6 26 6.03821006E-02 0.00000000E+00 9.23125690E-02 7.66730288E-02 0.00000000E+00
 6 27 1.74059470E-02 2.12643179E-02 0.00000000E+00 8.35445097E-03 4.20157353E-03
 6 28-1.25560245E-02 1.14120616E-02 0.00000000E+00 0.00000000E+00 5.41115087E-03
 6 29 6.14203489E-03-1.15531858E-02 1.23468444E-02 0.00000000E+00 0.00000000E+00
 6 30 1.85946377E-03 8.32106713E-04 0.00000000E+00 2.44889797E-03 0.00000000E+00
 6 31 2.87172421E-03 0.00000000E+00-5.36645664E-03-3.56528628E-03 0.00000000E+00
 6 32-2.13236983E-02 2.37261992E-01 4.83294200E-02 6.14890023E-02-8.31334911E-02
 6 33 4.54947361E-02 0.00000000E+00-9.10473751E-02 5.70377152E-02 0.00000000E+00
 6 34-1.29317886E-02 1.18016907E-02 0.00000000E+00 1.21800347E-02-4.05263056E-04
 6 35-1.17747717E-02-1.10216544E-02 0.00000000E+00 0.00000000E+00 1.03643180E-02
 6 36 4.45902419E-04-1.08102204E-02-1.22968575E-02 0.00000000E+00 0.00000000E+00
 6 37-2.73111181E-03-8.25655832E-04 0.00000000E+00 3.81188591E-03 0.00000000E+00
 6 38-1.63710563E-03 0.00000000E+00 5.30127663E-03-2.70415237E-03 0.00000000E+00
 7  1 3.66742458E-02-4.60794823E-03 1.31260150E-03 4.75642991E-05-2.08751719E-03
 7  2 0.00000000E+00 1.23295148E-03 1.87018125E-02 0.00000000E+00 1.55697549E-03
 7  3-3.15631414E-03 1.59933865E-03-4.07537365E-04 0.00000000E+00 0.00000000E+00
 7  4-1.90844882E-02 3.37814020E-01 7.08226312E-02 1.44658874E-01-2.04526528E-04
 7  5-9.08688856E-02 0.00000000E+00 2.56421886E-03-5.50584877E-02 0.00000000E+00
 7  6 3.05728005E-03-1.76401553E-02 0.00000000E+00-1.04798902E-02 2.10668011E-02
 7  7-1.05869108E-02 1.76484627E-03 0.00000000E+00 0.00000000E+00-1.26990828E-02
 7  8 2.60774290E-02-1.33783462E-02 2.23576447E-03 0.00000000E+00 0.00000000E+00
 7  9 1.57210622E-04-8.47982682E-04 0.00000000E+00 5.64773543E-04 0.00000000E+00
 7 10-2.90407077E-04 0.00000000E+00 7.94868939E-05 5.72914610E-04 0.00000000E+00
 7 11-2.40628970E-02 3.87737083E-01 7.78944307E-02 1.01213075E-01 7.40242447E-03
 7 12 6.70247246E-02 0.00000000E+00 8.35516327E-03 2.48141823E-02 0.00000000E+00
 7 13 1.62291063E-03-1.78846330E-02 0.00000000E+00-1.20443647E-02 2.41322049E-02
 7 14-1.20878401E-02 2.16684025E-03 0.00000000E+00 0.00000000E+00-1.23004283E-02
 7 15 2.27737894E-02-1.04733611E-02 2.11138210E-03 0.00000000E+00 0.00000000E+00
 7 16-5.61610415E-04-1.75387034E-03 0.00000000E+00 1.34822151E-03 0.00000000E+00
 7 17 9.85256171E-04 0.00000000E+00-2.31776732E-04 1.00484246E-03 0.00000000E+00
 7 18-1.71034468E-03 6.81425937E-02 1.78317080E-02-3.27176329E-02-4.08477015E-03
 7 19 8.51918520E-02 0.00000000E+00-8.27450366E-03 6.29345023E-02 0.00000000E+00
 7 20-2.61760760E-03 1.36950903E-02 0.00000000E+00-2.23899290E-03 4.50998568E-03
 7 21-2.27099278E-03 1.65101275E-03 0.00000000E+00 0.00000000E+00 5.87934673E-03
 7 22-1.12769528E-02 5.39760610E-03 1.26673906E-03 0.00000000E+00 0.00000000E+00
 7 23 7.28730650E-04 1.67327081E-03 0.00000000E+00-1.78008742E-03 0.00000000E+00
 7 24-1.32247667E-03 0.00000000E+00 3.44781904E-04-4.64840951E-04 0.00000000E+00
 7 25 4.93327774E-03-6.39786093E-02-1.04606396E-02-1.23290582E-03-2.99478129E-02
 7 26-6.90585860E-03 0.00000000E+00-3.33390164E-02-1.23638553E-02 0.00000000E+00
 7 27-4.57774090E-03 5.93553398E-04 0.00000000E+00-3.52406418E-03-1.05744537E-05
 7 28 3.53463863E-03-3.23419829E-03 0.00000000E+00 0.00000000E+00-1.63376265E-03
 7 29-4.05577123E-03 5.68953388E-03-4.56916691E-03 0.00000000E+00 0.00000000E+00
 7 30-2.09610015E-04-1.18117945E-03 0.00000000E+00-5.89737653E-04 0.00000000E+00
 7 31-1.73937653E-03 0.00000000E+00 2.02059788E-03 2.17445618E-03 0.00000000E+00
 7 32 4.98340553E-03-6.76093607E-02-1.26764748E-02-8.25248453E-03 2.67461296E-02
 7 33-6.33713557E-03 0.00000000E+00 2.95005998E-02-9.23518446E-03 0.00000000E+00
 7 34 2.54450169E-03-4.85438062E-04 0.00000000E+00-4.42821760E-03 1.30734367E-03
 7 35 3.12087393E-03 2.30655693E-03 0.00000000E+00 0.00000000E+00-3.22666300E-03
 7 36-1.30278219E-03 4.52944519E-03 2.86606886E-03 0.00000000E+00 0.00000000E+00
 7 37 7.44880218E-04-4.28411910E-04 0.00000000E+00-8.03859998E-04 0.00000000E+00
 7 38 8.33707256E-04 0.00000000E+00-1.83306894E-03 1.37863489E-03 0.00000000E+00
 8  1 6.30694265E-02 5.89281164E-02 3.54013525E-02-4.35844813E-04-6.93578155E-03
 8  2 0.00000000E+00 2.06842089E-04 2.88757037E-03 0.00000000E+00-3.09695778E-04
 8  3 6.10345986E-04-3.00650208E-04 1.42071810E-04 0.00000000E+00 0.00000000E+00
 8  4-8.60708305E-03 2.77221262E-01 5.57562609E-02 3.32216814E-01 1.24009058E-04
 8  5-1.08909158E-02 0.00000000E+00 1.41627162E-03-8.56429003E-03 0.00000000E+00
 8  6-5.32308975E-03-9.36687969E-02 0.00000000E+00-7.44349225E-03 1.50209158E-02
 8  7-7.57742356E-03 1.03044952E-03 0.00000000E+00 0.00000000E+00-1.42320850E-02
 8  8 2.86221041E-02-1.43900191E-02 1.83344700E-03 0.00000000E+00 0.00000000E+00
 8  9 2.29608586E-05-3.00972559E-03 0.00000000E+00 2.06378862E-03 0.00000000E+00
 8 10-4.00568411E-05 0.00000000E+00 9.25161669E-06 1.97418199E-03 0.00000000E+00
 8 11-2.13669796E-04-1.32339626E-01-2.72300829E-02-1.93899161E-01 1.11369788E-02
 8 12 1.87753571E-01 0.00000000E+00 1.15346511E-02 1.78722644E-01 0.00000000E+00
 8 13-5.17563471E-03-1.22698954E-01 0.00000000E+00 4.44579954E-03-8.79221311E-03
 8 14 4.34641358E-03-6.18997390E-04 0.00000000E+00 0.00000000E+00 8.98217296E-03
 8 15-1.65390368E-02 7.55686388E-03-2.85888731E-03 0.00000000E+00 0.00000000E+00
 8 16-2.27845323E-04 7.84021483E-03 0.00000000E+00-5.28911278E-03 0.00000000E+00
 8 17 4.08966729E-04 0.00000000E+00-1.03280151E-04-5.22963921E-03 0.00000000E+00
 8 18 4.88253261E-03-2.51939200E-01-4.88302669E-02-2.57338866E-01 2.24229747E-02
 8 19-1.49100305E-01 0.00000000E+00 2.96319957E-02-1.78773991E-01 0.00000000E+00
 8 20 1.28630268E-02-4.05290209E-02 0.00000000E+00 4.98207344E-03-1.12594252E-02
 8 21 6.27735178E-03-3.64408962E-03 0.00000000E+00 0.00000000E+00 1.19680341E-02
 8 22-2.73526093E-02 1.53845752E-02-4.79085781E-03 0.00000000E+00 0.00000000E+00
 8 23-8.96261842E-04-1.29470138E-02 0.00000000E+00 1.03665855E-02 0.00000000E+00
 8 24 1.75648995E-03 0.00000000E+00-5.54028509E-04 7.00365630E-03 0.00000000E+00
 8 25-3.27387256E-03 7.47245816E-02 1.52778272E-02 3.35912896E-02 5.79854718E-02
 8 26-1.80067953E-02 0.00000000E+00 6.62584355E-02-1.87681865E-02 0.00000000E+00
 8 27 1.63074050E-02 5.76352227E-03 0.00000000E+00 8.05981729E-03-4.47913231E-03
 8 28-3.58068498E-03 1.62183908E-03 0.00000000E+00 0.00000000E+00 7.31273674E-03
 8 29-4.34772223E-03-2.96501450E-03 3.20693892E-03 0.00000000E+00 0.00000000E+00
 8 30 1.36638464E-03 3.72086331E-04 0.00000000E+00 2.96056309E-04 0.00000000E+00
 8 31-1.31867042E-04 0.00000000E+00-1.70133032E-03-7.95262507E-04 0.00000000E+00
 8 32-4.15814408E-03 1.19769897E-01 2.49645230E-02 5.84180937E-02-4.56743928E-02
 8 33-3.22981636E-03 0.00000000E+00-5.74961524E-02-7.69392137E-04 0.00000000E+00
 8 34-1.68479498E-02 8.40402297E-03 0.00000000E+00 7.91074170E-03-3.42029623E-03
 8 35-4.49044546E-03-1.14137609E-03 0.00000000E+00 0.00000000E+00 1.01983345E-02
 8 36-4.56517649E-03-5.63315805E-03-2.81886977E-03 0.00000000E+00 0.00000000E+00
 8 37-1.57929534E-03 3.09952783E-04 0.00000000E+00 6.03718585E-04 0.00000000E+00
 8 38-1.49127494E-04 0.00000000E+00 2.26797453E-03-1.01956388E-03 0.00000000E+00
 9  1 1.72426336E-01 2.60308304E-01 5.06492474E-02-9.82742323E-04-1.80957619E-02
 9  2 0.00000000E+00-1.53790320E-03-2.76595659E-02 0.00000000E+00-3.08036010E-03
 9  3 6.13250833E-03-3.05214823E-03 5.52491006E-04 0.00000000E+00 0.00000000E+00
 9  4 5.61732925E-04 1.42099382E-01 3.11342621E-02 8.85980771E-02 1.09598931E-02
 9  5 2.38971938E-01 0.00000000E+00 1.04468554E-02 2.40646935E-01 0.00000000E+00
 9  6 3.40848280E-03 8.56020763E-02 0.00000000E+00-1.69604861E-03 3.45315738E-03
 9  7-1.75710877E-03 5.37562909E-04 0.00000000E+00 0.00000000E+00-5.74068820E-03
 9  8 1.15702413E-02-5.82955309E-03 1.25733289E-03 0.00000000E+00 0.00000000E+00
 9  9-3.24130909E-04 4.73926441E-03 0.00000000E+00-3.36109393E-03 0.00000000E+00
 9 10 5.61382828E-04 0.00000000E+00-1.26515580E-04-2.99729649E-03 0.00000000E+00
 9 11 3.29882696E-03-1.42068049E-01-3.08616557E-02-5.16971781E-02-9.52620962E-03
 9 12-1.23033975E-01 0.00000000E+00-1.12824304E-02-1.31271658E-01 0.00000000E+00
 9 13 1.03873616E-04-1.18730853E-04 0.00000000E+00 4.22855666E-03-8.44746763E-03
 9 14 4.21891097E-03-4.29245903E-04 0.00000000E+00 0.00000000E+00 2.41187132E-03
 9 15-4.68650543E-03 2.27463411E-03 2.44433991E-04 0.00000000E+00 0.00000000E+00
 9 16 6.07054074E-04-7.49246869E-03 0.00000000E+00 4.91083878E-03 0.00000000E+00
 9 17-1.08101883E-03 0.00000000E+00 2.66570325E-04 5.14136280E-03 0.00000000E+00
 9 18-1.76382875E-03 1.08243249E-01 2.10410376E-02 1.14631661E-01-2.41843390E-02
 9 19 2.67095497E-02 0.00000000E+00-3.07178493E-02 3.40283102E-02 0.00000000E+00
 9 20-1.09527666E-02 5.14834647E-03 0.00000000E+00-3.11893864E-04 2.12367247E-03
 9 21-1.81177861E-03 3.01097462E-03 0.00000000E+00 0.00000000E+00-2.84147188E-03
 9 22 8.77532161E-03-5.93384973E-03 3.23468792E-03 0.00000000E+00 0.00000000E+00
 9 23 7.29306486E-04 3.89317115E-03 0.00000000E+00-3.53529275E-03 0.00000000E+00
 9 24-1.44094634E-03 0.00000000E+00 4.62479013E-04-1.68794445E-03 0.00000000E+00
 9 25-2.01816976E-05-9.31798867E-03-2.38789871E-03-1.44985584E-02-3.04035804E-02
 9 26 3.33793486E-02 0.00000000E+00-3.61204241E-02 3.94042422E-02 0.00000000E+00
 9 27-1.12247476E-02 5.77080743E-03 0.00000000E+00-5.07213126E-03 4.64654993E-03
 9 28 4.25581329E-04 1.49564998E-03 0.00000000E+00 0.00000000E+00-5.10807177E-03
 9 29 5.24658444E-03-1.38512674E-04 1.38491618E-03 0.00000000E+00 0.00000000E+00
 9 30-1.16082578E-03 5.01197179E-04 0.00000000E+00-1.04647042E-04 0.00000000E+00