!  H2CO...Extended Koopmans' Theorem test case.
!  Compare to Table X of J.Comput.Chem. 13, 1004-1010(1992).
!  Note that b1 and b2 are reversed by the axis choice here.
!  there are 1308 CSFs or 3648 determinants
!
!  Caution, the top orbital, 2b2 in the table, is 2b1 for the
!  RHF case, but it is 4b1 for the MCSCF case, since the weakly
!  occupied b1 orbitals pick up very low energies.  Note also
!  that the EKT orbitals are guaranteed to be non-orthogonal.
!
!  Literature: E(RHF)= -113.8903 (must be a typo?)
!          E(MCSCF-2)= -114.0338
!  GAMESS:     E(RHF)= -113.8938529361, 11 iters
!          E(MCSCF-2)= -114.0338143324, 15 iters, from RHF orbs
!      e(11)=-0.8572(a1), e(12)=-0.6687(b1), e(13)=-0.6436(a1),
!      e(14)=-0.5511(b2), e(15)=-0.4044(b1)
!
!  This run takes 2 seconds on a 2.66 GHz Cloverton (28 Apr 2015)
!  results haven't changed since at least 2005.
!
!  ------------------------------------------------------------
!  This does not converge with SOSCF, so we use FULLNR.
!  Probably this is SOSCF's way of saying this is a very
!  unphysical active space.
!
 $contrl scftyp=mcscf runtyp=energy coord=zmt $end
 $system mwords=2 $end
 $basis  gbasis=dzv ndfunc=1 npfunc=1 $end
 $guess  guess=moread norb=40 $end
--- $drt    fors=.true. group=c2v nmcc=5 ndoc=3 nval=7 $end
 $det    ncore=5 nact=10 nels=6 $end
 $mcscf  ekt=.true. fors=.false. fullnr=.true. $end
 $data
Formaldehyde EKT test case...DZP basis
Cnv 2

C
O 1 rCO
H 1 rCH 2 aHCO
H 1 rCH 2 aHCO 3 180.0

rCO=1.208
rCH=1.116
aHCO=121.75
 $end

--- RHF ORBITALS --- GENERATED AT 10:28:16 CST 29-APR-1993
Formaldehyde EKT test case...DZP basis
E(RHF)=     -113.8938529361, E(NUC)=   31.1653245224,   11 ITERS
 $VEC
 1  1-8.05361256E-05 1.49493103E-04 1.88310755E-04 0.00000000E+00 0.00000000E+00
 1  2-4.37514776E-04 0.00000000E+00 0.00000000E+00 6.14474327E-07-1.40097874E-04
 1  3-7.24449030E-06-7.50274926E-04 0.00000000E+00 0.00000000E+00 0.00000000E+00
 1  4 1.00000780E+00-2.49510247E-04 6.20354879E-05 0.00000000E+00 0.00000000E+00
 1  5-1.69311688E-03 0.00000000E+00 0.00000000E+00 2.61696921E-04 8.67762728E-04
 1  6 5.19866654E-04 1.33907122E-03 0.00000000E+00 0.00000000E+00 0.00000000E+00
 1  7 2.32171105E-05-2.20238943E-05 6.79080956E-05 0.00000000E+00 1.69707267E-05
 1  8 2.32171105E-05-2.20238943E-05-6.79080956E-05 0.00000000E+00 1.69707267E-05
 2  1 9.98885804E-01 4.17841414E-03 3.78210553E-04 0.00000000E+00 0.00000000E+00
 2  2 5.23573847E-04 0.00000000E+00 0.00000000E+00-1.31404334E-05-6.98514256E-04
 2  3-7.81315730E-04-1.90988318E-04 0.00000000E+00 0.00000000E+00 0.00000000E+00
 2  4-3.86948603E-04 5.41782462E-04-2.34703609E-04 0.00000000E+00 0.00000000E+00
 2  5-8.78751912E-04 0.00000000E+00 0.00000000E+00 7.10985248E-05-1.26776092E-04
 2  6-9.51744283E-06 3.86696796E-04 0.00000000E+00 0.00000000E+00 0.00000000E+00
 2  7 6.28319833E-04-8.27660599E-06 2.82377002E-04 0.00000000E+00 1.94902384E-04
 2  8 6.28319833E-04-8.27660599E-06-2.82377002E-04 0.00000000E+00 1.94902384E-04
 3  1-1.14846586E-01 2.21404018E-01 1.19102894E-01 0.00000000E+00 0.00000000E+00
 3  2 2.01618940E-01 0.00000000E+00 0.00000000E+00-1.29084094E-02-1.75466072E-02
 3  3-1.28334876E-02 3.51023055E-02 0.00000000E+00 0.00000000E+00 0.00000000E+00
 3  4-2.09936802E-01 4.59701822E-01 3.02632433E-01 0.00000000E+00 0.00000000E+00
 3  5-1.54871249E-01 0.00000000E+00 0.00000000E+00 9.32525539E-03-8.99215001E-04
 3  6-6.65463938E-04 2.44543760E-02 0.00000000E+00 0.00000000E+00 0.00000000E+00
 3  7 3.05189760E-02-6.01137540E-03 5.47654653E-03 0.00000000E+00 3.28519441E-03
 3  8 3.05189760E-02-6.01137540E-03-5.47654653E-03 0.00000000E+00 3.28519441E-03
 4  1-1.66255828E-01 3.65749421E-01 2.40981421E-01 0.00000000E+00 0.00000000E+00
 4  2-2.12392067E-01 0.00000000E+00 0.00000000E+00-4.58598132E-02 2.56196421E-02
 4  3-3.40877374E-03 5.89423229E-04 0.00000000E+00 0.00000000E+00 0.00000000E+00
 4  4 9.50954868E-02-2.10153612E-01-2.44793786E-01 0.00000000E+00 0.00000000E+00
 4  5-1.72528521E-01 0.00000000E+00 0.00000000E+00-6.61812845E-02-3.31631828E-03
 4  6-1.37669520E-04 1.26891739E-02 0.00000000E+00 0.00000000E+00 0.00000000E+00
 4  7 1.75375045E-01 7.79696753E-02 1.34825785E-02 0.00000000E+00 6.78173371E-03
 4  8 1.75375045E-01 7.79696753E-02-1.34825785E-02 0.00000000E+00 6.78173371E-03
 5  1 0.00000000E+00 0.00000000E+00 0.00000000E+00 4.74432403E-01 0.00000000E+00
 5  2 0.00000000E+00 4.94097927E-02 0.00000000E+00 0.00000000E+00 0.00000000E+00
 5  3 0.00000000E+00 0.00000000E+00 0.00000000E+00-3.93988161E-03 0.00000000E+00
 5  4 0.00000000E+00 0.00000000E+00 0.00000000E+00 3.91480076E-01 0.00000000E+00
 5  5 0.00000000E+00 1.40367877E-01 0.00000000E+00 0.00000000E+00 0.00000000E+00
 5  6 0.00000000E+00 0.00000000E+00 0.00000000E+00-2.32649872E-02 0.00000000E+00
 5  7-1.74584184E-01-1.36263311E-01-1.03897975E-02 0.00000000E+00-6.88074292E-03
 5  8 1.74584184E-01 1.36263311E-01-1.03897975E-02 0.00000000E+00 6.88074292E-03
 6  1 1.86255815E-02-5.82902887E-02 3.54451620E-02 0.00000000E+00 0.00000000E+00
 6  2-4.30300453E-01 0.00000000E+00 0.00000000E+00 6.92895925E-03 2.30716535E-02
 6  3 3.06003052E-03-1.70027468E-02 0.00000000E+00 0.00000000E+00 0.00000000E+00
 6  4-7.41973991E-02 1.61108453E-01 3.14558193E-01 0.00000000E+00 0.00000000E+00
 6  5 5.72045764E-01 0.00000000E+00 0.00000000E+00 1.88966269E-01 9.37849290E-03
 6  6 7.19357518E-03-4.08385595E-02 0.00000000E+00 0.00000000E+00 0.00000000E+00
 6  7 9.04678998E-02 9.25750189E-02 5.50974189E-03 0.00000000E+00-5.36311860E-04
 6  8 9.04678998E-02 9.25750189E-02-5.50974189E-03 0.00000000E+00-5.36311860E-04
 7  1 0.00000000E+00 0.00000000E+00 0.00000000E+00 0.00000000E+00 3.92982329E-01
 7  2 0.00000000E+00 0.00000000E+00 1.17436654E-01 0.00000000E+00 0.00000000E+00
 7  3 0.00000000E+00 0.00000000E+00 0.00000000E+00 0.00000000E+00 3.97363680E-02
 7  4 0.00000000E+00 0.00000000E+00 0.00000000E+00 0.00000000E+00 5.62998019E-01
 7  5 0.00000000E+00 0.00000000E+00 2.72307996E-01 0.00000000E+00 0.00000000E+00
 7  6 0.00000000E+00 0.00000000E+00 0.00000000E+00 0.00000000E+00-4.02422458E-02
 7  7 0.00000000E+00 0.00000000E+00 0.00000000E+00 5.27439027E-03 0.00000000E+00
 7  8 0.00000000E+00 0.00000000E+00 0.00000000E+00 5.27439027E-03 0.00000000E+00
 8  1 0.00000000E+00 0.00000000E+00 0.00000000E+00-2.36422895E-01 0.00000000E+00
 8  2 0.00000000E+00 3.70627780E-02 0.00000000E+00 0.00000000E+00 0.00000000E+00
 8  3 0.00000000E+00 0.00000000E+00 0.00000000E+00 6.12375903E-02 0.00000000E+00
 8  4 0.00000000E+00 0.00000000E+00 0.00000000E+00 6.24505734E-01 0.00000000E+00
 8  5 0.00000000E+00 3.32956832E-01 0.00000000E+00 0.00000000E+00 0.00000000E+00
 8  6 0.00000000E+00 0.00000000E+00 0.00000000E+00-1.71243685E-02 0.00000000E+00
 8  7 1.81508667E-01 2.88123749E-01 5.64285556E-03 0.00000000E+00 4.51133369E-03
 8  8-1.81508667E-01-2.88123749E-01 5.64285556E-03 0.00000000E+00-4.51133369E-03
 9  1 0.00000000E+00 0.00000000E+00 0.00000000E+00 0.00000000E+00 4.48603719E-01
 9  2 0.00000000E+00 0.00000000E+00 7.39607262E-01 0.00000000E+00 0.00000000E+00
 9  3 0.00000000E+00 0.00000000E+00 0.00000000E+00 0.00000000E+00-3.25752544E-02
 9  4 0.00000000E+00 0.00000000E+00 0.00000000E+00 0.00000000E+00-4.15057964E-01
 9  5 0.00000000E+00 0.00000000E+00-5.15791623E-01 0.00000000E+00 0.00000000E+00
 9  6 0.00000000E+00 0.00000000E+00 0.00000000E+00 0.00000000E+00-2.81751173E-05
 9  7 0.00000000E+00 0.00000000E+00 0.00000000E+00 1.88262312E-02 0.00000000E+00
 9  8 0.00000000E+00 0.00000000E+00 0.00000000E+00 1.88262312E-02 0.00000000E+00
10  1-1.22313682E-01 2.14729528E-01 2.41895679E+00 0.00000000E+00 0.00000000E+00
10  2-2.83742344E-01 0.00000000E+00 0.00000000E+00-3.95452197E-01-3.33830267E-03
10  3 9.45578463E-03 1.46063612E-02 0.00000000E+00 0.00000000E+00 0.00000000E+00
10  4 2.55769653E-02 1.37703643E-02-4.52236306E-01 0.00000000E+00 0.00000000E+00
10  5 9.03397714E-02 0.00000000E+00 0.00000000E+00 2.87371454E-01 1.96283805E-02
10  6 3.29668975E-02 1.09756364E-02 0.00000000E+00 0.00000000E+00 0.00000000E+00
10  7-5.27021341E-02-1.53485838E+00 2.88858167E-03 0.00000000E+00-7.17678950E-03
10  8-5.27021341E-02-1.53485838E+00-2.88858167E-03 0.00000000E+00-7.17678950E-03
11  1-1.28899593E-02 3.65001451E-02 2.03578572E-01 0.00000000E+00 0.00000000E+00
11  2 4.43880725E-02 0.00000000E+00 0.00000000E+00 1.82905013E+00 3.13112630E-02
11  3 1.31630539E-02-3.25540527E-02 0.00000000E+00 0.00000000E+00 0.00000000E+00
11  4 1.01973443E-01 5.01618913E-03-1.57521028E+00 0.00000000E+00 0.00000000E+00
11  5 7.38310894E-02 0.00000000E+00 0.00000000E+00 2.77920647E-01 8.58677494E-02
11  6 8.23634449E-02 6.69415763E-02 0.00000000E+00 0.00000000E+00 0.00000000E+00
11  7 1.29984737E-02 6.03123898E-01-6.14795323E-03 0.00000000E+00 1.06190422E-02
11  8 1.29984737E-02 6.03123898E-01 6.14795323E-03 0.00000000E+00 1.06190422E-02
12  1 0.00000000E+00 0.00000000E+00 0.00000000E+00-5.55672656E-01 0.00000000E+00
12  2 0.00000000E+00 2.61197143E+00 0.00000000E+00 0.00000000E+00 0.00000000E+00
12  3 0.00000000E+00 0.00000000E+00 0.00000000E+00 6.19607971E-04 0.00000000E+00
12  4 0.00000000E+00 0.00000000E+00 0.00000000E+00-1.09887939E-01 0.00000000E+00
12  5 0.00000000E+00-5.20540765E-01 0.00000000E+00 0.00000000E+00 0.00000000E+00
12  6 0.00000000E+00 0.00000000E+00 0.00000000E+00 3.06001911E-02 0.00000000E+00
12  7 9.49214429E-02 1.24873844E+00 2.65918136E-02 0.00000000E+00 1.90587192E-02
12  8-9.49214429E-02-1.24873844E+00 2.65918136E-02 0.00000000E+00-1.90587192E-02
13  1 0.00000000E+00 0.00000000E+00 0.00000000E+00 7.18199862E-01 0.00000000E+00
13  2 0.00000000E+00 1.94342408E+00 0.00000000E+00 0.00000000E+00 0.00000000E+00
13  3 0.00000000E+00 0.00000000E+00 0.00000000E+00 1.22539238E-02 0.00000000E+00
13  4 0.00000000E+00 0.00000000E+00 0.00000000E+00-2.60115200E-01 0.00000000E+00
13  5 0.00000000E+00-4.67557442E-01 0.00000000E+00 0.00000000E+00 0.00000000E+00
13  6 0.00000000E+00 0.00000000E+00 0.00000000E+00-2.20279125E-02 0.00000000E+00
13  7-1.67619950E-02 2.07621346E+00-8.38464350E-03 0.00000000E+00-2.61493726E-02
13  8 1.67619950E-02-2.07621346E+00-8.38464350E-03 0.00000000E+00 2.61493726E-02
14  1 0.00000000E+00 0.00000000E+00 0.00000000E+00 0.00000000E+00-1.00072822E+00
14  2 0.00000000E+00 0.00000000E+00 1.07703242E+00 0.00000000E+00 0.00000000E+00
14  3 0.00000000E+00 0.00000000E+00 0.00000000E+00 0.00000000E+00 1.43682483E-03
14  4 0.00000000E+00 0.00000000E+00 0.00000000E+00 0.00000000E+00 7.13245704E-02
14  5 0.00000000E+00 0.00000000E+00-4.71882656E-02 0.00000000E+00 0.00000000E+00
14  6 0.00000000E+00 0.00000000E+00 0.00000000E+00 0.00000000E+00 5.01842211E-02
14  7 0.00000000E+00 0.00000000E+00 0.00000000E+00-2.07089165E-02 0.00000000E+00
14  8 0.00000000E+00 0.00000000E+00 0.00000000E+00-2.07089165E-02 0.00000000E+00
15  1-3.51073500E-02-6.48438995E-01 3.21381712E+00 0.00000000E+00 0.00000000E+00
15  2 6.89601081E-01 0.00000000E+00 0.00000000E+00-6.75212647E-01-1.49094089E-01
15  3-2.18957856E-02-1.17592175E-01 0.00000000E+00 0.00000000E+00 0.00000000E+00
15  4 6.69901188E-02-2.00856215E-01-7.17249487E-01 0.00000000E+00 0.00000000E+00
15  5-2.04320870E-02 0.00000000E+00 0.00000000E+00 9.53260725E-01-3.38863105E-02
15  6-3.50671388E-03-1.83260138E-02 0.00000000E+00 0.00000000E+00 0.00000000E+00
15  7-3.13686483E-01-7.14848878E-01-1.66124570E-02 0.00000000E+00-1.21221643E-02
15  8-3.13686483E-01-7.14848878E-01 1.66124570E-02 0.00000000E+00-1.21221643E-02
16  1 3.65229504E-02 8.32215801E-01-3.19266943E-01 0.00000000E+00 0.00000000E+00
16  2 4.39616729E-01 0.00000000E+00 0.00000000E+00 1.61090487E-02 1.33233018E-01
16  3 6.90277042E-03 2.37231094E-01 0.00000000E+00 0.00000000E+00 0.00000000E+00
16  4 4.16759102E-02-6.69015759E-02-4.02452860E-01 0.00000000E+00 0.00000000E+00
16  5-4.28780432E-01 0.00000000E+00 0.00000000E+00 1.43868802E+00-1.75597778E-02
16  6-3.26717171E-02-2.09603815E-02 0.00000000E+00 0.00000000E+00 0.00000000E+00
16  7 1.81466899E-01 6.43987362E-02-1.60503189E-02 0.00000000E+00-2.63421498E-02
16  8 1.81466899E-01 6.43987362E-02 1.60503189E-02 0.00000000E+00-2.63421498E-02
17  1 7.96823599E-02-6.65753122E-01 8.28367760E-01 0.00000000E+00 0.00000000E+00
17  2-7.03465135E-01 0.00000000E+00 0.00000000E+00 4.31855331E-01-2.20276377E-01
17  3-1.37117655E-01 2.40903190E-01 0.00000000E+00 0.00000000E+00 0.00000000E+00
17  4-3.81568206E-02 1.86594141E-01-2.56459889E-01 0.00000000E+00 0.00000000E+00
17  5-6.93528137E-01 0.00000000E+00 0.00000000E+00 2.40272321E-01 6.79089875E-02
17  6 7.87226819E-02-1.64797240E-01 0.00000000E+00 0.00000000E+00 0.00000000E+00
17  7-9.93671149E-02-3.64487676E-02 4.52843452E-02 0.00000000E+00-6.53060579E-02
17  8-9.93671149E-02-3.64487676E-02-4.52843452E-02 0.00000000E+00-6.53060579E-02
18  1 0.00000000E+00 0.00000000E+00 0.00000000E+00 0.00000000E+00 3.26114374E-02
18  2 0.00000000E+00 0.00000000E+00-5.23843046E-01 0.00000000E+00 0.00000000E+00
18  3 0.00000000E+00 0.00000000E+00 0.00000000E+00 0.00000000E+00-7.67145827E-02
18  4 0.00000000E+00 0.00000000E+00 0.00000000E+00 0.00000000E+00-9.26571347E-01
18  5 0.00000000E+00 0.00000000E+00 1.34011191E+00 0.00000000E+00 0.00000000E+00
18  6 0.00000000E+00 0.00000000E+00 0.00000000E+00 0.00000000E+00 2.21008398E-02
18  7 0.00000000E+00 0.00000000E+00 0.00000000E+00-1.24330720E-02 0.00000000E+00
18  8 0.00000000E+00 0.00000000E+00 0.00000000E+00-1.24330720E-02 0.00000000E+00
19  1 0.00000000E+00 0.00000000E+00 0.00000000E+00-2.93013054E-01 0.00000000E+00
19  2 0.00000000E+00-8.83177924E-01 0.00000000E+00 0.00000000E+00 0.00000000E+00
19  3 0.00000000E+00 0.00000000E+00 0.00000000E+00-2.52921193E-01 0.00000000E+00
19  4 0.00000000E+00 0.00000000E+00 0.00000000E+00-6.36027447E-01 0.00000000E+00
19  5 0.00000000E+00 1.39872044E+00 0.00000000E+00 0.00000000E+00 0.00000000E+00
19  6 0.00000000E+00 0.00000000E+00 0.00000000E+00 8.40019130E-02 0.00000000E+00
19  7-4.02176749E-01-5.71453717E-02 3.55218471E-02 0.00000000E+00 4.43161536E-02
19  8 4.02176749E-01 5.71453717E-02 3.55218471E-02 0.00000000E+00-4.43161536E-02
20  1 7.00828824E-02-9.92404974E-01 3.02372864E+00 0.00000000E+00 0.00000000E+00
20  2 3.43164839E-01 0.00000000E+00 0.00000000E+00-5.86688887E-01 1.94887953E-01
20  3-2.29662777E-01-5.63310980E-02 0.00000000E+00 0.00000000E+00 0.00000000E+00
20  4 3.89395334E-03 2.32853983E-01-8.06858823E-01 0.00000000E+00 0.00000000E+00
20  5-5.71361849E-02 0.00000000E+00 0.00000000E+00 2.88157916E-01 7.42201425E-02
20  6 8.25472080E-02 5.03993880E-02 0.00000000E+00 0.00000000E+00 0.00000000E+00
20  7 7.13936141E-01-1.59324665E+00-1.20840431E-01 0.00000000E+00-3.36916390E-02
20  8 7.13936141E-01-1.59324665E+00 1.20840431E-01 0.00000000E+00-3.36916390E-02
21  1 0.00000000E+00 0.00000000E+00 0.00000000E+00-2.88232308E-01 0.00000000E+00
21  2 0.00000000E+00 2.33701501E+00 0.00000000E+00 0.00000000E+00 0.00000000E+00
21  3 0.00000000E+00 0.00000000E+00 0.00000000E+00-2.52033919E-01 0.00000000E+00
21  4 0.00000000E+00 0.00000000E+00 0.00000000E+00 6.38429869E-01 0.00000000E+00
21  5 0.00000000E+00-1.15642938E+00 0.00000000E+00 0.00000000E+00 0.00000000E+00
21  6 0.00000000E+00 0.00000000E+00 0.00000000E+00 6.34258230E-02 0.00000000E+00
21  7-6.93287373E-01 2.18245684E+00 2.85247154E-02 0.00000000E+00 6.97482998E-02
21  8 6.93287373E-01-2.18245684E+00 2.85247154E-02 0.00000000E+00-6.97482998E-02
22  1 0.00000000E+00 0.00000000E+00 0.00000000E+00 0.00000000E+00 0.00000000E+00
22  2 0.00000000E+00 0.00000000E+00 0.00000000E+00 0.00000000E+00 0.00000000E+00
22  3 0.00000000E+00 0.00000000E+00 6.95698112E-01 0.00000000E+00 0.00000000E+00
22  4 0.00000000E+00 0.00000000E+00 0.00000000E+00 0.00000000E+00 0.00000000E+00
22  5 0.00000000E+00 0.00000000E+00 0.00000000E+00 0.00000000E+00 0.00000000E+00
22  6 0.00000000E+00 0.00000000E+00 1.68346974E-01 0.00000000E+00 0.00000000E+00
22  7 0.00000000E+00 0.00000000E+00 0.00000000E+00-3.32181484E-01 0.00000000E+00
22  8 0.00000000E+00 0.00000000E+00 0.00000000E+00 3.32181484E-01 0.00000000E+00
23  1-1.19284750E-02-1.13023100E-01-1.86424632E+00 0.00000000E+00 0.00000000E+00
23  2-3.27526869E-01 0.00000000E+00 0.00000000E+00-1.09270045E+00 2.63603904E-01
23  3-9.59088465E-02-1.18684749E-01 0.00000000E+00 0.00000000E+00 0.00000000E+00
23  4-6.07640235E-02-1.81569339E+00 4.59813143E+00 0.00000000E+00 0.00000000E+00
23  5-9.08596851E-02 0.00000000E+00 0.00000000E+00-9.21610561E-01-3.43195153E-01
23  6-4.35724820E-01-6.52362698E-01 0.00000000E+00 0.00000000E+00 0.00000000E+00
23  7 7.82229237E-02-8.23811143E-02 1.45245373E-02 0.00000000E+00 3.22035809E-02
23  8 7.82229237E-02-8.23811143E-02-1.45245373E-02 0.00000000E+00 3.22035809E-02
24  1 0.00000000E+00 0.00000000E+00 0.00000000E+00 0.00000000E+00-4.42528464E-02
24  2 0.00000000E+00 0.00000000E+00 2.19309948E-01 0.00000000E+00 0.00000000E+00
24  3 0.00000000E+00 0.00000000E+00 0.00000000E+00 0.00000000E+00 7.05813807E-01
24  4 0.00000000E+00 0.00000000E+00 0.00000000E+00 0.00000000E+00-1.94005718E-01
24  5 0.00000000E+00 0.00000000E+00-1.68025822E-01 0.00000000E+00 0.00000000E+00
24  6 0.00000000E+00 0.00000000E+00 0.00000000E+00 0.00000000E+00-3.58478608E-01
24  7 0.00000000E+00 0.00000000E+00 0.00000000E+00-2.39008749E-01 0.00000000E+00
24  8 0.00000000E+00 0.00000000E+00 0.00000000E+00-2.39008749E-01 0.00000000E+00
25  1-2.28216401E-02-1.14865755E-01 1.09180208E+00 0.00000000E+00 0.00000000E+00
25  2-5.41980736E-02 0.00000000E+00 0.00000000E+00-9.28219209E-02 4.67801420E-01
25  3-6.19868904E-01-7.11951461E-02 0.00000000E+00 0.00000000E+00 0.00000000E+00
25  4-3.46346875E-03 4.60146142E-01-9.23742177E-01 0.00000000E+00 0.00000000E+00
25  5-1.25208558E-01 0.00000000E+00 0.00000000E+00 3.52615865E-01 4.83166763E-01
25  6-3.65905695E-01 1.14914908E-01 0.00000000E+00 0.00000000E+00 0.00000000E+00
25  7-3.89894400E-01-1.14075716E-01 6.44101320E-03 0.00000000E+00 2.65794466E-01
25  8-3.89894400E-01-1.14075716E-01-6.44101320E-03 0.00000000E+00 2.65794466E-01
26  1 0.00000000E+00 0.00000000E+00 0.00000000E+00 1.90421427E-01 0.00000000E+00
26  2 0.00000000E+00 1.56181681E-01 0.00000000E+00 0.00000000E+00 0.00000000E+00
26  3 0.00000000E+00 0.00000000E+00 0.00000000E+00-4.43323676E-01 0.00000000E+00
26  4 0.00000000E+00 0.00000000E+00 0.00000000E+00 1.13340531E-01 0.00000000E+00
26  5 0.00000000E+00-1.03501599E-01 0.00000000E+00 0.00000000E+00 0.00000000E+00
26  6 0.00000000E+00 0.00000000E+00 0.00000000E+00 2.65169558E-01 0.00000000E+00
26  7 4.90201896E-01-2.64708528E-01-4.13279107E-01 0.00000000E+00 2.30908757E-01
26  8-4.90201896E-01 2.64708528E-01-4.13279107E-01 0.00000000E+00-2.30908757E-01
27  1-5.17796697E-02 5.57028832E-02 2.61614739E-01 0.00000000E+00 0.00000000E+00
27  2 3.84457892E-01 0.00000000E+00 0.00000000E+00 3.18284187E-01-1.74729765E-01
27  3-4.43144669E-01 5.02145035E-01 0.00000000E+00 0.00000000E+00 0.00000000E+00
27  4 3.03502702E-02-3.37763317E-01-1.87968576E-01 0.00000000E+00 0.00000000E+00
27  5 5.42116129E-01 0.00000000E+00 0.00000000E+00-2.71911004E-01 2.75536293E-01
27  6-4.55687563E-01 3.66579393E-02 0.00000000E+00 0.00000000E+00 0.00000000E+00
27  7 5.95166903E-02-2.67560525E-02 2.00232125E-01 0.00000000E+00-4.19798062E-01
27  8 5.95166903E-02-2.67560525E-02-2.00232125E-01 0.00000000E+00-4.19798062E-01
28  1 0.00000000E+00 0.00000000E+00 0.00000000E+00 0.00000000E+00 0.00000000E+00
28  2 0.00000000E+00 0.00000000E+00 0.00000000E+00 0.00000000E+00 0.00000000E+00
28  3 0.00000000E+00 0.00000000E+00 1.17373219E-01 0.00000000E+00 0.00000000E+00
28  4 0.00000000E+00 0.00000000E+00 0.00000000E+00 0.00000000E+00 0.00000000E+00
28  5 0.00000000E+00 0.00000000E+00 0.00000000E+00 0.00000000E+00 0.00000000E+00
28  6 0.00000000E+00 0.00000000E+00 8.89295330E-01 0.00000000E+00 0.00000000E+00
28  7 0.00000000E+00 0.00000000E+00 0.00000000E+00 3.25057849E-01 0.00000000E+00
28  8 0.00000000E+00 0.00000000E+00 0.00000000E+00-3.25057849E-01 0.00000000E+00
29  1 0.00000000E+00 0.00000000E+00 0.00000000E+00 1.11801054E-01 0.00000000E+00
29  2 0.00000000E+00-4.42974605E-01 0.00000000E+00 0.00000000E+00 0.00000000E+00
29  3 0.00000000E+00 0.00000000E+00 0.00000000E+00-1.73222073E-01 0.00000000E+00
29  4 0.00000000E+00 0.00000000E+00 0.00000000E+00 1.07486563E-01 0.00000000E+00
29  5 0.00000000E+00-2.05358105E-02 0.00000000E+00 0.00000000E+00 0.00000000E+00
29  6 0.00000000E+00 0.00000000E+00 0.00000000E+00 6.05376832E-01 0.00000000E+00
29  7 2.24538852E-01-4.90150069E-01 1.84554994E-01 0.00000000E+00-5.06041252E-01
29  8-2.24538852E-01 4.90150069E-01 1.84554994E-01 0.00000000E+00 5.06041252E-01
30  1 5.48184011E-02-1.13403145E-02-2.84283812E-01 0.00000000E+00 0.00000000E+00
30  2-2.22703260E-01 0.00000000E+00 0.00000000E+00-8.24723625E-02-6.71068539E-02
30  3 7.83887477E-01-2.81905859E-01 0.00000000E+00 0.00000000E+00 0.00000000E+00
30  4-4.11981024E-03 1.45459281E-01 9.79622895E-02 0.00000000E+00 0.00000000E+00
30  5-2.67946668E-01 0.00000000E+00 0.00000000E+00 1.05893292E-01 7.37951496E-01
30  6-5.53622918E-01-5.20298147E-02 0.00000000E+00 0.00000000E+00 0.00000000E+00
30  7 1.49330987E-01-1.02715663E-01-2.16174355E-01 0.00000000E+00-8.13940123E-02
30  8 1.49330987E-01-1.02715663E-01 2.16174355E-01 0.00000000E+00-8.13940123E-02
31  1 0.00000000E+00 0.00000000E+00 0.00000000E+00 0.00000000E+00-3.41988396E-01
31  2 0.00000000E+00 0.00000000E+00-2.19327259E-01 0.00000000E+00 0.00000000E+00
31  3 0.00000000E+00 0.00000000E+00 0.00000000E+00 0.00000000E+00 2.20154294E-01
31  4 0.00000000E+00 0.00000000E+00 0.00000000E+00 0.00000000E+00-9.51342191E-02
31  5 0.00000000E+00 0.00000000E+00 2.12905400E-01 0.00000000E+00 0.00000000E+00
31  6 0.00000000E+00 0.00000000E+00 0.00000000E+00 0.00000000E+00-3.97190870E-01
31  7 0.00000000E+00 0.00000000E+00 0.00000000E+00 6.94116808E-01 0.00000000E+00
31  8 0.00000000E+00 0.00000000E+00 0.00000000E+00 6.94116808E-01 0.00000000E+00
32  1 0.00000000E+00 0.00000000E+00 0.00000000E+00 0.00000000E+00 0.00000000E+00
32  2 0.00000000E+00 0.00000000E+00 0.00000000E+00 0.00000000E+00 0.00000000E+00
32  3 0.00000000E+00 0.00000000E+00 8.21908165E-01 0.00000000E+00 0.00000000E+00
32  4 0.00000000E+00 0.00000000E+00 0.00000000E+00 0.00000000E+00 0.00000000E+00
32  5 0.00000000E+00 0.00000000E+00 0.00000000E+00 0.00000000E+00 0.00000000E+00
32  6 0.00000000E+00 0.00000000E+00-4.45771966E-01 0.00000000E+00 0.00000000E+00
32  7 0.00000000E+00 0.00000000E+00 0.00000000E+00 6.02065282E-01 0.00000000E+00
32  8 0.00000000E+00 0.00000000E+00 0.00000000E+00-6.02065282E-01 0.00000000E+00
33  1 0.00000000E+00 0.00000000E+00 0.00000000E+00 0.00000000E+00 2.95445374E-01
33  2 0.00000000E+00 0.00000000E+00 8.47008846E-02 0.00000000E+00 0.00000000E+00
33  3 0.00000000E+00 0.00000000E+00 0.00000000E+00 0.00000000E+00 9.44526113E-01
33  4 0.00000000E+00 0.00000000E+00 0.00000000E+00 0.00000000E+00-1.11057922E-01
33  5 0.00000000E+00 0.00000000E+00-3.29687988E-01 0.00000000E+00 0.00000000E+00
33  6 0.00000000E+00 0.00000000E+00 0.00000000E+00 0.00000000E+00 1.03355745E+00
33  7 0.00000000E+00 0.00000000E+00 0.00000000E+00 2.08043176E-01 0.00000000E+00
33  8 0.00000000E+00 0.00000000E+00 0.00000000E+00 2.08043176E-01 0.00000000E+00
34  1-8.92587051E-02-1.04393691E-01 1.09909418E-01 0.00000000E+00 0.00000000E+00
34  2-7.10753140E-01 0.00000000E+00 0.00000000E+00-4.23208649E-01-4.43732288E-01
34  3-3.39746190E-01 4.59174551E-01 0.00000000E+00 0.00000000E+00 0.00000000E+00
34  4-8.70979365E-03-7.85463865E-01 1.57626084E+00 0.00000000E+00 0.00000000E+00
34  5 1.52515335E-01 0.00000000E+00 0.00000000E+00-6.51450577E-01-3.31996023E-01
34  6-4.16617830E-01 4.54668524E-01 0.00000000E+00 0.00000000E+00 0.00000000E+00
34  7-3.37118523E-03-4.10181113E-01-5.67637318E-01 0.00000000E+00 2.47987125E-01
34  8-3.37118523E-03-4.10181113E-01 5.67637318E-01 0.00000000E+00 2.47987125E-01
35  1 0.00000000E+00 0.00000000E+00 0.00000000E+00 9.30506361E-01 0.00000000E+00
35  2 0.00000000E+00 8.93979955E-01 0.00000000E+00 0.00000000E+00 0.00000000E+00
35  3 0.00000000E+00 0.00000000E+00 0.00000000E+00 2.41043208E-01 0.00000000E+00
35  4 0.00000000E+00 0.00000000E+00 0.00000000E+00-1.15621649E-02 0.00000000E+00
35  5 0.00000000E+00-5.02583707E-01 0.00000000E+00 0.00000000E+00 0.00000000E+00
35  6 0.00000000E+00 0.00000000E+00 0.00000000E+00 7.57860879E-01 0.00000000E+00
35  7 7.19597659E-02 9.02204241E-01 3.83362371E-01 0.00000000E+00 5.59264244E-01
35  8-7.19597659E-02-9.02204241E-01 3.83362371E-01 0.00000000E+00-5.59264244E-01
36  1 1.71847661E-02-1.15579601E+00-1.29018988E+00 0.00000000E+00 0.00000000E+00
36  2-1.08057126E+00 0.00000000E+00 0.00000000E+00 1.72302220E-02 2.45026390E-01
36  3 4.63846238E-01-9.27541966E-01 0.00000000E+00 0.00000000E+00 0.00000000E+00
36  4-5.90115733E-02-2.91506038E-01 2.03477120E+00 0.00000000E+00 0.00000000E+00
36  5-6.27085266E-01 0.00000000E+00 0.00000000E+00-1.02322264E+00-6.45944836E-01
36  6-6.72574787E-01 1.19890532E+00 0.00000000E+00 0.00000000E+00 0.00000000E+00
36  7 9.49595654E-02 2.98748672E-01 3.58700778E-01 0.00000000E+00-5.35142050E-02
36  8 9.49595654E-02 2.98748672E-01-3.58700778E-01 0.00000000E+00-5.35142050E-02
37  1-1.27748473E-01 7.41578070E-01 1.07828464E+00 0.00000000E+00 0.00000000E+00
37  2-7.60111286E-01 0.00000000E+00 0.00000000E+00 1.60408446E-02 8.98931106E-01
37  3-6.64107522E-01-7.36206498E-01 0.00000000E+00 0.00000000E+00 0.00000000E+00
37  4-1.02536843E-02 4.46210479E-01-4.45347371E-01 0.00000000E+00 0.00000000E+00
37  5-3.01375987E-01 0.00000000E+00 0.00000000E+00 1.06561168E-01-1.94988869E-01
37  6 1.36023514E-01 1.96511332E-01 0.00000000E+00 0.00000000E+00 0.00000000E+00
37  7-5.18084302E-01-4.26938251E-01-5.77362659E-01 0.00000000E+00-6.70164082E-01
37  8-5.18084302E-01-4.26938251E-01 5.77362659E-01 0.00000000E+00-6.70164082E-01
38  1 0.00000000E+00 0.00000000E+00 0.00000000E+00-8.16658884E-01 0.00000000E+00
38  2 0.00000000E+00 2.05262091E-01 0.00000000E+00 0.00000000E+00 0.00000000E+00
38  3 0.00000000E+00 0.00000000E+00 0.00000000E+00 1.49124242E+00 0.00000000E+00
38  4 0.00000000E+00 0.00000000E+00 0.00000000E+00-1.45611545E-01 0.00000000E+00
38  5 0.00000000E+00-2.59425282E-01 0.00000000E+00 0.00000000E+00 0.00000000E+00
38  6 0.00000000E+00 0.00000000E+00 0.00000000E+00 6.42752955E-01 0.00000000E+00
38  7-7.11322845E-01-1.12775442E-02-8.15896688E-01 0.00000000E+00-2.68067403E-01
38  8 7.11322845E-01 1.12775442E-02-8.15896688E-01 0.00000000E+00 2.68067403E-01
39  1-4.76585288E-01 2.57424552E+00 8.34731924E-01 0.00000000E+00 0.00000000E+00
39  2-5.45448651E-02 0.00000000E+00 0.00000000E+00-1.07084355E-01-2.02399806E+00
39  3-1.35834606E+00-2.01217676E+00 0.00000000E+00 0.00000000E+00 0.00000000E+00
39  4 2.94868531E-02 2.37254707E-02 2.49774077E-02 0.00000000E+00 0.00000000E+00
39  5-3.43591844E-01 0.00000000E+00 0.00000000E+00-2.30108675E-01 1.46906680E-01
39  6 7.43860758E-03 3.47035688E-01 0.00000000E+00 0.00000000E+00 0.00000000E+00
39  7 4.20426346E-01-2.11556814E-01 3.57653682E-01 0.00000000E+00 2.24473412E-01
39  8 4.20426346E-01-2.11556814E-01-3.57653682E-01 0.00000000E+00 2.24473412E-01
40  1-4.85583811E-02 1.91516605E-01-1.25887363E+00 0.00000000E+00 0.00000000E+00
40  2 2.01212294E-01 0.00000000E+00 0.00000000E+00-7.66478951E-01-3.43957444E-01
40  3-9.02557782E-02 2.47216686E-01 0.00000000E+00 0.00000000E+00 0.00000000E+00
40  4-5.41227360E-01 5.18396832E-03 4.71643517E+00 0.00000000E+00 0.00000000E+00
40  5 2.63462150E-01 0.00000000E+00 0.00000000E+00-6.54565888E-01-1.72132578E+00
40  6-1.76520809E+00-1.75223153E+00 0.00000000E+00 0.00000000E+00 0.00000000E+00
40  7 1.75663236E-01-7.48580360E-02 9.96380641E-03 0.00000000E+00 9.35316025E-02
40  8 1.75663236E-01-7.48580360E-02-9.96380641E-03 0.00000000E+00 9.35316025E-02
 $END

! TRAVIS-CI SMALL

