!  LiH...simultaneous optimization of X and A 1-sigma-plus states.
!
!  This job duplicates the results for R=3.0 in Table I of
!  H.-J.Werner, W.Meyer, J.Chem.Phys. 74, 5794-5801 (1981).
!  2 electrons in 4 sigma orbitals CAS-SCF type wavefunction
!
!  WSTATE=1.0,0.0 has E(1)= -8.008954503,  E(2)= -7.646815156
!      the paper says E(1)= -8.008949
!  WSTATE=0.5,0.5 has E(1)= -8.0077821194, E(2)= -7.8870458297  <---this run
!      the paper says E(1)= -8.007776      E(2)= -7.887040
!      there is a triplet state between these two, at -7.900769049
!
!  This run takes 0 seconds on any computer (19 Aug 2005)
!
 $CONTRL SCFTYP=MCSCF  RUNTYP=ENERGY  UNITS=BOHR $END
 $system mwords=1 memddi=0 $end
 $GUESS  GUESS=MOREAD NORB=5 $END
!     need to solve for an extra triplet state in between the singlets...
 $mcscf  cistep=aldet fullnr=.true. $end
 $det    ncore=1 nact=4 nels=2 nstate=3 wstate(1)=0.5,0.5 $end
 $DATA
MCSCF for LiH...modified Huzinaga basis set
CNV      4
 
LITHIUM     3.0        0.0                 0.0                 1.5
 S    5
    1 0.31941032E4  0.29071792E-3
    2 0.47903846E3  0.22503107E-2
    3 0.10855641E3  0.11773246E-1
    4 0.30271673E2  0.47953942E-1
    5 0.96608306E1  0.14835609E0
 S    1
    1 0.33927245D+01  1.0D+00
 S    1
    1 0.12752425D+01  1.0D+00
 S    1
    1 0.49758786D+00  1.0D+00
 S    1
    1 0.96955450D-01  1.0D+00
 S    1
    1 0.49762500D-01  1.0D+00
 S    1
    1 0.22853970D-01  1.0D+00
 P    2
    1 1.0             0.02857
    2 0.33            0.078488
 P    1
    1 0.11            1.0
 P    1
    1 0.045           1.0
 P    1
    1 0.018           1.0
 
HYDROGEN    1.0        0.0                 0.0                -1.50
 S    3
    1 68.1600         0.00255
    2 10.2465         0.01938
    3 2.34648         0.09280
 S    1
    1 0.673320        1.0
 S    1
    1 0.224660        1.0
 S    1
    1 0.082217        1.0
 S    1
    1 0.03            1.0
 P    1
    1 0.80            1.0
 P    1
    1 0.20            1.0
 
 $END
--- NATURAL ORBITALS OF MCSCF --- GENERATED AT 09:50:19 28 APR 89 (118)
MCSCF for LiH...modified Huzinaga basis set
E(MCSCF)=   -8.0089545028, E(NUC)=    1.0000000000,   22 ITERATIONS
 $VEC
 1  1 1.95436484E-01 3.20368934E-01 4.19224250E-01 2.08148083E-01 7.08467028E-03
 1  2-4.56271130E-03-2.18206316E-03 0.00000000E+00 0.00000000E+00 1.23429928E-02
 1  3 0.00000000E+00 0.00000000E+00-4.91980288E-03 0.00000000E+00 0.00000000E+00
 1  4 3.87033043E-03 0.00000000E+00 0.00000000E+00-1.08570678E-04 7.58921982E-05
 1  5 3.88282268E-04-8.24732165E-05-2.32443700E-03 3.63202610E-03 0.00000000E+00
 1  6 0.00000000E+00 1.16213315E-03 0.00000000E+00 0.00000000E+00 1.06184598E-03
 2  1-2.16731914E-02-3.81112223E-02-7.33909550E-02-6.29412487E-02 1.14062017E-01
 2  2 1.24989525E-01 2.59682040E-02 0.00000000E+00 0.00000000E+00-6.94470297E-02
 2  3 0.00000000E+00 0.00000000E+00-6.32421725E-02 0.00000000E+00 0.00000000E+00
 2  4-3.55822478E-02 0.00000000E+00 0.00000000E+00 2.06491121E-04 8.15457658E-02
 2  5 1.95920932E-01 3.27676279E-01 2.57825450E-01 4.68719416E-02 0.00000000E+00
 2  6 0.00000000E+00 9.82263903E-03 0.00000000E+00 0.00000000E+00 2.85620922E-02
 3  1-2.03623654E-02-4.04402296E-02-5.87697004E-02-1.20184760E-01 3.31577047E-01
 3  2 2.95937604E-01 6.95762758E-02 0.00000000E+00 0.00000000E+00-5.38726909E-02
 3  3 0.00000000E+00 0.00000000E+00-2.18754178E-01 0.00000000E+00 0.00000000E+00
 3  4-4.88170630E-02 0.00000000E+00 0.00000000E+00-1.53971888E-02-1.34203424E-01
 3  5-5.58964605E-01-5.39474868E-01 3.89904020E-01 7.75825744E-02 0.00000000E+00
 3  6 0.00000000E+00-2.75225740E-02 0.00000000E+00 0.00000000E+00 1.36416540E-02
 4  1 3.18289302E-02 3.43667664E-02 1.83679421E-01-5.26580165E-02-2.67449190E-01
 4  2 2.26715929E-01-5.28230107E-02 0.00000000E+00 0.00000000E+00 1.88477851E-01
 4  3 0.00000000E+00 0.00000000E+00-3.27792897E-02 0.00000000E+00 0.00000000E+00
 4  4-1.12275121E-02 0.00000000E+00 0.00000000E+00 1.16780246E-03 1.06242903E-03
 4  5-5.14600564E-02-8.12765882E-02 2.63131094E-01 8.50477503E-02 0.00000000E+00
 4  6 0.00000000E+00-3.14047587E-01 0.00000000E+00 0.00000000E+00-6.26922859E-01
 5  1 3.31093419E-03 2.26360267E-03 2.65553159E-02-9.96083757E-03-7.03353741E-01
 5  2-9.69269508E-02-1.82566401E-01 0.00000000E+00 0.00000000E+00 7.89955783E-02
 5  3 0.00000000E+00 0.00000000E+00 4.03341666E-01 0.00000000E+00 0.00000000E+00
 5  4-5.53645924E-02 0.00000000E+00 0.00000000E+00 6.99119404E-02-4.24414874E-01
 5  5-1.17461571E+00 2.35055991E+00-3.48267798E-01 2.97656967E-02 0.00000000E+00
 5  6 0.00000000E+00-4.72833352E-02 0.00000000E+00 0.00000000E+00 4.00160568E-01
 $END

! TRAVIS-CI SMALL

