!   this is a CH2NH2+ test case used in Columbus...from Aaron (4/2012)
!   1st orbital space is CH2 and NH2 sigma bonds, without any antibonds,
!                        so the first ORMAS subspace is doubly occupied.
!   2nd orbital space is CN's pi/pi*
!   3rd orbital space is CN's sigma/sigma*
!
!   The MCSCF ran for 7 iterations, the CP-MCHF for 6 iterations
!
!       STATE-SPECIFIC GRADIENT OF STATE   3 (OVERALL STATE   4)
!       ENERGY=      -93.6015651803 SPIN=  0.00 WEIGHT= 0.050000
!       UNITS ARE HARTREE/BOHR    E'X               E'Y               E'Z
!          1 N               -0.019019704       0.241648308      -0.324393030
!          2 C               -0.003448944      -0.043306500       0.435314522
!          3 H                0.052049827      -0.251571533      -0.145386912
!          4 H               -0.010836398       0.020811318      -0.026896958
!          5 H               -0.009617242      -0.021237165       0.011410981
!          6 H               -0.009127539       0.053655572       0.049951397
!
!       NONADIABATIC COUPLING MATRIX ELEMENT (NACME), IN ONE/BOHR
!       <STATE  2, WEIGHT=   0.05000 | D/DQ | STATE  1, WEIGHT=   0.90000>
!         ATOM               D/DX           D/DY           D/DZ
!          1 N               0.0429180     -0.0002847      0.2372465
!          2 C               0.0413341     -0.0175498      0.1764592
!          3 H              -0.0048181     -0.0409116     -0.0021023
!          4 H              -0.0131474      0.0289883     -0.0199986
!          5 H              -0.0089250      0.0072620     -0.0148161
!          6 H              -0.0180977     -0.0091622     -0.0164083
!
!   This run takes 33 seconds on 2.66 GHz Cloverton (27 Apr 2015)
!
 $contrl icharg=+1 mult=1 scftyp=mcscf runtyp=nacme ispher=1 $end
 $system mwords=100 memddi=30 $end
 $guess  guess=moread norb=36 $end
 $basis  GBASIS=N31 NGAUSS=6 NDFUNC=1 $end
 $statpt opttol=1.0d-6 $end
 $MCSCF  cistep=ormas fullnr=.t. $end
 $det    iroot=1 nstate=18 clobbr=.false. WSTATE(1)=90,5,5 mxxpan=50 $end
 $CPMCHF cptol=1E-06 maxit=140 gcrodr=.t. micit=80 kicit=10 $END
!            this is scenario "a"
 $cpmchf prcchg=.true. $end
 $det    ncore=2 nact=8 nels=12 $end
 $ORMAS  nspace=3 mstart(1)=3,7,9 mine(1)=8,2,2 maxe(1)=8,2,2 $end
!            this is scenario "b"
x$cpmchf prcchg=.false. $end
x$det    ncore=6 nact=4 nels=4 $end
x$ormas  nspace=2 mstart(1)=7,9   mine(1)=2,2   maxe(1)=2,2 $end

 $DATA
GAMESS input generated by Newton-X
C1
N       7.00000000    0.07140428   -0.12186213    0.62786450
C       6.00000000    0.09424197   -0.00354587   -0.65158492
H       1.00000000   -0.09646440    0.65509082    0.90799772
H       1.00000000   -0.01500226   -0.99751711    1.08980660
H       1.00000000    0.16516864    0.95350672   -1.02960958
H       1.00000000    0.23135525   -0.87295647   -1.10349831
 $END

We can optimize IROOT=1 to get an additional idea about which of the
two gradients computed is more correct.  Arrow marks lowest energy.

This is trial "a", with three active spaces:
 NSERCH:  0  E= -94.3758844874  GRAD. MAX=  0.2295713  R.M.S.=  0.0866494
 NSERCH:  1  E= -94.4177488009  GRAD. MAX=  0.0790472  R.M.S.=  0.0299229
 NSERCH:  2  E= -94.4320782213  GRAD. MAX=  0.0195014  R.M.S.=  0.0097563
 NSERCH:  3  E= -94.4330148767  GRAD. MAX=  0.0266287  R.M.S.=  0.0108556
 NSERCH:  4  E= -94.4325778974  GRAD. MAX=  0.0544839  R.M.S.=  0.0175804
 NSERCH:  5  E= -94.4361296352  GRAD. MAX=  0.0068359  R.M.S.=  0.0027846
 NSERCH:  6  E= -94.4336507063  GRAD. MAX=  0.0161977  R.M.S.=  0.0072222
 NSERCH:  7  E= -94.4356620000  GRAD. MAX=  0.0050034  R.M.S.=  0.0023612
 NSERCH:  8  E= -94.4339777549  GRAD. MAX=  0.0304053  R.M.S.=  0.0099968
 NSERCH:  9  E= -94.4357502370  GRAD. MAX=  0.0136326  R.M.S.=  0.0051081
 NSERCH: 10  E= -94.4359278402  GRAD. MAX=  0.0074814  R.M.S.=  0.0042447
 NSERCH: 11  E= -94.4357079904  GRAD. MAX=  0.0199321  R.M.S.=  0.0074869
 NSERCH: 12  E= -94.4360549216  GRAD. MAX=  0.0164640  R.M.S.=  0.0049917
 NSERCH: 13  E= -94.4362916442  GRAD. MAX=  0.0061816  R.M.S.=  0.0017143
 NSERCH: 14  E= -94.4362872256  GRAD. MAX=  0.0045616  R.M.S.=  0.0015370
 NSERCH: 15  E= -94.4363231148  GRAD. MAX=  0.0013013  R.M.S.=  0.0004402
 NSERCH: 16  E= -94.4363253081  GRAD. MAX=  0.0005727  R.M.S.=  0.0002236
 NSERCH: 17  E= -94.4363259183  GRAD. MAX=  0.0013484  R.M.S.=  0.0005824
 NSERCH: 18  E= -94.4363195894  GRAD. MAX=  0.0007179  R.M.S.=  0.0002503
 NSERCH: 19  E= -94.4363233146  GRAD. MAX=  0.0004329  R.M.S.=  0.0001713
 NSERCH: 20  E= -94.4363139824  GRAD. MAX=  0.0013709  R.M.S.=  0.0006461
 NSERCH: 21  E= -94.4363252261  GRAD. MAX=  0.0011500  R.M.S.=  0.0003658
 NSERCH: 22  E= -94.4363136082  GRAD. MAX=  0.0009050  R.M.S.=  0.0003451
 NSERCH: 23  E= -94.4363205853  GRAD. MAX=  0.0009373  R.M.S.=  0.0003258
 NSERCH: 24  E= -94.4362273998  GRAD. MAX=  0.0083040  R.M.S.=  0.0027239
 NSERCH: 25  E= -94.4363246534  GRAD. MAX=  0.0004069  R.M.S.=  0.0001752
 NSERCH: 26  E= -94.4363251530  GRAD. MAX=  0.0011334  R.M.S.=  0.0003672
 NSERCH: 27  E= -94.4363224106  GRAD. MAX=  0.0010080  R.M.S.=  0.0003306
 NSERCH: 28  E= -94.4363239935  GRAD. MAX=  0.0005313  R.M.S.=  0.0002259
 NSERCH: 29  E= -94.4363227297  GRAD. MAX=  0.0007260  R.M.S.=  0.0002679
 NSERCH: 30  E= -94.4363213732  GRAD. MAX=  0.0003767  R.M.S.=  0.0001414
         job canceled since it doesn't seem to be finishing.

This is trial "b", with six filled orbitals (two active spaces)
 NSERCH:  0  E= -94.3758844874  GRAD. MAX=  0.2295031  R.M.S.=  0.0867116
 NSERCH:  1  E= -94.4177088576  GRAD. MAX=  0.0789743  R.M.S.=  0.0299689
 NSERCH:  2  E= -94.4321012012  GRAD. MAX=  0.0192774  R.M.S.=  0.0096994
 NSERCH:  3  E= -94.4330466095  GRAD. MAX=  0.0258485  R.M.S.=  0.0107386
 NSERCH:  4  E= -94.4326173915  GRAD. MAX=  0.0535326  R.M.S.=  0.0172611
 NSERCH:  5  E= -94.4361209301  GRAD. MAX=  0.0071319  R.M.S.=  0.0028250
 NSERCH:  6  E= -94.4339244479  GRAD. MAX=  0.0153160  R.M.S.=  0.0066133
 NSERCH:  7  E= -94.4358087856  GRAD. MAX=  0.0052869  R.M.S.=  0.0023413
 NSERCH:  8  E= -94.4328190608  GRAD. MAX=  0.0196869  R.M.S.=  0.0099401
 NSERCH:  9  E= -94.4358937877  GRAD. MAX=  0.0055286  R.M.S.=  0.0029298
 NSERCH: 10  E= -94.4317706411  GRAD. MAX=  0.0353697  R.M.S.=  0.0145464
 NSERCH: 11  E= -94.4354655573  GRAD. MAX=  0.0117160  R.M.S.=  0.0049546
 NSERCH: 12  E= -94.4355304090  GRAD. MAX=  0.0274547  R.M.S.=  0.0099589
 NSERCH: 13  E= -94.4362651485  GRAD. MAX=  0.0021407  R.M.S.=  0.0011745
 NSERCH: 14  E= -94.4363071636  GRAD. MAX=  0.0033740  R.M.S.=  0.0010334
 NSERCH: 15  E= -94.4363291244  GRAD. MAX=  0.0006994  R.M.S.=  0.0002524
 NSERCH: 16  E= -94.4363305909  GRAD. MAX=  0.0003087  R.M.S.=  0.0001205
 NSERCH: 17  E= -94.4363312130  GRAD. MAX=  0.0000648  R.M.S.=  0.0000253 <---
 NSERCH: 18  E= -94.4363311731  GRAD. MAX=  0.0000325  R.M.S.=  0.0000116
 NSERCH: 19  E= -94.4363311914  GRAD. MAX=  0.0000011  R.M.S.=  0.0000004
 NSERCH: 20  E= -94.4363311998  GRAD. MAX=  0.0000005  R.M.S.=  0.0000002

things to note:
1) the energy at the initial geometry is identical
2) different gradients mean different walks toward the minima
3) the search is a bit wobbly in the middle, that may have to do with the
initial guess hessian used, or something (prob. irrelevant) like that.
Step 5 is already close to the final answer, before it hunts around a 
while.  Trial 'b' shoots up higher than trial a at step 8 and 10!
4) trial 'a' takes 2900 s.conds, while trial 'b' takes 235.
5) trial 'a' is not as satisfactory as trial 'b' since it never gets
to -94.43633 (just -94.43632).
 $VEC   
 1  1 1.00853862E+00-9.68668727E-03 2.97139474E-03 4.26339652E-04-1.43816486E-02
 1  2-4.52408021E-02 1.45449659E-03 3.94805145E-03-5.52640885E-03 1.06141606E-03
 1  3-1.96421296E-03 9.02796900E-04 1.08408201E-04 2.56551538E-04 3.41566650E-04
 1  4-4.72497972E-03-6.58696355E-03 3.38109637E-05 3.06563983E-04-1.33970276E-03
 1  5 4.13099910E-03 1.44191396E-04-3.05558541E-03 3.60971747E-03 1.05985079E-03
 1  6 5.65237079E-04-1.62508787E-03-2.93205659E-05 1.38119148E-04 2.19676857E-04
 1  7-1.54445619E-02 3.41279532E-03-1.35703497E-02 2.71982907E-03-2.03669851E-03
 1  8-2.09435827E-04-2.48042667E-03-2.60982809E-03
 2  1 9.83149891E-03-9.48951462E-03 9.45696995E-04-6.08602020E-05-1.42871045E-03
 2  2-6.05218343E-03 8.07162115E-04 2.61245473E-04-1.94348830E-03 1.38566127E-03
 2  3-2.28124875E-04-1.15753640E-03 1.47338976E-04 1.55212447E-04 1.96555167E-04
 2  4 1.00485886E+00 3.73268812E-03-1.58645126E-03-4.14370227E-04 1.13275238E-02
 2  5-2.94941977E-02-8.45421744E-04-9.18273693E-04 3.14851578E-03 3.76988126E-04
 2  6-1.67523863E-03 1.29825050E-03 1.07997551E-04 1.45716172E-04-1.52956557E-04
 2  7-3.25273470E-03 1.16061692E-03-3.49485407E-03-1.97177666E-04-1.12890852E-02
 2  8-6.63339590E-04-1.16858617E-02-9.81897994E-04
 3  1-1.18299793E-01 4.27400308E-01-4.89263454E-02 8.07680833E-02 1.34582619E-01
 3  2 3.67608162E-01-1.83208372E-02-1.77001868E-02 7.80660640E-02-2.06107256E-02
 3  3 2.86361212E-02-8.02539561E-03-5.97711998E-03-4.24711673E-03-1.08798052E-03
 3  4-2.77647250E-02 1.23948560E-01-1.42964357E-03 3.03903816E-03 1.12872353E-02
 3  5 5.34114519E-02-2.35101188E-03 2.67599845E-02-2.11452497E-02-1.24139620E-02
 3  6 2.77326986E-04 1.21366350E-02 3.06971444E-04-2.62679052E-03 7.17062747E-04
 3  7 2.12051521E-01-4.40116332E-03 1.26825604E-01-1.66165837E-02 4.26336231E-02
 3  8 3.86151752E-03 4.69766851E-02 2.99763178E-02
 4  1-2.14607532E-02 5.18745376E-02-4.23831236E-02 3.64909306E-01 7.11047333E-02
 4  2 4.84810182E-02-8.83665509E-03 1.64027764E-01 8.39568015E-03 2.44926426E-03
 4  3 1.41393138E-02-1.65885780E-02-9.96695277E-03-3.10997074E-04 9.65682881E-03
 4  4 9.76113343E-02-2.72321378E-01-3.22136844E-02 1.06073459E-01 1.26997912E-01
 4  5-2.52499138E-01-1.23850925E-02 2.49117732E-02 3.46988170E-02 1.26112534E-02
 4  6-2.65450966E-02 1.39338432E-02 2.54209924E-03 1.73183569E-03 6.38560372E-03
 4  7 2.04820290E-01 2.64077461E-04-1.15717249E-01-1.57037691E-02-1.00391373E-01
 4  8-3.26880044E-02-1.82065387E-01-4.81662752E-02
 5  1 3.74583442E-02-1.16458123E-01-2.31008048E-02 3.59858998E-01-9.87144247E-02
 5  2-2.26730157E-01-9.02414959E-03 1.82977770E-01-2.37922004E-02 2.05765190E-03
 5  3-7.18615376E-03 5.12850187E-03-6.56123710E-03 1.15009761E-03 8.39930130E-03
 5  4-9.71791244E-02 2.54179709E-01 1.16017408E-02 1.05971788E-01-9.82249755E-02
 5  5 2.72148774E-01-1.04493402E-03 2.54970200E-02-9.99055612E-03-1.39444274E-02
 5  6 2.16056918E-02-7.66126445E-03 8.25761484E-05-3.64728284E-03 1.14593014E-02
 5  7 1.10320272E-01 2.96285769E-03-2.03308837E-01-8.73075301E-03 1.62365816E-01
 5  8 4.55521658E-02 9.50881755E-02 3.08389747E-02
 6  1-2.24811256E-03 9.67995845E-03 1.88567213E-01-1.54662835E-01 2.22324346E-02
 6  2 4.12120938E-02 1.33670767E-01-9.82581868E-02 1.56326148E-02-2.65493524E-03
 6  3 2.78806588E-03-1.33130638E-04 8.46057286E-03-5.51359303E-03-2.69908535E-02
 6  4 3.71554735E-05 1.74850413E-03 6.58852690E-02 4.46120644E-01 2.49228161E-02
 6  5 2.10052446E-02 2.35022385E-02 2.62487273E-01 2.16626706E-02-3.94303177E-04
 6  6 3.61195754E-03-3.21765437E-03 9.48889804E-03 1.14403599E-02-2.20218997E-02
 6  7-9.88002719E-02-3.72569463E-02 9.12737891E-02 4.24660632E-02 2.30580919E-01
 6  8 8.07964815E-02-2.22333869E-01-7.20076488E-02
 7  1-1.19915126E-02 3.42003782E-02 5.03599469E-01 1.04743560E-01 7.01075527E-02
 7  2 2.65328647E-02 3.76801278E-01 7.98594369E-02 4.90759088E-02-5.70227817E-03
 7  3 5.53986757E-03 1.62410598E-04 6.66076435E-03-2.68013024E-02 8.61587020E-03
 7  4 1.07117841E-02-2.22131039E-02 2.50787426E-01-1.38385219E-01-2.66940813E-02
 7  5-1.31312340E-02 1.21277355E-01-8.04930932E-02-4.54190899E-03 1.31862652E-03
 7  6-1.05237472E-03-2.66251801E-04-5.79555936E-03 3.32467401E-02 1.41169182E-02
 7  7 2.83266747E-02 1.47134630E-02-4.49724384E-02-1.37547361E-02-7.16016558E-02
 7  8-2.96464998E-02 8.77174677E-02 2.85548665E-02
 8  1 4.25567753E-03-6.57495444E-03-3.52247384E-01-8.55458897E-03-4.74038555E-02
 8  2-3.23807729E-02-4.20649272E-01-2.21735865E-02-4.74113401E-02 4.60661737E-03
 8  3-9.74599885E-04-3.63201748E-03-1.41769559E-03-3.28430791E-02 1.43710003E-03
 8  4 1.36466724E-02-2.76725515E-02 5.34583786E-01 3.00017175E-02 4.82329834E-02
 8  5-8.02355664E-02 6.13824444E-01 7.83204166E-03 3.28063972E-02 1.22281816E-03
 8  6-1.22352884E-03 7.10681540E-07 1.09190310E-04 2.37633605E-03-4.02146339E-03
 8  7 2.49853886E-02-1.03838118E-02 1.89835773E-02 2.42094429E-02 2.77074412E-02
 8  8 1.60033345E-02 1.42299110E-02 2.77504142E-03
 9  1 6.38744727E-02-1.38102723E-01-7.28989703E-02 1.59296872E-02 5.13171827E-01
 9  2-1.15156494E-01-4.13901580E-02 1.27748543E-03 2.39906608E-01 4.48297278E-03
 9  3 1.44263720E-02-1.89093447E-02-1.89820052E-03-3.67830040E-03 8.15910312E-03
 9  4 5.47113073E-02-1.03046516E-01 9.51630093E-03 2.53364597E-02-3.98527645E-01
 9  5 8.77638079E-02 4.20553130E-03-2.89037033E-03-4.96416286E-02 1.04605460E-02
 9  6 2.62060197E-02-3.66665657E-02-9.06596401E-04-3.85774743E-03 8.95435115E-03
 9  7 7.54127440E-02 3.34866759E-02 7.76900981E-02 2.34862550E-02 7.00179310E-02
 9  8 4.94121643E-02 7.77130432E-02 6.03735360E-02
10  1 7.47702598E-02-3.81007511E-01-7.12128010E-02 3.62080588E-03 7.94990752E-01
10  2-5.04836938E-01 3.08470102E-02-8.19012999E-03 3.06221905E-01-2.05193014E-02
10  3-2.50848834E-02 4.56041849E-02-3.11071560E-04 4.52453954E-03 5.42459718E-03
10  4-9.81839962E-02 4.27780788E-01-1.27514045E-02-6.15871422E-02 8.25688097E-01
10  5 5.90084565E-01-4.80523273E-03-6.26366644E-02 3.98777471E-01-5.52605120E-03
10  6-1.18434121E-02 1.73694633E-02-1.88734421E-03-1.52230053E-03-8.98051193E-03
10  7-5.38246340E-02-9.83872805E-02-6.53758895E-03-6.63969819E-02-2.57072756E-02
10  8 6.76095992E-03-2.34553306E-02-4.00989316E-02
11  1 9.05179404E-02-1.52349763E-01 3.77592453E-02 1.34411025E-01-1.42240217E-01
11  2-1.48094537E+00 1.32060979E-01 3.06131539E-01-4.09432811E-01-2.84541572E-03
11  3 1.51309053E-02-1.22854896E-02 3.56358157E-04 2.76763030E-03-1.18875893E-02
11  4 2.86421370E-02-5.90019863E-02-1.11190693E-02 3.01000363E-02 6.01370635E-02
11  5-5.79348190E-01-8.61193074E-02 6.90528140E-02 2.48803361E-01-2.20013681E-03
11  6 5.47677854E-03-3.27664173E-03-1.21971972E-03 2.11594483E-03 1.31584093E-02
11  7 5.34566398E-02 6.76063533E-01 1.18953163E-01 1.48656688E+00-2.05238702E-02
11  8 1.67774436E-01 2.29302241E-02 5.37487000E-01
12  1 1.71305487E-02-5.43329739E-03 1.24024495E-02-2.34924400E-01-8.55759545E-03
12  2-7.91399920E-01 1.09656000E-01-9.17175539E-01-2.65742713E-02 1.00065562E-02
12  3-4.92007374E-03-5.08648244E-03 3.13438224E-03 7.90565672E-04 2.48051808E-02
12  4 5.50478452E-02-9.02359544E-02-7.11062307E-04-1.48500309E-01 4.73271531E-02
12  5-7.25164258E-01-4.99917300E-02-4.22594834E-01 3.41197376E-01-1.26541738E-03
12  6 7.84994977E-03-6.58453239E-03-2.20181147E-03 3.20491218E-04-1.20373596E-02
12  7 3.66926761E-02 1.84596106E+00-7.48396675E-02-9.93483030E-01 3.48116183E-02
12  8 1.07034910E+00 8.23937125E-03 2.03633343E-02
13  1 4.84670573E-02-6.54786894E-02 2.22709920E-02-7.55536740E-02-7.72914657E-02
13  2-1.07831146E+00 2.84669469E-02-3.44127703E-01 2.74934380E-02 1.22050437E-02
13  3-1.29156424E-02 7.10598684E-04 2.21020563E-03-4.98010262E-03 3.85203380E-03
13  4-1.00769329E-01 1.30874568E-01 5.43939250E-02-5.10518643E-02-1.35730135E-01
13  5 2.10611687E+00 2.10964598E-01-2.17657216E-01-5.07642245E-01 3.34798638E-03
13  6-9.31386263E-03 5.96587626E-03-1.94539476E-03 9.63751867E-04-1.61286387E-03
13  7-4.73123879E-03 1.33884012E+00 1.03189204E-02 1.24577765E-01-6.24667596E-02
13  8-1.16843049E+00-3.68649121E-02-1.73976539E+00
14  1 2.02809580E-03-7.77467897E-03 8.40376367E-03-1.52214337E-01 6.59899678E-03
14  2-1.47218204E-01 3.60492490E-02-9.46700138E-01-1.12825173E-02 6.86156146E-03
14  3 4.65391590E-04-7.32695305E-03-1.31655014E-03-3.71037928E-04-3.15169366E-02
14  4 5.97898168E-04-1.70479610E-02 1.85458904E-03 3.10111189E-01-8.48515379E-03
14  5-5.21601048E-02-6.88261440E-02 1.96191051E+00 1.35887415E-01 2.33414761E-03
14  6-2.40250739E-03 6.83597794E-05-5.72120675E-03-4.92200969E-04 1.94567723E-02
14  7-1.22216231E-02 9.60145825E-01 2.04610695E-02-8.41549786E-01-3.33700143E-02
14  8-2.05110354E+00 1.44360839E-02 2.08151342E+00
15  1 4.91746715E-03 6.67467824E-02-9.82697488E-03 5.08425715E-02 1.00375082E-01
15  2-1.41372265E+00-9.76316573E-03-1.41712091E-01 6.39807860E-01 6.17567433E-02
15  3 6.52996964E-02-1.27056440E-01-8.14131573E-04 8.27847858E-03 2.22551681E-02
15  4-2.38166133E-02-3.03074036E-01 9.63493920E-03 5.31492650E-02-5.92062259E-01
15  5 1.63224362E+00-8.75648630E-02-1.99944948E-01 2.19951716E+00-3.45583125E-02
15  6 2.45459276E-02 1.00123849E-02 9.71698151E-05-1.45679508E-03-6.86840455E-03
15  7 1.58142016E-01-6.71263308E-01-1.10240116E-02-2.84727354E-01 1.73327467E-01
15  8 9.73792845E-02 1.19222192E-01-5.16511061E-02
16  1-1.11593704E-03 4.52366953E-02-9.20485135E-02-4.57889638E-02-3.76189561E-01
16  2-7.60386975E-01-1.56899090E-01 3.61520605E-01 1.89586397E+00 9.57641741E-02
16  3-7.54925780E-02-2.02715961E-02 2.04639677E-03 3.30527643E-02 6.29928417E-02
16  4 8.72489710E-03-4.40795544E-02-3.57168373E-01 1.98986176E-01 4.66128598E-02
16  5 1.67883034E+00 4.13377890E-01-8.46165260E-01 1.13260874E+00-3.40357921E-02
16  6-4.83752057E-02 8.24109978E-02 1.97399623E-02-2.39924127E-02-6.53842569E-02
16  7-3.38232850E-01-6.57062446E-01-5.31482223E-01 2.17813306E-03 1.66572840E-01
16  8 3.47207445E-01-1.54725443E-01-1.25720066E-01
17  1 8.32524692E-03-5.32121027E-02-3.28839458E-01-1.10921990E-02 7.87356720E-02
17  2 1.66412208E-01 2.70411951E-01-1.39832672E-01-5.99432277E-01-3.47218822E-02
17  3 3.67762991E-02-2.05441695E-03-1.18059826E-02 8.08710628E-02-2.92944913E-02
17  4-1.37124559E-02 9.02572076E-03-8.76869290E-01-1.56197419E-01-8.50249969E-02
17  5-3.49665326E-01 9.13919205E-01 5.02059539E-01-3.40637071E-01 2.00702226E-02
17  6 5.19658061E-04-2.05898807E-02-3.96626558E-03-5.12501482E-02 2.86147632E-02
17  7 1.25158026E-01 2.72957975E-01 2.42499989E-01-1.11626173E-02-1.54749695E-01
17  8-2.56420773E-01 2.49607463E-02 4.55718751E-02
18  1 9.01916256E-03 1.81405936E-01 8.09071228E-02-5.83644029E-02-3.18580858E-01
18  2-3.42402786E-01-1.57526189E-01 2.42046420E-01 1.01829887E+00-3.25965700E-02
18  3 2.05774502E-02 1.20191198E-02 1.20233652E-02 2.95170869E-03-8.09289003E-02
18  4 2.88846484E-02 5.98609808E-01 1.28444677E-02-4.05443687E-01 1.41717052E-02
18  5-4.65366099E-01-1.43634702E-01 1.24802389E+00 9.44809466E-01-9.74016412E-02
18  6 3.12156066E-02 6.61860346E-02-2.58970993E-02-8.54464458E-03 7.12733121E-02
18  7-2.04661937E-01-6.41383548E-01 2.88557554E-01-1.99850405E-01 1.87523708E-02
18  8-1.51909846E-01 6.14342333E-01 8.48920400E-01
19  1-3.39501507E-03-1.41084403E-01 3.72016257E-02-7.63495774E-02-2.33072633E-02
19  2-1.20601836E-01-2.28721587E-01 4.06216179E-01 7.72699664E-01 1.13193842E-01
19  3-3.18530270E-02-8.13408152E-02 2.34632683E-02-9.32742069E-03-6.14302731E-02
19  4-3.50591877E-02-1.02697856E+00 1.08501327E-01-3.14534621E-01-9.03083307E-02
19  5 2.54360381E+00-8.55409118E-03 8.97464390E-01 6.70391844E-01 1.06124527E-01
19  6-1.35679555E-01 2.95550281E-02-6.34336227E-03 1.00387168E-02 6.45943089E-02
19  7-3.06544530E-01-1.01285228E+00-1.21186123E-02-1.38455149E-02-6.83795269E-01
19  8-3.24580757E-01-1.38767063E-01 1.79493508E-01
20  1 8.58073929E-03-1.36848094E-02-8.94920469E-01-2.86679721E-02-1.37754559E-01
20  2-1.96181248E-01 1.26137741E+00-1.02107237E-01 2.93564019E-01 3.66180638E-03
20  3 2.65770480E-03-6.31951118E-03-1.43982171E-02 7.50289563E-03-7.12651624E-04
20  4 6.51196151E-03-2.52392855E-02 4.02153732E-01-4.00983047E-02 2.22023753E-02
20  5 2.46530393E-01-8.51484166E-01 1.89160935E-01 1.18703102E-01-1.29014476E-02
20  6-5.41844784E-03 1.83198954E-02-1.83006606E-03-3.94677166E-02-5.45157513E-03
20  7 4.55307122E-02 2.10322941E-02 3.95556302E-03-7.21559700E-02-6.56700134E-03
20  8-1.07041821E-01 2.08303804E-02 1.36965095E-01
21  1 6.40973869E-02-2.24134452E-01 5.94376052E-02 5.40606692E-01-3.96628867E-01
21  2-9.30742956E-01-7.09065756E-02-9.01125015E-01 1.49282490E+00-8.16891499E-02
21  3 1.23329082E-01-4.16399323E-02 1.77130133E-02-1.39715101E-02-1.33911347E-01
21  4-1.70611664E-02-2.05664385E-01-1.48939859E-02 4.44183421E-01 1.57454144E-01
21  5 2.02311811E+00 4.89894847E-02-1.31132401E+00 8.53742638E-01 3.53170907E-03
21  6-6.73756665E-02 6.38439574E-02 8.72720866E-03 1.29897551E-02 7.31422757E-02
21  7 1.70376585E-01 2.17436010E-01 6.87515739E-01-1.61752136E+00-1.83796920E-01
21  8 8.26673652E-01-8.35705446E-02-8.23118893E-01
22  1 2.44505875E-02-5.95964942E-02 7.18568807E-02 4.76417401E-01-1.55604855E-01
22  2-5.87728248E-01-2.63034441E-02-2.00366944E+00 6.60978156E-01-1.15891181E-02
22  3-2.08444520E-02 3.24335701E-02-8.19790795E-02-1.25706280E-02 1.32725745E-01
22  4 6.39113406E-03-3.14016143E-01-4.21609347E-03-8.55123189E-01 1.53585299E-01
22  5 1.40717664E+00-1.11217764E-02 2.77276569E+00 3.02409624E-01-8.37252694E-03
22  6 6.25326506E-03 2.11926188E-03-3.63397556E-02 4.56325127E-03-1.37969796E-01
22  7 3.49712021E-01 5.15636034E-01-1.14602068E-01-8.59595490E-01 3.66660056E-01
22  8-2.15682566E+00-2.92365917E-01 1.57456117E+00
23  1-3.66249605E-04-2.85439668E-01 2.11466131E-02-2.17398544E-01-3.94800999E-02
23  2 4.90486046E-01-4.49394546E-02 7.36741625E-01-1.03473149E-01-1.62895856E-03
23  3 6.79493764E-02-6.63204178E-02 2.82166658E-02 2.89926505E-02-8.79115786E-03
23  4 3.94237228E-02-1.42763262E+00-1.02793729E-01 9.17295953E-02 4.81739142E-01
23  5 2.50028339E+00 2.00228726E-01-6.19086474E-01-8.15288699E-01-1.01445883E-01
23  6 1.86625407E-01-8.51795245E-02 1.79252751E-02-2.19927686E-02 2.39297792E-02
23  7 1.28505214E-02-4.33211977E-01 1.07446883E-01 2.57401878E-01 5.77428792E-01
23  8-9.45546385E-01 5.74534942E-01-1.72388945E+00
24  1 4.68922056E-02-5.74675148E-02 9.32913610E-02-7.65850406E-01-2.57622769E-01
24  2-7.54905799E-01-1.60577208E-01 1.86313332E+00 1.03471251E+00-2.06745610E-01
24  3 2.10419115E-01-3.67350499E-03 2.79678553E-02-4.79777480E-02 1.38786940E-01
24  4-3.44104287E-02 1.52315724E-02 2.89029730E-02-1.70093608E-01-1.03982644E-03
24  5 1.21005165E+00-4.27637227E-02-8.12326602E-01 9.37086725E-01 3.15604760E-02
24  6-2.91269120E-02-2.43356401E-03 8.12815269E-02 4.83732188E-02-1.47061213E-01
24  7 5.04222038E-01-1.84324191E+00 4.05146498E-01 4.58668385E-01 5.95237518E-02
24  8 4.47764113E-01-5.04668639E-01 1.53667796E-01
25  1-1.70631836E-02-1.69645291E+00 8.28200435E-03 5.28550611E-02-4.28084899E-02
25  2 4.98817444E+00-9.61806861E-02 7.71838919E-01-1.20180295E+00 1.31008792E-01
25  3-3.45426772E-02-9.64661152E-02 1.74439897E-01 3.71899414E-02 3.43381195E-03
25  4 1.34072833E-02 5.34887789E-01 5.80716483E-02-2.06126814E-01-2.86578476E-01
25  5-3.62556183E+00-8.59458003E-02 1.22517948E-01-1.16634004E+00 3.11332716E-02
25  6 8.74483639E-02-1.18581635E-01 1.15596696E-01-6.52831596E-03-1.40203421E-02
25  7-3.32545246E-01-9.27401396E-01 1.58403504E-01-3.24525484E-01 2.37367297E-01
25  8 2.83159290E-01-1.69297272E-01 6.75071068E-01
26  1 9.76967522E-03-8.38346992E-01 9.05324286E-02-2.31245126E-01-1.67726167E-01
26  2 1.78272076E+00-7.66726649E-02-6.82664172E-01 8.13264295E-02-1.04270337E-02
26  3 4.11689685E-02-3.07419349E-02-4.64644272E-01-2.18207967E-02 9.34798353E-02
26  4 1.31567298E-03 2.21415294E-01 1.02884957E-03 2.63994020E-01 3.86498666E-02
26  5-7.55889733E-01-2.45877166E-02 7.40346031E-01-2.42828823E-01 1.10689520E-02
26  6 3.90085826E-02-5.00775346E-02-3.26227954E-01-3.53791738E-02 4.16389751E-02
26  7 5.72127523E-01-6.34268287E-01-4.61254388E-01-2.99379496E-01-4.53436963E-01
26  8 1.17157483E-01 3.93639654E-01 1.77817472E-01
27  1 3.33023426E-03 7.50013173E-02 1.58623794E-01-1.51517106E-02 3.81519583E-04
27  2-2.81500817E-01-1.60295255E-02 4.55030318E-02 1.03942027E-01-8.40927339E-02
27  3 6.37354596E-02 2.03572742E-02-5.92440377E-02 6.45275502E-01-4.00445732E-04
27  4-4.02891373E-03-5.86418035E-03 2.57548569E-01-9.42375564E-03 1.03164922E-03
27  5 2.04973828E-01-6.26960930E-02-8.06064479E-02 1.08541335E-01 5.91437822E-02
27  6-5.88589211E-02-2.84861193E-04 7.41829410E-02-5.57009141E-01-1.87086993E-02
27  7 3.25474190E-02-1.77449524E-02 3.34022501E-02 1.14321745E-02-2.02874747E-02
27  8 3.86214897E-02-7.52599655E-02-9.13031681E-04
28  1-1.17419206E-03-1.25467007E-01 7.42615422E-03 1.11778320E-01-4.71483007E-02
28  2 1.71767973E-01 7.71337058E-03-1.37751585E+00 2.10244511E-01-2.81877606E-01
28  3 2.25247466E-01 5.66301391E-02 6.84789289E-01 4.99748859E-02 4.38408386E-01
28  4-2.99144836E-03 1.75787051E-02-9.44255395E-03 2.20009957E-01 5.58470909E-02
28  5 2.25966342E-01-1.65113353E-02 1.53582200E+00 2.06252225E-02-1.27475374E-01
28  6 1.29898346E-01-2.42297250E-03 5.74935835E-02 5.19423034E-03-3.35119992E-02
28  7 2.43002447E-01 2.63500282E-01-4.35409349E-01-4.00471941E-01-6.11288187E-01
28  8-5.86605103E-01 4.21081341E-01 5.11921914E-01
29  1 1.48388367E-04 1.23333455E-01-1.68586251E-02 3.96318147E-02 2.06966779E-02
29  2-7.27046159E-02-1.21431585E-03 1.12870476E+00-1.94902351E-01 1.04115590E-01
29  3-1.17171950E-01 1.30563599E-02 2.40478039E-01 2.06717093E-02 1.31182963E-01
29  4 2.78983662E-03-6.00761611E-02 1.24353951E-03 7.09958686E-02-3.31915925E-02
29  5-1.57224753E-01-3.33865151E-03-9.56594056E-01-2.51792775E-02 1.83485902E-01
29  6-1.13214843E-01-7.02710594E-02-8.39090784E-01-9.13453495E-02-3.33297490E-01
29  7-3.14758881E-01-2.83106917E-01 5.24958331E-01 3.14380071E-01 1.77585805E-01
29  8 4.53591298E-01-3.04652774E-02-4.11116843E-01
30  1-2.05310653E-02-3.34234452E-01-2.00778515E-02-3.41957520E-02 1.82681630E-01
30  2 7.33239176E-01-1.29864279E-01 2.62248057E-01-8.46430462E-03-5.57680358E-01
30  3 3.84807504E-01 1.72872854E-01 4.31107533E-02 2.18364985E-02-3.55930772E-01
30  4-3.33484506E-02-3.26213199E-01 3.79656686E-02-2.14459240E-01-2.59742944E-01
30  5 5.43040276E-01 1.02278496E-01-5.20680979E-01 2.96501132E-02-6.39360861E-01
30  6 3.05035133E-01 3.34325727E-01-3.60643810E-01-1.47062998E-02 2.27567827E-01
30  7-3.27889013E-01-2.58404834E-01-4.69192448E-01 2.85479959E-02 7.47678290E-02
30  8 7.80263906E-02-6.89619100E-01-2.15797619E-01
31  1-4.38622185E-03-2.21439551E-01-1.21368664E-02 1.34920494E-01 1.78340202E-01
31  2 4.82571586E-01-5.20231565E-02 1.12100664E+00-4.57481207E-01-7.94866535E-02
31  3-3.45393895E-01 4.24880549E-01-3.63418558E-01-4.77017360E-02 4.08334338E-01
31  4-2.88786109E-02-5.10566551E-01 1.05384032E-02 2.43041349E-01-2.95199364E-01
31  5 2.47924867E-01 9.46831376E-03-2.52257046E-01 1.02372006E-01-4.95584193E-01
31  6 2.05720464E-01 2.89863729E-01 2.12968512E-01-2.33240844E-02-4.73892323E-01
31  7-5.32134618E-01-5.43952022E-01 7.20313117E-01 2.35012619E-01-4.70769338E-01
31  8 2.12693197E-01 2.05169810E-01-2.56354441E-01
32  1-1.40369202E-02 5.71750511E-01-4.25745910E-02 1.96358533E-01-2.25559419E-01
32  2-1.73599097E-01-1.92509186E-01 6.72947983E-01 4.25833451E-01 4.19152099E-02
32  3 3.41959710E-01-3.83874920E-01-2.22285825E-01 2.23425556E-01 9.88892217E-02
32  4-1.06247080E-02 2.92939884E-01 7.19952289E-02-1.79665666E-02 6.17615517E-02
32  5 2.96225323E-01 1.43471054E-01-3.68691613E-01-2.33680994E-01-2.01400134E-01
32  6 8.98280927E-01-6.96880792E-01-4.18708474E-02 2.24952662E-01-1.11615060E-01
32  7-7.02401970E-01-1.71107780E-01 1.33759846E-01 1.67039949E-01-5.22661288E-01
32  8 2.75587014E-01-4.88292449E-01-8.59459874E-02
33  1 5.15223674E-03-1.48521096E-01-5.34147472E-02-5.68676425E-02 5.01897129E-02
33  2-2.38481249E-03-3.25970537E-01-1.64321630E-01-9.56507905E-02 1.43656189E-03
33  3-1.14021965E-01 1.12585403E-01-1.60617963E-02 8.80576009E-01-7.13186064E-02
33  4 3.75750871E-03-8.76565870E-02 1.36316048E-01 2.41674842E-02 2.42129255E-03
33  5-2.03937340E-02 2.53688917E-01 1.08913805E-01 7.58735607E-02 4.19194126E-02
33  6-2.39722305E-01 1.97802893E-01-6.04208851E-02 9.43817551E-01-7.32443253E-02
33  7 2.43405051E-01 1.39252438E-02-5.61863369E-03-4.52551014E-02 1.13904588E-01
33  8-8.14078428E-02 2.26100214E-01-2.36442822E-02
34  1-4.17866012E-02-2.28276756E-02-5.69303174E-02 1.41816826E-01-9.29508129E-02
34  2 1.55746398E+00-7.54479672E-02 8.00067276E-01-7.98424148E-01-4.51995523E-01
34  3 3.44259978E-02 4.17569525E-01-2.52506742E-01 1.03170138E-02 8.39994804E-01
34  4 1.87187280E-02-1.84699822E-01 1.97538181E-02 1.95256851E-02-3.21769886E-01
34  5-1.26583361E+00 3.63089354E-02-4.24600256E-01-5.82072588E-01 3.56332021E-01
34  6-1.00785471E-01-2.55546550E-01-9.18061543E-02 8.22500858E-02 8.56858045E-01
34  7-9.16705376E-01-9.08358906E-02 4.01237571E-01 1.60689756E-01 5.14012850E-01
34  8 9.43258576E-02-2.74065355E-01-5.78442296E-02
35  1-8.10314253E-02-3.47225238E-01-4.82317260E-02 1.81427564E-01-1.50733606E-01
35  2 3.05649302E+00-3.49985502E-02 4.40439357E-01-1.27407662E+00-9.02682433E-01
35  3 3.28499087E-01 5.74183346E-01-1.38390895E-01-1.11695349E-01-4.19563820E-01
35  4 4.02936486E-02-2.97325073E-01-1.97913060E-02 5.75572673E-02-5.53708432E-01
35  5-2.37330703E+00-1.77826631E-02 2.21507726E-01-1.07008567E+00 6.95411156E-01
35  6-3.61865769E-02-6.59224579E-01 1.30423856E-01 4.96544499E-02-5.06963359E-01
35  7-6.77960344E-01-1.07542250E-01-5.01497971E-01 2.98461652E-01 1.08500996E-02
35  8 3.38094315E-02 5.44632708E-01 2.25150648E-02
36  1-1.06102687E-02 2.36948507E-02 6.47112121E-02-2.04779327E-01-4.92087509E-01
36  2 2.04551865E-01 1.65524644E-01-8.30158951E-01-8.24042466E-01 7.05374368E-02
36  3-1.14077417E+00 1.07023674E+00 2.84179021E-01 5.73639609E-02-3.63218105E-01
36  4-2.26651054E-03-4.96831795E-01 1.84222308E-02 4.21857286E-02-6.45293932E-01
36  5-4.58445820E-01 8.54465837E-03 3.14202355E-01-4.74629809E-01 1.12841305E-01
36  6 6.39469203E-01-7.52310508E-01-5.86785738E-02-2.99315174E-02 2.88276237E-01
36  7 1.28203669E+00 4.00432937E-01 1.01756638E-01-1.72897118E-01-1.75170269E-01
36  8-1.67462319E-01-3.10599286E-01 1.03241675E-01
 $END   

! TRAVIS-CI SMALL

