!    BN...3-pi ground state arising from (pi)3(sigma)1 configuration
!    Test of 2nd order CI programs.    EXACT match!
!
!    There are 82 AOs in the 6-311G(3df) basis, reduced to 70 MOs
!    by use of spherical harmonics.  4 MOs are kept in the core, so
!    the MCSCF active space arises from the p orbitals only, and
!    contains 448 determinants (equivalent to 378 triplet CSFs).
!    The 2nd order CI into the 60 external orbitals contains
!    96,675 CSFs, or 124,440 determinants.  The GUGA program uses
!    a total of 586 MBytes to hold the Hamiltonian loops, whereas 
!    the full SOCI determinant program is essentially diskless.
!
!    The FINAL MCSCF energy is       -79.0562644341 after 14 iters
!    The  GUGA program's E.GENSTATE= -79.0878520229, dipole= 2.200033
!    The FSOCI program's EIGENSTATE= -79.0878520228, dipole= 2.200033
!
!    This run GUGA=58 s, FSOCI=178 seconds on 2.66 GHz Cloverton (18 Jun 2014)
!                answers have not changed since 2002
!    
 $contrl scftyp=mcscf cityp=fsoci mult=3 runtyp=energy nzvar=1 ispher=1 $end
 $system mwords=20 $end
 $zmat   izmat(1)=1,1,2 $end
 $basis  gbasis=n311 ngauss=6 ndfunc=3 nffunc=1 $end
 $guess  guess=moread norb=70 $end
!           perform state-averaged MCSCF on the two pi components
 $det    ncore=4 nact=6 nels=4 nstate=2 wstate(1)=1,1 $end

!           input for cityp equals fsoci
 $cidet  ncore=4 nact=6 nels=4 nstate=2 $end
 $sodet  $end
!           input for cityp equals guga
!    (use c1 not c4v since it isn't a sigma state)
 $cidrt  group=c1 soci=.true. nfzc=4 ndoc=1 nalp=2 nval=3 next=-1
         mxnint=600000 $end
 $gugdia nstate=2 eref=-79.0562644339 nref=378 $end


 $data
BN at experimental distance...6-311G(3df) basis
Cnv 4

Boron    5.0
Nitrogen 7.0   0.0 0.0 1.281
 $end

Starting orbitals prepared by ROHF on +1 quartet ion, MVOQ=3,
that is to say, a 4-sigma-minus state ROHF to start things off.
E(ROHF)= -78.6477616026, GENERATED AT 16:13:44 CST 13-FEB-2002
 $VEC
 1  1 7.02076310E-05-4.77360103E-05 0.00000000E+00 0.00000000E+00-1.13561967E-04
 1  2 4.54327000E-04 0.00000000E+00 0.00000000E+00 4.76499244E-04 8.68749408E-04
 1  3 0.00000000E+00 0.00000000E+00 5.09702212E-04-3.93369614E-05-3.93369614E-05
 1  4 7.86739228E-05 0.00000000E+00 0.00000000E+00 0.00000000E+00-1.03446591E-04
 1  5-1.03446591E-04 2.06893183E-04 0.00000000E+00 0.00000000E+00 0.00000000E+00
 1  6-1.34570639E-04-1.34570639E-04 2.69141278E-04 0.00000000E+00 0.00000000E+00
 1  7 0.00000000E+00 0.00000000E+00 0.00000000E+00 5.86721653E-05 0.00000000E+00
 1  8-3.93584850E-05 0.00000000E+00-3.93584850E-05 0.00000000E+00 0.00000000E+00
 1  9 0.00000000E+00 5.58180331E-01 4.69189142E-01 0.00000000E+00 0.00000000E+00
 1 10-2.29674224E-03 2.01165325E-03 0.00000000E+00 0.00000000E+00 9.20774679E-04
 1 11-3.08673671E-03 0.00000000E+00 0.00000000E+00-3.63677350E-05-1.38932620E-05
 1 12-1.38932620E-05 2.77865240E-05 0.00000000E+00 0.00000000E+00 0.00000000E+00
 1 13-1.63302706E-04-1.63302706E-04 3.26605413E-04 0.00000000E+00 0.00000000E+00
 1 14 0.00000000E+00 4.26779955E-05 4.26779955E-05-8.53559910E-05 0.00000000E+00
 1 15 0.00000000E+00 0.00000000E+00 0.00000000E+00 0.00000000E+00-3.74899098E-05
 1 16 0.00000000E+00 2.51489960E-05 0.00000000E+00 2.51489960E-05 0.00000000E+00
 1 17 0.00000000E+00 0.00000000E+00
 2  1 5.78858528E-01 4.57775497E-01 0.00000000E+00 0.00000000E+00-6.45392007E-04
 2  2 1.81674227E-04 0.00000000E+00 0.00000000E+00 2.13234999E-03 7.98819878E-04
 2  3 0.00000000E+00 0.00000000E+00 3.57180313E-04-3.41018065E-06-3.41018065E-06
 2  4 6.82036131E-06 0.00000000E+00 0.00000000E+00 0.00000000E+00-7.90941333E-04
 2  5-7.90941333E-04 1.58188267E-03 0.00000000E+00 0.00000000E+00 0.00000000E+00
 2  6-6.65545167E-05-6.65545167E-05 1.33109033E-04 0.00000000E+00 0.00000000E+00
 2  7 0.00000000E+00 0.00000000E+00 0.00000000E+00 6.68322536E-04 0.00000000E+00
 2  8-4.48324387E-04 0.00000000E+00-4.48324387E-04 0.00000000E+00 0.00000000E+00
 2  9 0.00000000E+00-2.76615403E-04-3.03579043E-04 0.00000000E+00 0.00000000E+00
 2 10-2.96624279E-04-3.82084172E-04 0.00000000E+00 0.00000000E+00-6.48169782E-05
 2 11-1.45051622E-03 0.00000000E+00 0.00000000E+00 3.40696772E-04 1.09847783E-05
 2 12 1.09847783E-05-2.19695566E-05 0.00000000E+00 0.00000000E+00 0.00000000E+00
 2 13-3.15603104E-04-3.15603104E-04 6.31206207E-04 0.00000000E+00 0.00000000E+00
 2 14 0.00000000E+00-5.56797412E-05-5.56797412E-05 1.11359482E-04 0.00000000E+00
 2 15 0.00000000E+00 0.00000000E+00 0.00000000E+00 0.00000000E+00-6.02918497E-04
 2 16 0.00000000E+00 4.04450024E-04 0.00000000E+00 4.04450024E-04 0.00000000E+00
 2 17 0.00000000E+00 0.00000000E+00
 3  1-6.64168603E-02-1.03462070E-01 0.00000000E+00 0.00000000E+00 1.17158720E-01
 3  2 2.61352124E-01 0.00000000E+00 0.00000000E+00 1.39828692E-01-1.13944147E-02
 3  3 0.00000000E+00 0.00000000E+00-2.69756653E-02-4.87881701E-03-4.87881701E-03
 3  4 9.75763402E-03 0.00000000E+00 0.00000000E+00 0.00000000E+00-2.19634815E-02
 3  5-2.19634815E-02 4.39269630E-02 0.00000000E+00 0.00000000E+00 0.00000000E+00
 3  6 5.75520542E-03 5.75520542E-03-1.15104108E-02 0.00000000E+00 0.00000000E+00
 3  7 0.00000000E+00 0.00000000E+00 0.00000000E+00 8.58438444E-03 0.00000000E+00
 3  8-5.75858014E-03 0.00000000E+00-5.75858014E-03 0.00000000E+00 0.00000000E+00
 3  9 0.00000000E+00-1.03691634E-01-1.73900358E-01 0.00000000E+00 0.00000000E+00
 3 10-9.55424053E-02 4.74840691E-01 0.00000000E+00 0.00000000E+00-1.42383000E-01
 3 11 3.17939329E-01 0.00000000E+00 0.00000000E+00-5.68171539E-02-1.65222199E-03
 3 12-1.65222199E-03 3.30444397E-03 0.00000000E+00 0.00000000E+00 0.00000000E+00
 3 13-1.21751126E-02-1.21751126E-02 2.43502253E-02 0.00000000E+00 0.00000000E+00
 3 14 0.00000000E+00-2.73618338E-03-2.73618338E-03 5.47236676E-03 0.00000000E+00
 3 15 0.00000000E+00 0.00000000E+00 0.00000000E+00 0.00000000E+00-5.93201864E-03
 3 16 0.00000000E+00 3.97931907E-03 0.00000000E+00 3.97931907E-03 0.00000000E+00
 3 17 0.00000000E+00 0.00000000E+00
 4  1 5.47655643E-02 8.97817903E-02 0.00000000E+00 0.00000000E+00-9.08231533E-02
 4  2-2.63574282E-01 0.00000000E+00 0.00000000E+00-1.12178456E-01-5.97449144E-02
 4  3 0.00000000E+00 0.00000000E+00-1.15257785E-02 2.69188645E-03 2.69188645E-03
 4  4-5.38377289E-03 0.00000000E+00 0.00000000E+00 0.00000000E+00 7.43129695E-03
 4  5 7.43129695E-03-1.48625939E-02 0.00000000E+00 0.00000000E+00 0.00000000E+00
 4  6 2.14881851E-03 2.14881851E-03-4.29763702E-03 0.00000000E+00 0.00000000E+00
 4  7 0.00000000E+00 0.00000000E+00 0.00000000E+00 4.85917295E-04 0.00000000E+00
 4  8-3.25963231E-04 0.00000000E+00-3.25963231E-04 0.00000000E+00 0.00000000E+00
 4  9 0.00000000E+00-6.36804713E-02-1.08598566E-01 0.00000000E+00 0.00000000E+00
 4 10 2.40667371E-01 3.32476814E-01 0.00000000E+00 0.00000000E+00 3.68460552E-01
 4 11 4.11371957E-01 0.00000000E+00 0.00000000E+00 2.24771552E-01 1.62086660E-03
 4 12 1.62086660E-03-3.24173321E-03 0.00000000E+00 0.00000000E+00 0.00000000E+00
 4 13 1.43425852E-02 1.43425852E-02-2.86851705E-02 0.00000000E+00 0.00000000E+00
 4 14 0.00000000E+00 6.67709086E-03 6.67709086E-03-1.33541817E-02 0.00000000E+00
 4 15 0.00000000E+00 0.00000000E+00 0.00000000E+00 0.00000000E+00 3.11897444E-03
 4 16 0.00000000E+00-2.09227166E-03 0.00000000E+00-2.09227166E-03 0.00000000E+00
 4 17 0.00000000E+00 0.00000000E+00
 5  1 0.00000000E+00 0.00000000E+00 1.18832156E-01 0.00000000E+00 0.00000000E+00
 5  2 0.00000000E+00 1.85599843E-01 0.00000000E+00 0.00000000E+00 0.00000000E+00
 5  3 3.52433699E-02 0.00000000E+00 0.00000000E+00 0.00000000E+00 0.00000000E+00
 5  4 0.00000000E+00 0.00000000E+00 9.17729005E-03 0.00000000E+00 0.00000000E+00
 5  5 0.00000000E+00 0.00000000E+00 0.00000000E+00 5.55974814E-02 0.00000000E+00
 5  6 0.00000000E+00 0.00000000E+00 0.00000000E+00 0.00000000E+00-6.03381856E-03
 5  7 0.00000000E+00-1.15199842E-02 0.00000000E+00 0.00000000E+00 0.00000000E+00
 5  8 0.00000000E+00-5.15189356E-03 0.00000000E+00 2.06075742E-02 0.00000000E+00
 5  9 0.00000000E+00 0.00000000E+00 0.00000000E+00 2.61128555E-01 0.00000000E+00
 5 10 0.00000000E+00 0.00000000E+00 4.22296779E-01 0.00000000E+00 0.00000000E+00
 5 11 0.00000000E+00 3.21363909E-01 0.00000000E+00 0.00000000E+00 0.00000000E+00
 5 12 0.00000000E+00 0.00000000E+00 0.00000000E+00-3.75688786E-03 0.00000000E+00
 5 13 0.00000000E+00 0.00000000E+00 0.00000000E+00 0.00000000E+00-3.19518791E-02
 5 14 0.00000000E+00 0.00000000E+00 0.00000000E+00 0.00000000E+00 0.00000000E+00
 5 15-3.93062403E-02 0.00000000E+00-1.07180744E-03 0.00000000E+00 0.00000000E+00
 5 16 0.00000000E+00 0.00000000E+00-4.79326860E-04 0.00000000E+00 1.91730744E-03
 5 17 0.00000000E+00 0.00000000E+00
 6  1 0.00000000E+00 0.00000000E+00 0.00000000E+00 1.18832156E-01 0.00000000E+00
 6  2 0.00000000E+00 0.00000000E+00 1.85599843E-01 0.00000000E+00 0.00000000E+00
 6  3 0.00000000E+00 3.52433699E-02 0.00000000E+00 0.00000000E+00 0.00000000E+00
 6  4 0.00000000E+00 0.00000000E+00 0.00000000E+00 9.17729005E-03 0.00000000E+00
 6  5 0.00000000E+00 0.00000000E+00 0.00000000E+00 0.00000000E+00 5.55974814E-02
 6  6 0.00000000E+00 0.00000000E+00 0.00000000E+00 0.00000000E+00 0.00000000E+00
 6  7-6.03381856E-03 0.00000000E+00-1.15199842E-02 0.00000000E+00-5.15189356E-03
 6  8 0.00000000E+00 0.00000000E+00 0.00000000E+00 0.00000000E+00 2.06075742E-02
 6  9 0.00000000E+00 0.00000000E+00 0.00000000E+00 0.00000000E+00 2.61128555E-01
 6 10 0.00000000E+00 0.00000000E+00 0.00000000E+00 4.22296779E-01 0.00000000E+00
 6 11 0.00000000E+00 0.00000000E+00 3.21363909E-01 0.00000000E+00 0.00000000E+00
 6 12 0.00000000E+00 0.00000000E+00 0.00000000E+00 0.00000000E+00-3.75688786E-03
 6 13 0.00000000E+00 0.00000000E+00 0.00000000E+00 0.00000000E+00 0.00000000E+00
 6 14-3.19518791E-02 0.00000000E+00 0.00000000E+00 0.00000000E+00 0.00000000E+00
 6 15 0.00000000E+00-3.93062403E-02 0.00000000E+00-1.07180744E-03 0.00000000E+00
 6 16-4.79326860E-04 0.00000000E+00 0.00000000E+00 0.00000000E+00 0.00000000E+00
 6 17 1.91730744E-03 0.00000000E+00
 7  1-9.21894364E-02-1.60005892E-01 0.00000000E+00 0.00000000E+00-2.14076425E-01
 7  2 4.82949001E-01 0.00000000E+00 0.00000000E+00-3.97640620E-01 3.57498519E-01
 7  3 0.00000000E+00 0.00000000E+00-7.93878833E-02 3.61902155E-04 3.61902155E-04
 7  4-7.23804310E-04 0.00000000E+00 0.00000000E+00 0.00000000E+00 6.42656827E-03
 7  5 6.42656827E-03-1.28531365E-02 0.00000000E+00 0.00000000E+00 0.00000000E+00
 7  6-9.26411597E-03-9.26411597E-03 1.85282319E-02 0.00000000E+00 0.00000000E+00
 7  7 0.00000000E+00 0.00000000E+00 0.00000000E+00-4.48766723E-03 0.00000000E+00
 7  8 3.01041870E-03 0.00000000E+00 3.01041870E-03 0.00000000E+00 0.00000000E+00
 7  9 0.00000000E+00 1.22764891E-02 2.10314643E-02 0.00000000E+00 0.00000000E+00
 7 10 7.10696353E-02-6.50666451E-02 0.00000000E+00 0.00000000E+00 1.00741048E-01
 7 11 3.14247738E-02 0.00000000E+00 0.00000000E+00-1.06908494E-03 6.62620669E-04
 7 12 6.62620669E-04-1.32524134E-03 0.00000000E+00 0.00000000E+00 0.00000000E+00
 7 13 4.12446683E-03 4.12446683E-03-8.24893367E-03 0.00000000E+00 0.00000000E+00
 7 14 0.00000000E+00-1.32021911E-02-1.32021911E-02 2.64043822E-02 0.00000000E+00
 7 15 0.00000000E+00 0.00000000E+00 0.00000000E+00 0.00000000E+00 8.00309343E-04
 7 16 0.00000000E+00-5.36863828E-04 0.00000000E+00-5.36863828E-04 0.00000000E+00
 7 17 0.00000000E+00 0.00000000E+00
 8  1 0.00000000E+00 0.00000000E+00 3.74913499E-01 0.00000000E+00 0.00000000E+00
 8  2 0.00000000E+00 5.99048993E-01 0.00000000E+00 0.00000000E+00 0.00000000E+00
 8  3 1.35591216E-01 0.00000000E+00 0.00000000E+00 0.00000000E+00 0.00000000E+00
 8  4 0.00000000E+00 0.00000000E+00-6.25836662E-04 0.00000000E+00 0.00000000E+00
 8  5 0.00000000E+00 0.00000000E+00 0.00000000E+00 2.49734383E-02 0.00000000E+00
 8  6 0.00000000E+00 0.00000000E+00 0.00000000E+00 0.00000000E+00 1.82122306E-02
 8  7 0.00000000E+00-7.35652095E-04 0.00000000E+00 0.00000000E+00 0.00000000E+00
 8  8 0.00000000E+00-3.28993619E-04 0.00000000E+00 1.31597447E-03 0.00000000E+00
 8  9 0.00000000E+00 0.00000000E+00 0.00000000E+00-2.05325713E-01 0.00000000E+00
 8 10 0.00000000E+00 0.00000000E+00-3.30506434E-01 0.00000000E+00 0.00000000E+00
 8 11 0.00000000E+00-1.93907469E-01 0.00000000E+00 0.00000000E+00 0.00000000E+00
 8 12 0.00000000E+00 0.00000000E+00 0.00000000E+00-1.51590153E-03 0.00000000E+00
 8 13 0.00000000E+00 0.00000000E+00 0.00000000E+00 0.00000000E+00-1.36675380E-02
 8 14 0.00000000E+00 0.00000000E+00 0.00000000E+00 0.00000000E+00 0.00000000E+00
 8 15-1.20257746E-02 0.00000000E+00-6.83088125E-03 0.00000000E+00 0.00000000E+00
 8 16 0.00000000E+00 0.00000000E+00-3.05486297E-03 0.00000000E+00 1.22194519E-02
 8 17 0.00000000E+00 0.00000000E+00
 9  1 0.00000000E+00 0.00000000E+00 0.00000000E+00 3.74913499E-01 0.00000000E+00
 9  2 0.00000000E+00 0.00000000E+00 5.99048993E-01 0.00000000E+00 0.00000000E+00
 9  3 0.00000000E+00 1.35591216E-01 0.00000000E+00 0.00000000E+00 0.00000000E+00
 9  4 0.00000000E+00 0.00000000E+00 0.00000000E+00-6.25836662E-04 0.00000000E+00
 9  5 0.00000000E+00 0.00000000E+00 0.00000000E+00 0.00000000E+00 2.49734383E-02
 9  6 0.00000000E+00 0.00000000E+00 0.00000000E+00 0.00000000E+00 0.00000000E+00
 9  7 1.82122306E-02 0.00000000E+00-7.35652095E-04 0.00000000E+00-3.28993619E-04
 9  8 0.00000000E+00 0.00000000E+00 0.00000000E+00 0.00000000E+00 1.31597447E-03
 9  9 0.00000000E+00 0.00000000E+00 0.00000000E+00 0.00000000E+00-2.05325713E-01
 9 10 0.00000000E+00 0.00000000E+00 0.00000000E+00-3.30506434E-01 0.00000000E+00
 9 11 0.00000000E+00 0.00000000E+00-1.93907469E-01 0.00000000E+00 0.00000000E+00
 9 12 0.00000000E+00 0.00000000E+00 0.00000000E+00 0.00000000E+00-1.51590153E-03
 9 13 0.00000000E+00 0.00000000E+00 0.00000000E+00 0.00000000E+00 0.00000000E+00
 9 14-1.36675380E-02 0.00000000E+00 0.00000000E+00 0.00000000E+00 0.00000000E+00
 9 15 0.00000000E+00-1.20257746E-02 0.00000000E+00-6.83088125E-03 0.00000000E+00
 9 16-3.05486297E-03 0.00000000E+00 0.00000000E+00 0.00000000E+00 0.00000000E+00
 9 17 1.22194519E-02 0.00000000E+00
10  1-4.18719378E-02-8.06555631E-02 0.00000000E+00 0.00000000E+00 2.70192727E-01
10  2 2.28558062E-01 0.00000000E+00 0.00000000E+00 4.62043901E-01 5.86543176E-01
10  3 0.00000000E+00 0.00000000E+00 4.96740602E-01 1.30195065E-02 1.30195065E-02
10  4-2.60390131E-02 0.00000000E+00 0.00000000E+00 0.00000000E+00 1.05188697E-01
10  5 1.05188697E-01-2.10377393E-01 0.00000000E+00 0.00000000E+00 0.00000000E+00
10  6 1.06101986E-02 1.06101986E-02-2.12203972E-02 0.00000000E+00 0.00000000E+00
10  7 0.00000000E+00 0.00000000E+00 0.00000000E+00-3.12021661E-02 0.00000000E+00
10  8 2.09310494E-02 0.00000000E+00 2.09310494E-02 0.00000000E+00 0.00000000E+00
10  9 0.00000000E+00 7.06865363E-02 1.27872130E-01 0.00000000E+00 0.00000000E+00
10 10 2.32906329E-01-5.85457291E-01 0.00000000E+00 0.00000000E+00 3.76244493E-01
10 11-3.99028079E-01 0.00000000E+00 0.00000000E+00 4.61556533E-02-4.54661654E-04
10 12-4.54661654E-04 9.09323308E-04 0.00000000E+00 0.00000000E+00 0.00000000E+00
10 13-6.95140784E-03-6.95140784E-03 1.39028157E-02 0.00000000E+00 0.00000000E+00
10 14 0.00000000E+00-3.57251615E-02-3.57251615E-02 7.14503229E-02 0.00000000E+00
10 15 0.00000000E+00 0.00000000E+00 0.00000000E+00 0.00000000E+00-2.88230135E-03
10 16 0.00000000E+00 1.93350652E-03 0.00000000E+00 1.93350652E-03 0.00000000E+00
10 17 0.00000000E+00 0.00000000E+00
11  1 9.48618872E-02 1.75751554E-01 0.00000000E+00 0.00000000E+00-2.01572823E-01
11  2-1.12226679E+00 0.00000000E+00 0.00000000E+00-7.99968862E-02 1.53680720E+00
11  3 0.00000000E+00 0.00000000E+00 6.88243006E-01 1.02747894E-04 1.02747894E-04
11  4-2.05495789E-04 0.00000000E+00 0.00000000E+00 0.00000000E+00-4.13649120E-02
11  5-4.13649120E-02 8.27298241E-02 0.00000000E+00 0.00000000E+00 0.00000000E+00
11  6-6.74471524E-02-6.74471524E-02 1.34894305E-01 0.00000000E+00 0.00000000E+00
11  7 0.00000000E+00 0.00000000E+00 0.00000000E+00 7.10479265E-03 0.00000000E+00
11  8-4.76603980E-03 0.00000000E+00-4.76603980E-03 0.00000000E+00 0.00000000E+00
11  9 0.00000000E+00 1.69473481E-02 3.07018281E-02 0.00000000E+00 0.00000000E+00
11 10-1.67787225E-01-1.70808356E-01 0.00000000E+00 0.00000000E+00-2.18332797E-01
11 11-5.69247898E-01 0.00000000E+00 0.00000000E+00-2.42870248E-03 3.10029659E-03
11 12 3.10029659E-03-6.20059317E-03 0.00000000E+00 0.00000000E+00 0.00000000E+00
11 13 4.91467338E-02 4.91467338E-02-9.82934676E-02 0.00000000E+00 0.00000000E+00
11 14 0.00000000E+00 1.24604898E-01 1.24604898E-01-2.49209795E-01 0.00000000E+00
11 15 0.00000000E+00 0.00000000E+00 0.00000000E+00 0.00000000E+00 2.51940898E-02
11 16 0.00000000E+00-1.69007093E-02 0.00000000E+00-1.69007093E-02 0.00000000E+00
11 17 0.00000000E+00 0.00000000E+00
12  1 0.00000000E+00 0.00000000E+00 0.00000000E+00 0.00000000E+00 0.00000000E+00
12  2 0.00000000E+00 0.00000000E+00 0.00000000E+00 0.00000000E+00 0.00000000E+00
12  3 0.00000000E+00 0.00000000E+00 0.00000000E+00 0.00000000E+00 0.00000000E+00
12  4 0.00000000E+00 1.58867084E-02 0.00000000E+00 0.00000000E+00 0.00000000E+00
12  5 0.00000000E+00 0.00000000E+00 3.04151343E-01 0.00000000E+00 0.00000000E+00
12  6 0.00000000E+00 0.00000000E+00 0.00000000E+00 5.46331547E-01 0.00000000E+00
12  7 0.00000000E+00 0.00000000E+00 0.00000000E+00 0.00000000E+00 0.00000000E+00
12  8 0.00000000E+00 0.00000000E+00 0.00000000E+00 0.00000000E+00 0.00000000E+00
12  9 4.87523128E-02 0.00000000E+00 0.00000000E+00 0.00000000E+00 0.00000000E+00
12 10 0.00000000E+00 0.00000000E+00 0.00000000E+00 0.00000000E+00 0.00000000E+00
12 11 0.00000000E+00 0.00000000E+00 0.00000000E+00 0.00000000E+00 0.00000000E+00
12 12 0.00000000E+00 0.00000000E+00 6.94884781E-03 0.00000000E+00 0.00000000E+00
12 13 0.00000000E+00 0.00000000E+00 0.00000000E+00 6.92496479E-02 0.00000000E+00
12 14 0.00000000E+00 0.00000000E+00 0.00000000E+00 0.00000000E+00 3.48194853E-01
12 15 0.00000000E+00 0.00000000E+00 0.00000000E+00 0.00000000E+00 0.00000000E+00
12 16 0.00000000E+00 0.00000000E+00 0.00000000E+00 0.00000000E+00 0.00000000E+00
12 17 0.00000000E+00-1.74595787E-02
13  1 0.00000000E+00 0.00000000E+00 0.00000000E+00 0.00000000E+00 0.00000000E+00
13  2 0.00000000E+00 0.00000000E+00 0.00000000E+00 0.00000000E+00 0.00000000E+00
13  3 0.00000000E+00 0.00000000E+00 0.00000000E+00 1.37582930E-02-1.37582930E-02
13  4 0.00000000E+00 0.00000000E+00 0.00000000E+00 0.00000000E+00 2.63402789E-01
13  5-2.63402789E-01 0.00000000E+00 0.00000000E+00 0.00000000E+00 0.00000000E+00
13  6 4.73136998E-01-4.73136998E-01 0.00000000E+00 0.00000000E+00 0.00000000E+00
13  7 0.00000000E+00 0.00000000E+00 0.00000000E+00 0.00000000E+00 0.00000000E+00
13  8 4.22207414E-02 0.00000000E+00-4.22207414E-02 0.00000000E+00 0.00000000E+00
13  9 0.00000000E+00 0.00000000E+00 0.00000000E+00 0.00000000E+00 0.00000000E+00
13 10 0.00000000E+00 0.00000000E+00 0.00000000E+00 0.00000000E+00 0.00000000E+00
13 11 0.00000000E+00 0.00000000E+00 0.00000000E+00 0.00000000E+00 6.01787873E-03
13 12-6.01787873E-03 0.00000000E+00 0.00000000E+00 0.00000000E+00 0.00000000E+00
13 13 5.99719543E-02-5.99719543E-02 0.00000000E+00 0.00000000E+00 0.00000000E+00
13 14 0.00000000E+00 3.01545588E-01-3.01545588E-01 0.00000000E+00 0.00000000E+00
13 15 0.00000000E+00 0.00000000E+00 0.00000000E+00 0.00000000E+00 0.00000000E+00
13 16 0.00000000E+00-1.51204387E-02 0.00000000E+00 1.51204387E-02 0.00000000E+00
13 17 0.00000000E+00 0.00000000E+00
14  1 0.00000000E+00 0.00000000E+00-2.48211950E-01 0.00000000E+00 0.00000000E+00
14  2 0.00000000E+00-4.56389373E-01 0.00000000E+00 0.00000000E+00 0.00000000E+00
14  3 1.05714932E+00 0.00000000E+00 0.00000000E+00 0.00000000E+00 0.00000000E+00
14  4 0.00000000E+00 0.00000000E+00-8.79525146E-03 0.00000000E+00 0.00000000E+00
14  5 0.00000000E+00 0.00000000E+00 0.00000000E+00-6.65762618E-02 0.00000000E+00
14  6 0.00000000E+00 0.00000000E+00 0.00000000E+00 0.00000000E+00 3.52272557E-01
14  7 0.00000000E+00 1.64448460E-02 0.00000000E+00 0.00000000E+00 0.00000000E+00
14  8 0.00000000E+00 7.35435873E-03 0.00000000E+00-2.94174349E-02 0.00000000E+00
14  9 0.00000000E+00 0.00000000E+00 0.00000000E+00-1.48022347E-01 0.00000000E+00
14 10 0.00000000E+00 0.00000000E+00-2.58611116E-01 0.00000000E+00 0.00000000E+00
14 11 0.00000000E+00 9.46569252E-02 0.00000000E+00 0.00000000E+00 0.00000000E+00
14 12 0.00000000E+00 0.00000000E+00 0.00000000E+00 5.53378514E-03 0.00000000E+00
14 13 0.00000000E+00 0.00000000E+00 0.00000000E+00 0.00000000E+00 4.91815808E-02
14 14 0.00000000E+00 0.00000000E+00 0.00000000E+00 0.00000000E+00 0.00000000E+00
14 15 3.10953975E-02 0.00000000E+00 8.80934633E-03 0.00000000E+00 0.00000000E+00
14 16 0.00000000E+00 0.00000000E+00 3.93965945E-03 0.00000000E+00-1.57586378E-02
14 17 0.00000000E+00 0.00000000E+00
15  1 0.00000000E+00 0.00000000E+00 0.00000000E+00-2.48211950E-01 0.00000000E+00
15  2 0.00000000E+00 0.00000000E+00-4.56389373E-01 0.00000000E+00 0.00000000E+00
15  3 0.00000000E+00 1.05714932E+00 0.00000000E+00 0.00000000E+00 0.00000000E+00
15  4 0.00000000E+00 0.00000000E+00 0.00000000E+00-8.79525146E-03 0.00000000E+00
15  5 0.00000000E+00 0.00000000E+00 0.00000000E+00 0.00000000E+00-6.65762618E-02
15  6 0.00000000E+00 0.00000000E+00 0.00000000E+00 0.00000000E+00 0.00000000E+00
15  7 3.52272557E-01 0.00000000E+00 1.64448460E-02 0.00000000E+00 7.35435873E-03
15  8 0.00000000E+00 0.00000000E+00 0.00000000E+00 0.00000000E+00-2.94174349E-02
15  9 0.00000000E+00 0.00000000E+00 0.00000000E+00 0.00000000E+00-1.48022347E-01
15 10 0.00000000E+00 0.00000000E+00 0.00000000E+00-2.58611116E-01 0.00000000E+00
15 11 0.00000000E+00 0.00000000E+00 9.46569252E-02 0.00000000E+00 0.00000000E+00
15 12 0.00000000E+00 0.00000000E+00 0.00000000E+00 0.00000000E+00 5.53378514E-03
15 13 0.00000000E+00 0.00000000E+00 0.00000000E+00 0.00000000E+00 0.00000000E+00
15 14 4.91815808E-02 0.00000000E+00 0.00000000E+00 0.00000000E+00 0.00000000E+00
15 15 0.00000000E+00 3.10953975E-02 0.00000000E+00 8.80934633E-03 0.00000000E+00
15 16 3.93965945E-03 0.00000000E+00 0.00000000E+00 0.00000000E+00 0.00000000E+00
15 17-1.57586378E-02 0.00000000E+00
16  1-5.54506119E-02-1.02904086E-01 0.00000000E+00 0.00000000E+00-2.82232225E-01
16  2 6.07982374E-01 0.00000000E+00 0.00000000E+00-5.55184657E-01-6.01061871E-01
16  3 0.00000000E+00 0.00000000E+00 1.25132194E+00 7.21379369E-04 7.21379369E-04
16  4-1.44275874E-03 0.00000000E+00 0.00000000E+00 0.00000000E+00 1.22755221E-03
16  5 1.22755221E-03-2.45510441E-03 0.00000000E+00 0.00000000E+00 0.00000000E+00
16  6-1.71537347E-01-1.71537347E-01 3.43074693E-01 0.00000000E+00 0.00000000E+00
16  7 0.00000000E+00 0.00000000E+00 0.00000000E+00-7.36856145E-03 0.00000000E+00
16  8 4.94298129E-03 0.00000000E+00 4.94298129E-03 0.00000000E+00 0.00000000E+00
16  9 0.00000000E+00 1.83159628E-02 3.29590343E-02 0.00000000E+00 0.00000000E+00
16 10-7.05912253E-02-1.79050931E-01 0.00000000E+00 0.00000000E+00-1.09205339E-01
16 11-2.48374450E-01 0.00000000E+00 0.00000000E+00-2.64381664E-01 1.20720995E-03
16 12 1.20720995E-03-2.41441990E-03 0.00000000E+00 0.00000000E+00 0.00000000E+00
16 13 1.73652889E-02 1.73652889E-02-3.47305779E-02 0.00000000E+00 0.00000000E+00
16 14 0.00000000E+00-5.26347849E-03-5.26347849E-03 1.05269570E-02 0.00000000E+00
16 15 0.00000000E+00 0.00000000E+00 0.00000000E+00 0.00000000E+00 7.25089859E-03
16 16 0.00000000E+00-4.86405064E-03 0.00000000E+00-4.86405064E-03 0.00000000E+00
16 17 0.00000000E+00 0.00000000E+00
17  1 0.00000000E+00 0.00000000E+00 8.90571300E-02 0.00000000E+00 0.00000000E+00
17  2 0.00000000E+00 4.55597493E-02 0.00000000E+00 0.00000000E+00 0.00000000E+00
17  3-3.85727743E-01 0.00000000E+00 0.00000000E+00 0.00000000E+00 0.00000000E+00
17  4 0.00000000E+00 0.00000000E+00 1.90138126E-02 0.00000000E+00 0.00000000E+00
17  5 0.00000000E+00 0.00000000E+00 0.00000000E+00 2.69612346E-01 0.00000000E+00
17  6 0.00000000E+00 0.00000000E+00 0.00000000E+00 0.00000000E+00 7.76040626E-01
17  7 0.00000000E+00 3.04857485E-03 0.00000000E+00 0.00000000E+00 0.00000000E+00
17  8 0.00000000E+00 1.36336412E-03 0.00000000E+00-5.45345647E-03 0.00000000E+00
17  9 0.00000000E+00 0.00000000E+00 0.00000000E+00-1.44732538E-01 0.00000000E+00
17 10 0.00000000E+00 0.00000000E+00-2.68031926E-01 0.00000000E+00 0.00000000E+00
17 11 0.00000000E+00 2.57118908E-02 0.00000000E+00 0.00000000E+00 0.00000000E+00
17 12 0.00000000E+00 0.00000000E+00 0.00000000E+00-4.23863318E-03 0.00000000E+00
17 13 0.00000000E+00 0.00000000E+00 0.00000000E+00 0.00000000E+00-3.21632845E-02
17 14 0.00000000E+00 0.00000000E+00 0.00000000E+00 0.00000000E+00 0.00000000E+00
17 15-2.05112737E-01 0.00000000E+00-4.71010353E-03 0.00000000E+00 0.00000000E+00
17 16 0.00000000E+00 0.00000000E+00-2.10642234E-03 0.00000000E+00 8.42568934E-03
17 17 0.00000000E+00 0.00000000E+00
18  1 0.00000000E+00 0.00000000E+00 0.00000000E+00 8.90571300E-02 0.00000000E+00
18  2 0.00000000E+00 0.00000000E+00 4.55597493E-02 0.00000000E+00 0.00000000E+00
18  3 0.00000000E+00-3.85727743E-01 0.00000000E+00 0.00000000E+00 0.00000000E+00
18  4 0.00000000E+00 0.00000000E+00 0.00000000E+00 1.90138126E-02 0.00000000E+00
18  5 0.00000000E+00 0.00000000E+00 0.00000000E+00 0.00000000E+00 2.69612346E-01
18  6 0.00000000E+00 0.00000000E+00 0.00000000E+00 0.00000000E+00 0.00000000E+00
18  7 7.76040626E-01 0.00000000E+00 3.04857485E-03 0.00000000E+00 1.36336412E-03
18  8 0.00000000E+00 0.00000000E+00 0.00000000E+00 0.00000000E+00-5.45345647E-03
18  9 0.00000000E+00 0.00000000E+00 0.00000000E+00 0.00000000E+00-1.44732538E-01
18 10 0.00000000E+00 0.00000000E+00 0.00000000E+00-2.68031926E-01 0.00000000E+00
18 11 0.00000000E+00 0.00000000E+00 2.57118908E-02 0.00000000E+00 0.00000000E+00
18 12 0.00000000E+00 0.00000000E+00 0.00000000E+00 0.00000000E+00-4.23863318E-03
18 13 0.00000000E+00 0.00000000E+00 0.00000000E+00 0.00000000E+00 0.00000000E+00
18 14-3.21632845E-02 0.00000000E+00 0.00000000E+00 0.00000000E+00 0.00000000E+00
18 15 0.00000000E+00-2.05112737E-01 0.00000000E+00-4.71010353E-03 0.00000000E+00
18 16-2.10642234E-03 0.00000000E+00 0.00000000E+00 0.00000000E+00 0.00000000E+00
18 17 8.42568934E-03 0.00000000E+00
19  1 2.28211052E-02 5.64413125E-02 0.00000000E+00 0.00000000E+00-1.93416846E-01
19  2-7.54636951E-01 0.00000000E+00 0.00000000E+00-7.16814188E-01-1.46133589E+00
19  3 0.00000000E+00 0.00000000E+00-7.39198815E-01 3.33561623E-03 3.33561623E-03
19  4-6.67123245E-03 0.00000000E+00 0.00000000E+00 0.00000000E+00 1.28090370E-01
19  5 1.28090370E-01-2.56180740E-01 0.00000000E+00 0.00000000E+00 0.00000000E+00
19  6 4.49293585E-01 4.49293585E-01-8.98587170E-01 0.00000000E+00 0.00000000E+00
19  7 0.00000000E+00 0.00000000E+00 0.00000000E+00-1.82164811E-02 0.00000000E+00
19  8 1.22199870E-02 0.00000000E+00 1.22199870E-02 0.00000000E+00 0.00000000E+00
19  9 0.00000000E+00-4.75899711E-02-8.36793289E-02 0.00000000E+00 0.00000000E+00
19 10 1.09926249E-01 3.22727058E-01 0.00000000E+00 0.00000000E+00 1.22009337E-01
19 11 2.16387367E+00 0.00000000E+00 0.00000000E+00-1.30234461E+00 6.50282400E-03
19 12 6.50282400E-03-1.30056480E-02 0.00000000E+00 0.00000000E+00 0.00000000E+00
19 13 2.84937219E-02 2.84937219E-02-5.69874437E-02 0.00000000E+00 0.00000000E+00
19 14 0.00000000E+00-3.70085510E-02-3.70085510E-02 7.40171019E-02 0.00000000E+00
19 15 0.00000000E+00 0.00000000E+00 0.00000000E+00 0.00000000E+00 1.12324033E-02
19 16 0.00000000E+00-7.53492520E-03 0.00000000E+00-7.53492520E-03 0.00000000E+00
19 17 0.00000000E+00 0.00000000E+00
20  1 0.00000000E+00 0.00000000E+00 0.00000000E+00 2.02545209E-01 0.00000000E+00
20  2 0.00000000E+00 0.00000000E+00 5.32941576E-01 0.00000000E+00 0.00000000E+00
20  3 0.00000000E+00-3.46226211E-01 0.00000000E+00 0.00000000E+00 0.00000000E+00
20  4 0.00000000E+00 0.00000000E+00 0.00000000E+00-2.62355341E-02 0.00000000E+00
20  5 0.00000000E+00 0.00000000E+00 0.00000000E+00 0.00000000E+00-2.95553973E-01
20  6 0.00000000E+00 0.00000000E+00 0.00000000E+00 0.00000000E+00 0.00000000E+00
20  7 2.02269638E-01 0.00000000E+00-3.33179005E-04 0.00000000E+00-1.49002181E-04
20  8 0.00000000E+00 0.00000000E+00 0.00000000E+00 0.00000000E+00 5.96008723E-04
20  9 0.00000000E+00 0.00000000E+00 0.00000000E+00 0.00000000E+00-5.44621512E-02
20 10 0.00000000E+00 0.00000000E+00 0.00000000E+00-1.29532391E-01 0.00000000E+00
20 11 0.00000000E+00 0.00000000E+00 2.54882631E-01 0.00000000E+00 0.00000000E+00
20 12 0.00000000E+00 0.00000000E+00 0.00000000E+00 0.00000000E+00 1.57116300E-02
20 13 0.00000000E+00 0.00000000E+00 0.00000000E+00 0.00000000E+00 0.00000000E+00
20 14 1.09646115E-01 0.00000000E+00 0.00000000E+00 0.00000000E+00 0.00000000E+00
20 15 0.00000000E+00 8.34706471E-01 0.00000000E+00 1.11342654E-02 0.00000000E+00
20 16 4.97939486E-03 0.00000000E+00 0.00000000E+00 0.00000000E+00 0.00000000E+00
20 17-1.99175794E-02 0.00000000E+00
21  1 0.00000000E+00 0.00000000E+00 2.02545209E-01 0.00000000E+00 0.00000000E+00
21  2 0.00000000E+00 5.32941576E-01 0.00000000E+00 0.00000000E+00 0.00000000E+00
21  3-3.46226211E-01 0.00000000E+00 0.00000000E+00 0.00000000E+00 0.00000000E+00
21  4 0.00000000E+00 0.00000000E+00-2.62355341E-02 0.00000000E+00 0.00000000E+00
21  5 0.00000000E+00 0.00000000E+00 0.00000000E+00-2.95553973E-01 0.00000000E+00
21  6 0.00000000E+00 0.00000000E+00 0.00000000E+00 0.00000000E+00 2.02269638E-01
21  7 0.00000000E+00-3.33179005E-04 0.00000000E+00 0.00000000E+00 0.00000000E+00
21  8 0.00000000E+00-1.49002181E-04 0.00000000E+00 5.96008723E-04 0.00000000E+00
21  9 0.00000000E+00 0.00000000E+00 0.00000000E+00-5.44621512E-02 0.00000000E+00
21 10 0.00000000E+00 0.00000000E+00-1.29532391E-01 0.00000000E+00 0.00000000E+00
21 11 0.00000000E+00 2.54882631E-01 0.00000000E+00 0.00000000E+00 0.00000000E+00
21 12 0.00000000E+00 0.00000000E+00 0.00000000E+00 1.57116300E-02 0.00000000E+00
21 13 0.00000000E+00 0.00000000E+00 0.00000000E+00 0.00000000E+00 1.09646115E-01
21 14 0.00000000E+00 0.00000000E+00 0.00000000E+00 0.00000000E+00 0.00000000E+00
21 15 8.34706471E-01 0.00000000E+00 1.11342654E-02 0.00000000E+00 0.00000000E+00
21 16 0.00000000E+00 0.00000000E+00 4.97939486E-03 0.00000000E+00-1.99175794E-02
21 17 0.00000000E+00 0.00000000E+00