!  C2...General CI within valence space...cc-pVTZ
!  there are 110 AOs, the CI is within the 10 occupied orbs, less 2 cores.
!
!  17 space products are input, and 11 extra determinants will be generated
!  to make spin consistency.  The first 8 roots should come out as follows:
!
!    STATE   1  ENERGY= -75.5352008161  S=  0.00  SPACE SYM=AG
!    STATE   2  ENERGY= -75.4625270671  S=  1.00  SPACE SYM=B3U
!    STATE   3  ENERGY= -75.4625270671  S=  1.00  SPACE SYM=B2U
!    STATE   4  ENERGY= -75.4280773632  S=  1.00  SPACE SYM=B1U
!    STATE   5  ENERGY= -75.4273614300  S=  0.00  SPACE SYM=B3U
!    STATE   6  ENERGY= -75.4273614300  S=  0.00  SPACE SYM=B2U
!    STATE   7  ENERGY= -75.3891223963  S=  0.00  SPACE SYM=AG
!    STATE   8  ENERGY= -75.3683085350  S=  0.00  SPACE SYM=AG
!
!  This is an interesting calculation showing how the SCF determinant is 
!  by far not a good enough one.  The SCF energy is -75.4017922, which
!  has a CI coef of 0.9037 in the limited valence CI below (81% of wfn).
!  Joe's 2001 input for 5 active orbitals includes all double excitations
!  from the SCF det into the next highest orbital, and all singles,
!  was supplemented with the three remaining valence orbitals in 2015.
!
!  This calculation takes 1 seconds on a 2.66 GHz Cloverton (14 Apr 2015)
!
 $CONTRL SCFTYP=NONE CITYP=GENCI RUNTYP=ENERGY ispher=1 $END
 $SYSTEM mwords=1 $END
 $CIGEN  GLIST=INPUT group=d2h stsym=Ag ncore=2 nact=8 nels=8 NSTATE=8 $END
 $GUESS  GUESS=moread norb=10 $END
 $basis  gbasis=acct $end

!        first 11 are from Joe in 2001, last 6 from Mike in 2015.
 $GCILST
17 1 
2 2 2 2 0
2 2 0 2 2
2 2 2 0 2
0 2 2 2 2
1 2 2 2 1
2 0 2 2 2
2 1 2 2 1
2 2 1 2 1
2 2 2 1 1
1 2 1 2 2
1 2 2 1 2
2 0 2 2 0 0 0 2
2 2 2 0 0 2 0 0
2 2 2 0 0 0 2 0
2 2 0 2 0 2 0 0
2 2 0 2 0 0 2 0
2 2 1 1 0 1 1 0
 $END

 $DATA
C2 molecule
Dnh 2

CARBON 6.0     0.0 0.0 0.621265
 $END
 
xxx $contrl scftyp=rhf cityp=none $end
xxx $scf    vvos=.true. $end
xxx $guess  guess=huckel $end
--- CLOSED SHELL ORBITALS --- GENERATED AT Tue Apr 14 11:33:47 2015
C2 molecule...the virtuals include VVOs from RHF (see input just above)
E(RHF)=      -75.4017922780
 $VEC   
 1  1 6.91643391E-01-9.74173093E-05 2.82611622E-02 2.20065130E-03 0.00000000E+00
 1  2 0.00000000E+00-1.33538632E-04 0.00000000E+00 0.00000000E+00 6.03427338E-04
 1  3 0.00000000E+00 0.00000000E+00 3.43000139E-04-6.04328106E-05-6.04328106E-05
 1  4 1.20865621E-04 0.00000000E+00 0.00000000E+00 0.00000000E+00-8.07186668E-06
 1  5-8.07186668E-06 1.61437334E-05 0.00000000E+00 0.00000000E+00 0.00000000E+00
 1  6 0.00000000E+00 0.00000000E+00 1.81464759E-04 0.00000000E+00-1.21730261E-04
 1  7 0.00000000E+00-1.21730261E-04 0.00000000E+00 0.00000000E+00 0.00000000E+00
 1  8-3.83998173E-04 0.00000000E+00 0.00000000E+00 1.20775926E-04-1.56392454E-04
 1  9-1.56392454E-04 3.12784907E-04 0.00000000E+00 0.00000000E+00 0.00000000E+00
 1 10 0.00000000E+00 0.00000000E+00-8.24626298E-05 0.00000000E+00 5.53176137E-05
 1 11 0.00000000E+00 5.53176137E-05 0.00000000E+00 0.00000000E+00 0.00000000E+00
 1 12 6.91643391E-01-9.74173093E-05 2.82611622E-02 2.20065130E-03 0.00000000E+00
 1 13 0.00000000E+00 1.33538632E-04 0.00000000E+00 0.00000000E+00-6.03427338E-04
 1 14 0.00000000E+00 0.00000000E+00-3.43000139E-04-6.04328106E-05-6.04328106E-05
 1 15 1.20865621E-04 0.00000000E+00 0.00000000E+00 0.00000000E+00-8.07186668E-06
 1 16-8.07186668E-06 1.61437334E-05 0.00000000E+00 0.00000000E+00 0.00000000E+00
 1 17 0.00000000E+00 0.00000000E+00-1.81464759E-04 0.00000000E+00 1.21730261E-04
 1 18 0.00000000E+00 1.21730261E-04 0.00000000E+00 0.00000000E+00 0.00000000E+00
 1 19-3.83998173E-04 0.00000000E+00 0.00000000E+00-1.20775926E-04-1.56392454E-04
 1 20-1.56392454E-04 3.12784907E-04 0.00000000E+00 0.00000000E+00 0.00000000E+00
 1 21 0.00000000E+00 0.00000000E+00 8.24626298E-05 0.00000000E+00-5.53176137E-05
 1 22 0.00000000E+00-5.53176137E-05 0.00000000E+00 0.00000000E+00 0.00000000E+00
 2  1 6.92864105E-01 1.34536534E-03 2.83062421E-02 4.00223845E-02 0.00000000E+00
 2  2 0.00000000E+00-2.14731222E-04 0.00000000E+00 0.00000000E+00 5.41340896E-03
 2  3 0.00000000E+00 0.00000000E+00 1.60926737E-02-3.68957168E-04-3.68957168E-04
 2  4 7.37914337E-04 0.00000000E+00 0.00000000E+00 0.00000000E+00-1.14399405E-03
 2  5-1.14399405E-03 2.28798811E-03 0.00000000E+00 0.00000000E+00 0.00000000E+00
 2  6 0.00000000E+00 0.00000000E+00 5.20535533E-04 0.00000000E+00-3.49185851E-04
 2  7 0.00000000E+00-3.49185851E-04 0.00000000E+00 0.00000000E+00 0.00000000E+00
 2  8 9.22139254E-03 0.00000000E+00 0.00000000E+00 1.43577870E-03-1.19199556E-03
 2  9-1.19199556E-03 2.38399113E-03 0.00000000E+00 0.00000000E+00 0.00000000E+00
 2 10 0.00000000E+00 0.00000000E+00 1.43186853E-04 0.00000000E+00-9.60526608E-05
 2 11 0.00000000E+00-9.60526608E-05 0.00000000E+00 0.00000000E+00 0.00000000E+00
 2 12-6.92864105E-01-1.34536534E-03-2.83062421E-02-4.00223845E-02 0.00000000E+00
 2 13 0.00000000E+00-2.14731222E-04 0.00000000E+00 0.00000000E+00 5.41340896E-03
 2 14 0.00000000E+00 0.00000000E+00 1.60926737E-02 3.68957168E-04 3.68957168E-04
 2 15-7.37914337E-04 0.00000000E+00 0.00000000E+00 0.00000000E+00 1.14399405E-03
 2 16 1.14399405E-03-2.28798811E-03 0.00000000E+00 0.00000000E+00 0.00000000E+00
 2 17 0.00000000E+00 0.00000000E+00 5.20535533E-04 0.00000000E+00-3.49185851E-04
 2 18 0.00000000E+00-3.49185851E-04 0.00000000E+00 0.00000000E+00 0.00000000E+00
 2 19-9.22139254E-03 0.00000000E+00 0.00000000E+00 1.43577870E-03 1.19199556E-03
 2 20 1.19199556E-03-2.38399113E-03 0.00000000E+00 0.00000000E+00 0.00000000E+00
 2 21 0.00000000E+00 0.00000000E+00 1.43186853E-04 0.00000000E+00-9.60526608E-05
 2 22 0.00000000E+00-9.60526608E-05 0.00000000E+00 0.00000000E+00 0.00000000E+00
 3  1-1.72184572E-02 3.87837432E-01 9.37642729E-02 1.25507420E-01 0.00000000E+00
 3  2 0.00000000E+00 1.02066280E-01 0.00000000E+00 0.00000000E+00 9.52877294E-02
 3  3 0.00000000E+00 0.00000000E+00-2.80532127E-02-8.61935673E-03-8.61935673E-03
 3  4 1.72387135E-02 0.00000000E+00 0.00000000E+00 0.00000000E+00-1.54762310E-03
 3  5-1.54762310E-03 3.09524619E-03 0.00000000E+00 0.00000000E+00 0.00000000E+00
 3  6 0.00000000E+00 0.00000000E+00 6.72379297E-03 0.00000000E+00-4.51045744E-03
 3  7 0.00000000E+00-4.51045744E-03 0.00000000E+00 0.00000000E+00 0.00000000E+00
 3  8-9.15961200E-03 0.00000000E+00 0.00000000E+00-1.32586001E-02 1.04600189E-02
 3  9 1.04600189E-02-2.09200377E-02 0.00000000E+00 0.00000000E+00 0.00000000E+00
 3 10 0.00000000E+00 0.00000000E+00-5.70220642E-03 0.00000000E+00 3.82515635E-03
 3 11 0.00000000E+00 3.82515635E-03 0.00000000E+00 0.00000000E+00 0.00000000E+00
 3 12-1.72184572E-02 3.87837432E-01 9.37642729E-02 1.25507420E-01 0.00000000E+00
 3 13 0.00000000E+00-1.02066280E-01 0.00000000E+00 0.00000000E+00-9.52877294E-02
 3 14 0.00000000E+00 0.00000000E+00 2.80532127E-02-8.61935673E-03-8.61935673E-03
 3 15 1.72387135E-02 0.00000000E+00 0.00000000E+00 0.00000000E+00-1.54762310E-03
 3 16-1.54762310E-03 3.09524619E-03 0.00000000E+00 0.00000000E+00 0.00000000E+00
 3 17 0.00000000E+00 0.00000000E+00-6.72379297E-03 0.00000000E+00 4.51045744E-03
 3 18 0.00000000E+00 4.51045744E-03 0.00000000E+00 0.00000000E+00 0.00000000E+00
 3 19-9.15961200E-03 0.00000000E+00 0.00000000E+00 1.32586001E-02 1.04600189E-02
 3 20 1.04600189E-02-2.09200377E-02 0.00000000E+00 0.00000000E+00 0.00000000E+00
 3 21 0.00000000E+00 0.00000000E+00 5.70220642E-03 0.00000000E+00-3.82515635E-03
 3 22 0.00000000E+00-3.82515635E-03 0.00000000E+00 0.00000000E+00 0.00000000E+00
 4  1 3.94914025E-03 3.77973035E-01 9.37115916E-02 4.42015585E-01 0.00000000E+00
 4  2 0.00000000E+00-9.97766478E-02 0.00000000E+00 0.00000000E+00-1.38683062E-01
 4  3 0.00000000E+00 0.00000000E+00-2.44983994E-02 1.67095224E-03 1.67095224E-03
 4  4-3.34190449E-03 0.00000000E+00 0.00000000E+00 0.00000000E+00 1.19290199E-03
 4  5 1.19290199E-03-2.38580399E-03 0.00000000E+00 0.00000000E+00 0.00000000E+00
 4  6 0.00000000E+00 0.00000000E+00-1.07513871E-03 0.00000000E+00 7.21224970E-04
 4  7 0.00000000E+00 7.21224970E-04 0.00000000E+00 0.00000000E+00 0.00000000E+00
 4  8 4.36873101E-02 0.00000000E+00 0.00000000E+00-5.26623224E-04-3.81251823E-03
 4  9-3.81251823E-03 7.62503646E-03 0.00000000E+00 0.00000000E+00 0.00000000E+00
 4 10 0.00000000E+00 0.00000000E+00-4.80925856E-04 0.00000000E+00 3.22614872E-04
 4 11 0.00000000E+00 3.22614872E-04 0.00000000E+00 0.00000000E+00 0.00000000E+00
 4 12-3.94914025E-03-3.77973035E-01-9.37115916E-02-4.42015585E-01 0.00000000E+00
 4 13 0.00000000E+00-9.97766478E-02 0.00000000E+00 0.00000000E+00-1.38683062E-01
 4 14 0.00000000E+00 0.00000000E+00-2.44983994E-02-1.67095224E-03-1.67095224E-03
 4 15 3.34190449E-03 0.00000000E+00 0.00000000E+00 0.00000000E+00-1.19290199E-03
 4 16-1.19290199E-03 2.38580399E-03 0.00000000E+00 0.00000000E+00 0.00000000E+00
 4 17 0.00000000E+00 0.00000000E+00-1.07513871E-03 0.00000000E+00 7.21224970E-04
 4 18 0.00000000E+00 7.21224970E-04 0.00000000E+00 0.00000000E+00 0.00000000E+00
 4 19-4.36873101E-02 0.00000000E+00 0.00000000E+00-5.26623224E-04 3.81251823E-03
 4 20 3.81251823E-03-7.62503646E-03 0.00000000E+00 0.00000000E+00 0.00000000E+00
 4 21 0.00000000E+00 0.00000000E+00-4.80925856E-04 0.00000000E+00 3.22614872E-04
 4 22 0.00000000E+00 3.22614872E-04 0.00000000E+00 0.00000000E+00 0.00000000E+00
 5  1 0.00000000E+00 0.00000000E+00 0.00000000E+00 0.00000000E+00 2.30742118E-01
 5  2 0.00000000E+00 0.00000000E+00 3.08809871E-01 0.00000000E+00 0.00000000E+00
 5  3 1.65824909E-01 0.00000000E+00 0.00000000E+00 0.00000000E+00 0.00000000E+00
 5  4 0.00000000E+00 0.00000000E+00 2.03243723E-02 0.00000000E+00 0.00000000E+00
 5  5 0.00000000E+00 0.00000000E+00 0.00000000E+00 2.56336230E-02 0.00000000E+00
 5  6-6.34075305E-03 0.00000000E+00 0.00000000E+00 0.00000000E+00 0.00000000E+00
 5  7-2.83567097E-03 0.00000000E+00 1.13426839E-02 0.00000000E+00 0.00000000E+00
 5  8 0.00000000E+00 5.38330346E-03 0.00000000E+00 0.00000000E+00 0.00000000E+00
 5  9 0.00000000E+00 0.00000000E+00 0.00000000E+00 1.69293564E-03 0.00000000E+00
 5 10 6.79802749E-04 0.00000000E+00 0.00000000E+00 0.00000000E+00 0.00000000E+00
 5 11 3.04017031E-04 0.00000000E+00-1.21606813E-03 0.00000000E+00 0.00000000E+00
 5 12 0.00000000E+00 0.00000000E+00 0.00000000E+00 0.00000000E+00 2.30742118E-01
 5 13 0.00000000E+00 0.00000000E+00 3.08809871E-01 0.00000000E+00 0.00000000E+00
 5 14 1.65824909E-01 0.00000000E+00 0.00000000E+00 0.00000000E+00 0.00000000E+00
 5 15 0.00000000E+00 0.00000000E+00-2.03243723E-02 0.00000000E+00 0.00000000E+00
 5 16 0.00000000E+00 0.00000000E+00 0.00000000E+00-2.56336230E-02 0.00000000E+00
 5 17-6.34075305E-03 0.00000000E+00 0.00000000E+00 0.00000000E+00 0.00000000E+00
 5 18-2.83567097E-03 0.00000000E+00 1.13426839E-02 0.00000000E+00 0.00000000E+00
 5 19 0.00000000E+00 5.38330346E-03 0.00000000E+00 0.00000000E+00 0.00000000E+00
 5 20 0.00000000E+00 0.00000000E+00 0.00000000E+00-1.69293564E-03 0.00000000E+00
 5 21 6.79802749E-04 0.00000000E+00 0.00000000E+00 0.00000000E+00 0.00000000E+00
 5 22 3.04017031E-04 0.00000000E+00-1.21606813E-03 0.00000000E+00 0.00000000E+00
 6  1 0.00000000E+00 0.00000000E+00 0.00000000E+00 0.00000000E+00 0.00000000E+00
 6  2 2.30742118E-01 0.00000000E+00 0.00000000E+00 3.08809871E-01 0.00000000E+00
 6  3 0.00000000E+00 1.65824909E-01 0.00000000E+00 0.00000000E+00 0.00000000E+00
 6  4 0.00000000E+00 0.00000000E+00 0.00000000E+00 2.03243723E-02 0.00000000E+00
 6  5 0.00000000E+00 0.00000000E+00 0.00000000E+00 0.00000000E+00 2.56336230E-02
 6  6 0.00000000E+00-6.34075305E-03 0.00000000E+00-2.83567097E-03 0.00000000E+00
 6  7 0.00000000E+00 0.00000000E+00 0.00000000E+00 1.13426839E-02 0.00000000E+00
 6  8 0.00000000E+00 0.00000000E+00 5.38330346E-03 0.00000000E+00 0.00000000E+00
 6  9 0.00000000E+00 0.00000000E+00 0.00000000E+00 0.00000000E+00 1.69293564E-03
 6 10 0.00000000E+00 6.79802749E-04 0.00000000E+00 3.04017031E-04 0.00000000E+00
 6 11 0.00000000E+00 0.00000000E+00 0.00000000E+00-1.21606813E-03 0.00000000E+00
 6 12 0.00000000E+00 0.00000000E+00 0.00000000E+00 0.00000000E+00 0.00000000E+00
 6 13 2.30742118E-01 0.00000000E+00 0.00000000E+00 3.08809871E-01 0.00000000E+00
 6 14 0.00000000E+00 1.65824909E-01 0.00000000E+00 0.00000000E+00 0.00000000E+00
 6 15 0.00000000E+00 0.00000000E+00 0.00000000E+00-2.03243723E-02 0.00000000E+00
 6 16 0.00000000E+00 0.00000000E+00 0.00000000E+00 0.00000000E+00-2.56336230E-02
 6 17 0.00000000E+00-6.34075305E-03 0.00000000E+00-2.83567097E-03 0.00000000E+00
 6 18 0.00000000E+00 0.00000000E+00 0.00000000E+00 1.13426839E-02 0.00000000E+00
 6 19 0.00000000E+00 0.00000000E+00 5.38330346E-03 0.00000000E+00 0.00000000E+00
 6 20 0.00000000E+00 0.00000000E+00 0.00000000E+00 0.00000000E+00-1.69293564E-03
 6 21 0.00000000E+00 6.79802749E-04 0.00000000E+00 3.04017031E-04 0.00000000E+00
 6 22 0.00000000E+00 0.00000000E+00 0.00000000E+00-1.21606813E-03 0.00000000E+00
 7  1-3.62779268E-02-1.95858327E-01-5.13219871E-02-1.60245606E-01 0.00000000E+00
 7  2 0.00000000E+00 2.39782437E-01 0.00000000E+00 0.00000000E+00 3.37708354E-01
 7  3 0.00000000E+00 0.00000000E+00 1.95769634E-01-1.44559955E-03-1.44559955E-03
 7  4 2.89119911E-03 0.00000000E+00 0.00000000E+00 0.00000000E+00 8.43818705E-03
 7  5 8.43818705E-03-1.68763741E-02 0.00000000E+00 0.00000000E+00 0.00000000E+00
 7  6 0.00000000E+00 0.00000000E+00-2.04949413E-04 0.00000000E+00 1.37484246E-04
 7  7 0.00000000E+00 1.37484246E-04 0.00000000E+00 0.00000000E+00 0.00000000E+00
 7  8-3.68989305E-03 0.00000000E+00 0.00000000E+00 1.15340823E-02 3.53612326E-03
 7  9 3.53612326E-03-7.07224651E-03 0.00000000E+00 0.00000000E+00 0.00000000E+00
 7 10 0.00000000E+00 0.00000000E+00-7.09740757E-03 0.00000000E+00 4.76108574E-03
 7 11 0.00000000E+00 4.76108574E-03 0.00000000E+00 0.00000000E+00 0.00000000E+00
 7 12-3.62779268E-02-1.95858327E-01-5.13219871E-02-1.60245606E-01 0.00000000E+00
 7 13 0.00000000E+00-2.39782437E-01 0.00000000E+00 0.00000000E+00-3.37708354E-01
 7 14 0.00000000E+00 0.00000000E+00-1.95769634E-01-1.44559955E-03-1.44559955E-03
 7 15 2.89119911E-03 0.00000000E+00 0.00000000E+00 0.00000000E+00 8.43818705E-03
 7 16 8.43818705E-03-1.68763741E-02 0.00000000E+00 0.00000000E+00 0.00000000E+00
 7 17 0.00000000E+00 0.00000000E+00 2.04949413E-04 0.00000000E+00-1.37484246E-04
 7 18 0.00000000E+00-1.37484246E-04 0.00000000E+00 0.00000000E+00 0.00000000E+00
 7 19-3.68989305E-03 0.00000000E+00 0.00000000E+00-1.15340823E-02 3.53612326E-03
 7 20 3.53612326E-03-7.07224651E-03 0.00000000E+00 0.00000000E+00 0.00000000E+00
 7 21 0.00000000E+00 0.00000000E+00 7.09740757E-03 0.00000000E+00-4.76108574E-03
 7 22 0.00000000E+00-4.76108574E-03 0.00000000E+00 0.00000000E+00 0.00000000E+00
 8  1 0.00000000E+00 0.00000000E+00 0.00000000E+00 0.00000000E+00 3.24226366E-01
 8  2 0.00000000E+00 0.00000000E+00 4.34984898E-01 0.00000000E+00 0.00000000E+00
 8  3 3.07012491E-01 0.00000000E+00 0.00000000E+00 0.00000000E+00 0.00000000E+00
 8  4 0.00000000E+00 0.00000000E+00 9.94082614E-04 0.00000000E+00 0.00000000E+00
 8  5 0.00000000E+00 0.00000000E+00 0.00000000E+00-1.96600606E-02 0.00000000E+00
 8  6 1.42285402E-03 0.00000000E+00 0.00000000E+00 0.00000000E+00 0.00000000E+00
 8  7 6.36319662E-04 0.00000000E+00-2.54527865E-03 0.00000000E+00 0.00000000E+00
 8  8 0.00000000E+00 2.13886938E-02 0.00000000E+00 0.00000000E+00 0.00000000E+00
 8  9 0.00000000E+00 0.00000000E+00 0.00000000E+00 7.81817264E-03 0.00000000E+00
 8 10 2.98819038E-03 0.00000000E+00 0.00000000E+00 0.00000000E+00 0.00000000E+00
 8 11 1.33635936E-03 0.00000000E+00-5.34543745E-03 0.00000000E+00 0.00000000E+00
 8 12 0.00000000E+00 0.00000000E+00 0.00000000E+00 0.00000000E+00-3.24226366E-01
 8 13 0.00000000E+00 0.00000000E+00-4.34984898E-01 0.00000000E+00 0.00000000E+00
 8 14-3.07012491E-01 0.00000000E+00 0.00000000E+00 0.00000000E+00 0.00000000E+00
 8 15 0.00000000E+00 0.00000000E+00 9.94082614E-04 0.00000000E+00 0.00000000E+00
 8 16 0.00000000E+00 0.00000000E+00 0.00000000E+00-1.96600606E-02 0.00000000E+00
 8 17-1.42285402E-03 0.00000000E+00 0.00000000E+00 0.00000000E+00 0.00000000E+00
 8 18-6.36319662E-04 0.00000000E+00 2.54527865E-03 0.00000000E+00 0.00000000E+00
 8 19 0.00000000E+00-2.13886938E-02 0.00000000E+00 0.00000000E+00 0.00000000E+00
 8 20 0.00000000E+00 0.00000000E+00 0.00000000E+00 7.81817264E-03 0.00000000E+00
 8 21-2.98819038E-03 0.00000000E+00 0.00000000E+00 0.00000000E+00 0.00000000E+00
 8 22-1.33635936E-03 0.00000000E+00 5.34543745E-03 0.00000000E+00 0.00000000E+00
 9  1 0.00000000E+00 0.00000000E+00 0.00000000E+00 0.00000000E+00 0.00000000E+00
 9  2 3.24226366E-01 0.00000000E+00 0.00000000E+00 4.34984898E-01 0.00000000E+00
 9  3 0.00000000E+00 3.07012491E-01 0.00000000E+00 0.00000000E+00 0.00000000E+00
 9  4 0.00000000E+00 0.00000000E+00 0.00000000E+00 9.94082614E-04 0.00000000E+00
 9  5 0.00000000E+00 0.00000000E+00 0.00000000E+00 0.00000000E+00-1.96600606E-02
 9  6 0.00000000E+00 1.42285402E-03 0.00000000E+00 6.36319662E-04 0.00000000E+00
 9  7 0.00000000E+00 0.00000000E+00 0.00000000E+00-2.54527865E-03 0.00000000E+00
 9  8 0.00000000E+00 0.00000000E+00 2.13886938E-02 0.00000000E+00 0.00000000E+00
 9  9 0.00000000E+00 0.00000000E+00 0.00000000E+00 0.00000000E+00 7.81817264E-03
 9 10 0.00000000E+00 2.98819038E-03 0.00000000E+00 1.33635936E-03 0.00000000E+00
 9 11 0.00000000E+00 0.00000000E+00 0.00000000E+00-5.34543745E-03 0.00000000E+00
 9 12 0.00000000E+00 0.00000000E+00 0.00000000E+00 0.00000000E+00 0.00000000E+00
 9 13-3.24226366E-01 0.00000000E+00 0.00000000E+00-4.34984898E-01 0.00000000E+00
 9 14 0.00000000E+00-3.07012491E-01 0.00000000E+00 0.00000000E+00 0.00000000E+00
 9 15 0.00000000E+00 0.00000000E+00 0.00000000E+00 9.94082614E-04 0.00000000E+00
 9 16 0.00000000E+00 0.00000000E+00 0.00000000E+00 0.00000000E+00-1.96600606E-02
 9 17 0.00000000E+00-1.42285402E-03 0.00000000E+00-6.36319662E-04 0.00000000E+00
 9 18 0.00000000E+00 0.00000000E+00 0.00000000E+00 2.54527865E-03 0.00000000E+00
 9 19 0.00000000E+00 0.00000000E+00-2.13886938E-02 0.00000000E+00 0.00000000E+00
 9 20 0.00000000E+00 0.00000000E+00 0.00000000E+00 0.00000000E+00 7.81817264E-03
 9 21 0.00000000E+00-2.98819038E-03 0.00000000E+00-1.33635936E-03 0.00000000E+00
 9 22 0.00000000E+00 0.00000000E+00 0.00000000E+00 5.34543745E-03 0.00000000E+00
10  1 2.14612040E-01 8.10574978E-01 2.19303001E-01 6.05682012E-01 0.00000000E+00
10  2 0.00000000E+00 4.45990336E-01 0.00000000E+00 0.00000000E+00 6.08064959E-01
10  3 0.00000000E+00 0.00000000E+00 4.22107601E-01 3.31944988E-03 3.31944988E-03
10  4-6.63889976E-03 0.00000000E+00 0.00000000E+00 0.00000000E+00 6.69325110E-04
10  5 6.69325110E-04-1.33865022E-03 0.00000000E+00 0.00000000E+00 0.00000000E+00
10  6 0.00000000E+00 0.00000000E+00-6.76738092E-03 0.00000000E+00 4.53969713E-03
10  7 0.00000000E+00 4.53969713E-03 0.00000000E+00 0.00000000E+00 0.00000000E+00
10  8-1.01858937E-01 0.00000000E+00 0.00000000E+00-4.69560200E-03-1.05978188E-03
10  9-1.05978188E-03 2.11956376E-03 0.00000000E+00 0.00000000E+00 0.00000000E+00
10 10 0.00000000E+00 0.00000000E+00 7.70498134E-03 0.00000000E+00-5.16865861E-03
10 11 0.00000000E+00-5.16865861E-03 0.00000000E+00 0.00000000E+00 0.00000000E+00
10 12-2.14612040E-01-8.10574978E-01-2.19303001E-01-6.05682012E-01 0.00000000E+00
10 13 0.00000000E+00 4.45990336E-01 0.00000000E+00 0.00000000E+00 6.08064959E-01
10 14 0.00000000E+00 0.00000000E+00 4.22107601E-01-3.31944988E-03-3.31944988E-03
10 15 6.63889976E-03 0.00000000E+00 0.00000000E+00 0.00000000E+00-6.69325110E-04
10 16-6.69325110E-04 1.33865022E-03 0.00000000E+00 0.00000000E+00 0.00000000E+00
10 17 0.00000000E+00 0.00000000E+00-6.76738092E-03 0.00000000E+00 4.53969713E-03
10 18 0.00000000E+00 4.53969713E-03 0.00000000E+00 0.00000000E+00 0.00000000E+00
10 19 1.01858937E-01 0.00000000E+00 0.00000000E+00-4.69560200E-03 1.05978188E-03
10 20 1.05978188E-03-2.11956376E-03 0.00000000E+00 0.00000000E+00 0.00000000E+00
10 21 0.00000000E+00 0.00000000E+00 7.70498134E-03 0.00000000E+00-5.16865861E-03
10 22 0.00000000E+00-5.16865861E-03 0.00000000E+00 0.00000000E+00 0.00000000E+00
 $end

! TRAVIS-CI SMALL

