!  Duplicate work of B.R.Brooks, W.D.Laidig, P.Saxe, J.D.Goddard,
!  Y.Yamaguchi, H.F.Schaefer III, J.Chem.Phys. 72, 4652-3(1980).
!  RHF-CISD/DZP transition state for HCN, with 12,496 CSFs.
!
!  RHF FINAL E=-92.8104666541 in 14 iters,
!  CISD EIGENSTATE=-93.1089073560, RMS gradient=0.000008796
!
!  The memory is set so that generation of the DM2 matrix,
!  formation of the CI Lagrangian, DM2 back transformation, and
!  Z-vector response equations test out-of-memory algorithms.
!
!  This run takes 4 seconds on a 2.66 GHz Cloverton (18 Jun 2014)
!            answers have not changed since Nov 2005
!
 $contrl scftyp=rhf cityp=guga runtyp=gradient $end
 $system mwords=2 $end
 $gugdm2 nword=250000 $end
 $lagran nword=400000 $end
 $trfdm2 nword=400000 $end
 $cphf   nword=60000 $end
 $cidrt  group=Cs iexcit=2 nfzc=0 ndoc=7 nval=30 $end
 $guess  guess=huckel $end
 $data
HCN...Original Dunning DZ basis, plus polarization
Cs

N      7.0
  S  6
    1 5909.44    0.002004
    2  887.451   0.015310
    3  204.749   0.074293
    4   59.8376  0.253364
    5   19.9981  0.600576
    6    2.6860  0.245111
  S  1
    1    7.1927  1.0
  S  1
    1    0.7000  1.0
  S  1
    1    0.2133  1.0
  P  4
    1   26.7860  0.018257
    2    5.9564  0.116407
    3    1.7074  0.390111
    4    0.5314  0.637221
  P  1
    1    0.1654  1.0
  D  1
    1    0.80    1.0

C      6.0     1.1945000000
  S  6
    1 4232.61    0.002029
    2  634.882   0.015535
    3  146.097   0.075411
    4   42.4974  0.257121
    5   14.1892  0.596555
    6    1.9666  0.242517
  S  1
    1    5.1477  1.0
  S  1
    1    0.4962  1.0
  S  1
    1    0.1533  1.0
  P  4
    1   18.1557  0.018534
    2    3.9864  0.115442
    3    1.1429  0.386206
    4    0.3594  0.640089
  P  1
    1    0.1146  1.0
  D  1
    1    0.75    1.0

H      1.0    0.8787352582   1.1240918058     
  DH  0  1.2 1.2
  P  1
    1    1.00    1.0

 $end

! TRAVIS-CI SMALL

