!  Find RHF-CISD/DZP equilibrium geometry for HF dimer.
!  Duplicate work (but using no frozen virtuals) of 
!  J.F.Gaw, Y.Yamaguchi, M.A.Vincent, H.F.Schaefer III
!  J.AM.Chem.Soc. 1984, 106, 3133-3138.
!  There are 24 AOs and 3669 CSFs in the wavefunction.
!
!  NSERCH= 0: RHF FINAL E=-200.0431603263 after 12 iters, 5 geom. steps:
!      NSERCH:   0  E=     -200.2788617373, R.M.S.=  0.0001154
!      NSERCH:   1  E=     -200.2788616206, R.M.S.=  0.0000756
!      NSERCH:   2  E=     -200.2788610353, R.M.S.=  0.0002634
!      NSERCH:   3  E=     -200.2788617686, R.M.S.=  0.0000883
!      NSERCH:   4  E=     -200.2788618082, R.M.S.=  0.0000219
!      NSERCH:   5  E=     -200.2788618183, R.M.S.=  0.0000011
!  HF, F-H, and HF distances are 0.9577116, 1.8119350, .9600498
!  literature is 0.958, 1.812, 0.960, E=-200.27848
!
!  This run takes 6 seconds on a 2.66 GHz Cloverton (19 Jun 2014)
!        answers haven't changed since at least 2009
!
 $contrl scftyp=rhf cityp=guga runtyp=optimize $end
 $system mwords=1 $end
 $cidrt  group=Cs iexcit=2 nfzc=2 ndoc=8 nval=14 $end
 $guess  guess=huckel $end
 $statpt opttol=0.00001 $end
 $data
HF-HF dimer...original Dunning DZ basis (note unscaled H)
Cs

H      1.0   -1.9757433351             -.6760577854
  DH  0 1.0 1.0

F      9.0   -1.3417310148              .0421290828
  S  6
    1 9994.79    0.002017
    2 1506.03    0.015295
    3  350.269   0.073110
    4  104.053   0.246420
    5   34.8432  0.612593
    6    4.3688  0.242489
  S  1
    1   12.2164  1.0
  S  1
    1    1.2078  1.0
  S  1
    1    0.3634  1.0
  P  4
    1   44.3555  0.020868
    2   10.0820  0.130092
    3    2.9959  0.396219
    4    0.9383  0.620368
  P  1
    1    0.2733  1.0

H      1.0     .4690955913              .1073287940
  DH  0 1.0 1.0

F      9.0    1.4216554960             -.0119592109
  S  6
    1 9994.79    0.002017
    2 1506.03    0.015295
    3  350.269   0.073110
    4  104.053   0.246420
    5   34.8432  0.612593
    6    4.3688  0.242489
  S  1
    1   12.2164  1.0
  S  1
    1    1.2078  1.0
  S  1
    1    0.3634  1.0
  P  4
    1   44.3555  0.020868
    2   10.0820  0.130092
    3    2.9959  0.396219
    4    0.9383  0.620368
  P  1
    1    0.2733  1.0

 $end

! TRAVIS-CI SMALL

