!  One QM water plus two EFP waters...test of numerical gradients
!
!  FINAL R-B3LYP E= -76.4110995474, 15 iters, RMS grad= 0.009227935
!
!  This run takes 62 seconds on 2.66 GHz Cloverton (14 Apr 2015)
!
!  -------------------------------------------------------------------
!  ====> analytic result:    R.S GRADIENT =    0.009227506
!  UNITS ARE HARTREE/BOHR    E'X               E'Y               E'Z
!     1 O                 .015241893        .012301486        .024082261
!     2 H                 .008919672       -.005301607       -.012673068
!     3 H                -.017515853       -.003548656       -.011688382
!       TOTAL QM TRANS.   .006645711        .003451223       -.000279189
!       TOTAL QM TORQUE   .009325613       -.015397372        .016472000
!   EFP           Trans GRADIENT                           TORQUE
!     1   -.0040905   .0026120   .0040097      .0001336   .0014090  -.0001929
!     2   -.0025553  -.0060633  -.0037305      .0009274   .0000100  -.0006742
!
!  ====> numerical result:   R.S GRADIENT =    0.009227935
!  UNITS ARE HARTREE/BOHR    E'X               E'Y               E'Z
!     1 O                 .015243313        .012300676        .024083809
!     2 H                 .008920235       -.005301740       -.012673965
!     3 H                -.017516667       -.003549649       -.011688204
!       TOTAL QM trans.   .006646880        .003449287       -.000278360
!       total QM TORQUE   .009320858       -.015405836        .016461105
!   EFP           Trans GRADIENT                           TORQUE
!     1   -.0040908   .0026133   .0040092      .0001336   .0014088  -.0001932
!     2   -.0025561  -.0060626  -.0037308      .0009273   .0000098  -.0006746
!
 $CONTRL SCFTYP=RHF dfttyp=b3lyp runtyp=gradient numgrd=.true. $END
 $SYSTEM MWORDS=2 $END
 $BASIS  GBASIS=N31 NGAUSS=6 NDFUNC=1 NPFUNC=1 $END
 $DATA
one QM-style DFT water plus two DFT-style EFP water
C1
O           8.0   1.1867148663   0.0880119548  -0.6883350559
H           1.0   0.5364359282   0.3510489893  -0.0465420781
H           1.0   2.0393740291   0.2141589462  -0.3072633248
 $END
 $EFRAG

 FRAGNAME=H2ODFT
O1    -1.2945443020   0.0507734292   0.7942183451
H2    -2.0546747762   0.6073861517   0.7627712414
H3    -1.4611519555  -0.6936505513   0.2267299487
 FRAGNAME=H2ODFT
O1    -0.8541986554  -1.8633213069  -1.3198986625
H2    -0.0104934932  -1.4313997122  -1.3906135622
H3    -0.7281716414  -2.7799379008  -1.4990868517
 $END

! TRAVIS-CI SMALL

! TRAVIS-CI SKIP
