! efp hessian of water pentamer (H20)5
!
!  FINAL EFP ENERGY    = -.0527783043
!  FREQUENCY:           24.32,  41.87,  65.04,  67.05
!  FREQUENCY:  144.18, 160.54, 173.97, 181.17, 181.31
!  FREQUENCY:  224.08, 241.17, 245.46, 265.82, 303.64
!  FREQUENCY:  364.59, 386.15, 415.85, 421.00, 514.37
!  FREQUENCY:  634.23, 736.08, 764.30, 778.33, 901.98
!
!  This test takes 0 seconds on 2.66 GHz Cloverton (15 Apr 2015)
!  answer have not changed at all since 2007
!
 $contrl runtyp=hessian coord=fragonly $end
 $force nvib=2 $end
 $efrag 
 coord=cart polmethd=frgscf position=optimize
 FRAGNAME=H2ORHF
 ZO1               1.4490962455   1.6453038229   -.9570469337
 ZH2               1.6471455288    .7239650834   -.9042277834
 ZH3               1.5173295101   1.8857045933  -1.8672283141
 FRAGNAME=H2ORHF
 ZO1               1.8620995573  -1.1745293949   -.8350467523
 ZH2               1.1050977321  -1.6226883099   -.4930229553
 ZH3               2.6173973764  -1.5696876170   -.4297645814
 FRAGNAME=H2ORHF
 ZO1               -.4867489809  -2.3168455370    .3671013212
 ZH2              -1.1197715761  -1.6399635153    .5459632141
 ZH3               -.5151986002  -2.9146047006   1.0970006674
 FRAGNAME=H2ORHF
 ZO1               -.8723614481   2.2564578882    .5686346562
 ZH2               -.1084760847   2.1129458961    .0331331028
 ZH3               -.6040713586   2.8165648911   1.2793941284
 FRAGNAME=H2ORHF
 ZO1              -2.2820425078   -.1866285785    .9549646306
 ZH2              -3.0974508776   -.1007433909    .4874056728
 ZH3              -1.8439596935    .6470158761    .8917283652
 $end

! TRAVIS-CI SMALL

! TRAVIS-CI SKIP
