!  HCN plus a single water fragment
!  numerical hessian, given the transition state geometry
!
!  FINAL E=-91.5709962135 after 12 iterations.
!       FREQ=1241.84i, 41.15,  69.15,   84.36,   138.94
!  INTENSITY=  ---    0.06299, 0.11794, 0.15225, 0.07261
!       FREQ= 213.94, 267.28,  2126.18, 3061.87
!  INTENSITY=1.14744, 0.03389, 1.02862, 3.81223
!
!  This test takes 2 seconds on 2.66 GHz Cloverton (15 Apr 2015)
!  answers have not changes appreciably since 2005
!
 $CONTRL SCFTYP=RHF RUNTYP=hessian  $END
 $SYSTEM TIMLIM=30 mwords=1 $END
 $GUESS  GUESS=HUCKEL $END
 $BASIS  GBASIS=STO NGAUSS=3 $END
----- $gddi ngroup=2 PAROUT=.true. $end
 $force  nvib=2 $end
 $DATA
HYDROGEN CYANIDE...STO-3G...INTRINSIC REACTION COORDINATE
C1
NITROGEN    7.0   -.0394151464    .1905055977   -.3962002940
CARBON      6.0   1.1780819610    .2191548604   -.4155352053
HYDROGEN    1.0    .8402901875    .2685973952    .7402695252
 $END
 $efrag

fragname=h2orhf
ZO1                .1721193443    .4826326033   2.9325474149
ZH2                .6773867890    .8002646103   3.6637745831
ZH3               -.7363078345    .5575342481   3.1775540649
 $end

! TRAVIS-CI SMALL

! TRAVIS-CI SKIP
