!  hessian, after EFP2 optimization of the water pentamer (H20)5
!  there is no dispersion or charge transfer in this run.
!  Restart data is provided, so only 6 energies and gradients are computed.
!
!    FREQUENCY:       .73         .60         .39         .00         .00  
!    FREQUENCY:       .00       21.58       36.41       52.86       53.83  
!    FREQUENCY:    129.87      138.66      161.82      177.34      189.01  
!    FREQUENCY:    204.53      224.77      236.71      241.71      264.89  
!    FREQUENCY:    307.20      320.98      343.56      348.57      432.57  
!    FREQUENCY:    545.00      637.43      651.61      664.96      780.62
!
!  This test takes 0 seconds on 2.66 GHz Cloverton (15 Apr 2015)
!  answers haven't changed since at least 2011
!
 $contrl runtyp=hessian coord=fragonly $end
 $statpt opttol=0.00001 nstep=100 $end
---- $gddi ngroup=2 parout=.true. $end
 $efrag 
iscrelec=0 iscrpol=0 iscrdisp=0 >
coord=cart polmethd=frgscf position=optimize
 FRAGNAME=H2OPAU
 O1                1.5577832464   1.7432827329  -0.9981145902
 H2                1.7729278698   0.8353595143  -0.8602216605
 H3                1.6581427350   1.9069505970  -1.9269811325
 FRAGNAME=H2OPAU
 O1                1.9860323723  -1.2552608194  -0.8828661789
 H2                1.1938971128  -1.6899493980  -0.6123226329
 H3                2.7015819477  -1.7033164786  -0.4505616780
 FRAGNAME=H2OPAU
 O1               -0.5199708246  -2.4700575475   0.3548943654
 H2               -1.1630400929  -1.7896625014   0.4695710290
 H3               -0.5221011899  -2.9816067195   1.1536215755
 FRAGNAME=H2OPAU
 O1               -0.9465379110   2.4086705099   0.5713520000
 H2               -0.2270374446   2.2439445372  -0.0158538179
 H3               -0.6182019728   2.9901361578   1.2449583108
 FRAGNAME=H2OPAU
 O1               -2.4090313736  -0.2052023396   1.0527786687
 H2               -3.2286986510  -0.0509036948   0.6123655415
 H3               -1.9353193687   0.6164036907   1.0381938313
 $end

The following is from a DH(d,p) makefp job (i.e. efp1-makefp.inp):
It was created around 1997, and so this potential lacks new terms 
such as dispersion or charge transfer.

 $H2OPAULI
 TITLE
 COORDINATES 
O1          .0000000000    .0000000000    .0000000000  15.9949100  8.0
H2         -.5687367598  -1.6892160938    .0000000000   1.0078250  1.0
H3         1.7912683275   -.0638264775    .0000000000   1.0078250  1.0
BO21       -.2843683799   -.8446080469    .0000000000
BO31        .8956341638   -.0319132388    .0000000000
 STOP
 MONOPOLES 
O1        -8.2131246459   8.00000
H2         -.5569607178   1.00000
H3         -.5569625235   1.00000
BO21       -.3505926449    .00000
BO31       -.3223594679    .00000
 STOP
 DIPOLES 
O1           .2446910920    -.3588333523     .0000000000
H2          -.0286190829    -.0523645205     .0000000000
H3           .0595441318     .0084112660     .0000000000
BO21         .0476516665     .1706934751     .0000000000
BO31        -.1841617256    -.0053435827     .0000000000
 STOP
 QUADRUPOLES 
O1         -3.7569164817   -3.9213189944   -4.5571980564     .2201922555 >
     .0000000000     .0000000000
H2          -.2811644186    -.2657939278    -.2848307733     .0025558762 >
     .0000000000     .0000000000
H3          -.2678176714    -.2824220656    -.2862813911    -.0031962241 >
     .0000000000     .0000000000
BO21        -.1670934986    -.1371574820    -.1743813875     .0103596968 >
     .0000000000     .0000000000
BO31        -.0955366935    -.1156249133    -.1382401983     .0039843764 >
     .0000000000     .0000000000
 STOP
 OCTUPOLES  
O1           .5109428142    -.7898157020     .0000000000    -.2740448508 >
     .0000000000     .2135704600     .0000000000     .1893746633 >
    -.2775901647     .0000000000
H2          -.0351957282    -.0350630222     .0000000000    -.0162892096 >
     .0000000000    -.0062943434     .0000000000    -.0121744423 >
    -.0190177446     .0000000000
H3           .0427495372     .0145157881     .0000000000     .0063746215 >
     .0000000000     .0211999922     .0000000000     .0223945626 >
     .0047241848     .0000000000
BO21         .1399986748     .4959912760     .0000000000     .1659117485 >
     .0000000000     .0480557542     .0000000000     .0468664124 >
     .1658563798     .0000000000
BO31        -.5508093839    -.0610782769     .0000000000    -.0180740615 >
     .0000000000    -.1876769009     .0000000000    -.1834010047 >
    -.0151457211     .0000000000
 STOP
 POLARIZABLE POINTS
 CT1   -.2782958591   -.9299135188    .0000008325
     .9013185281    3.1369378204     .3934123030    1.0230497272 >
    -.0000004437    -.0000011799     .9251371293    -.0000008201 >
    -.0000019700
 CT2    .9714685696   -.0676795436    .0000005241
    3.5613418056     .5384258438     .3962553355    -.0580075172 >
     .0000007936    -.0000000021     .0392064702     .0000013495 >
     .0000000430
 CT3   -.1639385617    .2375442500   -.4932512798
     .9951274731    1.0426941414    1.1217972333    -.0712795559 >
     .3346556193    -.4826530121    -.0709317699     .3909444931 >
    -.5633487844
 CT4   -.1639398842    .2375465875    .4932499232
     .9951348736    1.0427043283    1.1217907528    -.0712800426 >
    -.3346559692     .4826541941    -.0709321685    -.3909450226 >
     .5633507114
 STOP
 PROJECTION BASIS SET
 O1            .0000000000    .0000000000    .0000000000    6.0
   S          7
     1      7817.0000000000   .69678312
     2      1176.0000000000  1.28354561
     3       273.2000000000  2.05307095
     4        81.1700000000  2.77401113
     5        27.1800000000  3.01714160
     6         9.5320000000  1.78333419
     7         3.4140000000   .25097153
   S          2
     8         9.5320000000  -.59600555
     9          .9398000000   .71899609
   S          1
    10          .2846000000   .27770664
   P          4
    11        35.1800000000  2.39123677
    12         7.9040000000  2.34622879
    13         2.3050000000  1.59794303
    14          .7171000000   .59012315
   P          1
    15          .2137000000   .20710746
   D          1
    16          .8500000000  1.23849021
 
 H2           -.5687367598  -1.6892160938    .0000000000    1.0
   S          3
    17        19.2384000000   .21492212
    18         2.8987200000   .36606653
    19          .6534720000   .42332351
   S          1
    20          .1630642500   .18288545
   P          1
    21         1.0000000000  1.42541094
 
 H3           1.7912683275   -.0638264775    .0000000000    1.0
   S          3
    22        19.2384000000   .21492212
    23         2.8987200000   .36606653
    24          .6534720000   .42332351
   S          1
    25          .1630642500   .18288545
   P          1
    26         1.0000000000  1.42541094
 
 STOP
 PROJECTION WAVEFUNCTION    4  25
 1  1 1.00798202E-01-2.13475198E-01-1.14257756E-01 1.55618777E-01 4.85975870E-01
 1  2-9.64893808E-07 3.39853010E-02 1.88066455E-01-5.33247101E-07 1.42848438E-02
 1  3-3.37505906E-02 6.57061481E-03-2.02054373E-03-1.92558044E-08 2.80124248E-08
 1  4-3.07662820E-01-1.31257686E-01-1.12172997E-02-2.66381829E-02-3.04856567E-08
 1  5 2.78784641E-02 4.81522922E-02 6.10445124E-03 1.31552931E-02-3.02784903E-08
 2  1-1.00378152E-01 2.12505911E-01 1.15265534E-01 5.09491131E-01-2.55108357E-02
 2  2 6.07740469E-07 1.89023411E-01-3.47394651E-02 3.35866850E-07 2.87991125E-02
 2  3-9.39339148E-03-6.56743178E-03-1.68179103E-02 1.21283104E-08-1.76436869E-08
 2  4-2.79189903E-02-4.81634627E-02 1.45623141E-02 1.00601140E-03 1.92014574E-08
 2  5 3.06687015E-01 1.32843875E-01-2.88523129E-02-1.14820042E-03 1.90709732E-08
 3  1-1.35452286E-01 2.94453982E-01 3.25841395E-01-1.86779667E-01 2.70980149E-01
 3  2-5.11128775E-01-1.02477871E-01 1.48576827E-01-2.82474543E-01-4.03707491E-03
 3  3-1.10032478E-02 6.22011613E-03 1.04680437E-02-1.02002890E-02 1.48388934E-02
 3  4-2.24852065E-02-2.55878952E-02-5.19449496E-03 8.61812389E-03-1.61490272E-02
 3  5-2.25618619E-02-2.60183184E-02-6.15817145E-03 7.87462229E-03-1.60392859E-02
 4  1-1.35452538E-01 2.94454548E-01 3.25842394E-01-1.86780755E-01 2.70982222E-01
 4  2 5.11126654E-01-1.02478457E-01 1.48577840E-01 2.82473371E-01-4.03709894E-03
 4  3-1.10033460E-02 6.22016216E-03 1.04681033E-02 1.02002467E-02-1.48388318E-02
 4  4-2.24858474E-02-2.55881919E-02-5.19455501E-03 8.61810817E-03 1.61489602E-02
 4  5-2.25622675E-02-2.60184934E-02-6.15815118E-03 7.87468116E-03 1.60392193E-02
  FOCK MATRIX ELEMENTS
    -.9111213099     .1880076204    -.9072725555     .1824054463 >
    -.1818865239    -.6652247043     .1824052095    -.1818864433 >
    -.1621187650    -.6652249287
  LMO CENTROIDS
 CT1   -.2782958591   -.9299135188    .0000008325
 CT2    .9714685696   -.0676795436    .0000005241
 CT3   -.1639385617    .2375442500   -.4932512798
 CT4   -.1639398842    .2375465875    .4932499232
 STOP
  $END

ENERGY/GRADIENT/DIPOLE RESTART DATA FOR RUNTYP=HESSIAN
FRAGONLY                                                                        
 $VIB   
         IVIB=   0 IATOM=   0 ICOORD=   0 E=       -0.0471160572
-1.189668192E-06-1.618527936E-07-6.650364499E-07
-2.294313961E-06-1.526325560E-06 1.949434510E-06
 5.224745000E-07 1.317783839E-06 1.888699453E-06
 4.674157516E-07-2.908356548E-06 3.174878582E-07
-8.061655816E-07 3.231054977E-07-5.511058804E-07
 1.782202021E-06 2.738702750E-06 2.687181198E-07
 1.122454373E-06-1.478896451E-06-1.025994058E-06
 9.841576875E-06 1.618466994E-06-7.004480477E-06
 3.509049006E-07-1.400923407E-10 3.534369347E-07
-3.893070355E-06 3.053975881E-06 1.566728211E-06
 0.000000000E+00 0.000000000E+00 0.000000000E+00
         IVIB=   1 IATOM=   1 ICOORD=   1 E=       -0.0471153875
 1.347503454E-04-5.122688298E-05-5.568046127E-05
 3.439895622E-06 2.407707944E-05 7.500081976E-05
-2.513831963E-05 1.941686012E-05-1.445767635E-07
-3.565272828E-07 2.933908062E-06 6.514154779E-05
-2.067062528E-06 2.698907840E-06-4.365852386E-07
 3.562432333E-06 3.758841222E-06 3.799637752E-06
-1.112333975E-04 2.535966434E-05 5.745101800E-05
 1.741796611E-05 4.860137691E-05-1.146770326E-05
 3.688434240E-06 3.751450681E-06-1.189394728E-06
-4.852832695E-06 4.181996831E-06 3.074727288E-06
 0.000000000E+00 0.000000000E+00 0.000000000E+00
         IVIB=   1 IATOM=   1 ICOORD=   2 E=       -0.0471151641
-5.243062222E-05 1.781026061E-04 1.129672785E-05
-6.866862851E-05-2.630359581E-05-1.744987232E-05
 1.108255829E-05-1.505028796E-04 5.003795521E-06
-1.604227150E-05-4.204885422E-06 8.507088421E-06
 3.938192816E-06 2.996748039E-06-2.863945719E-06
 6.156257031E-07 1.307352399E-06-2.659444450E-06
 3.562159404E-05-2.805558477E-05-1.302233857E-05
-3.101921993E-05-2.644783569E-05-5.763499115E-05
 1.788277070E-06-2.540889742E-06-4.142390850E-07
-6.673915400E-06 3.889433391E-06-4.515094026E-06
 0.000000000E+00 0.000000000E+00 0.000000000E+00
         IVIB=   1 IATOM=   1 ICOORD=   3 E=       -0.0471157663
-5.741003729E-05 1.193356221E-05 5.891684176E-05
-1.000828125E-05 1.845378746E-05 2.229358964E-05
-4.421058905E-07 3.304906384E-07-6.608134308E-06
-2.166542840E-05 7.107088962E-07 3.303187551E-06
-1.147090376E-06-1.304302342E-06-9.865844708E-07
 7.920966906E-07 3.442344603E-06-1.161763255E-06
 6.107262762E-05-8.782941371E-06-5.204477767E-05
 2.641066113E-05 3.570768068E-05 1.424192313E-05
-2.073394060E-06-2.176809132E-06 7.226546796E-07
-5.174369083E-06 2.578567433E-06 1.542560172E-06
 0.000000000E+00 0.000000000E+00 0.000000000E+00
         IVIB=   1 IATOM=   2 ICOORD=   1 E=       -0.0471148646
 4.308934244E-06-6.689396956E-05-8.637215035E-06
 2.412296627E-04 1.066165896E-04 5.137166105E-05
 2.868071567E-06 3.281531571E-05 3.459174903E-05
 6.361345139E-05-1.228729134E-05-9.465625440E-06
-2.682928895E-06 2.043621773E-06 1.851552620E-06
 5.337251471E-06-4.380150209E-06 1.137630321E-05
-3.608113623E-06 2.948336512E-05-2.793533259E-05
 6.311200688E-05 7.577121788E-05 7.184499123E-05
-8.859632929E-07 2.551666960E-06 1.292459814E-07
-5.120153697E-06 3.210487836E-06 1.739097661E-05
 0.000000000E+00 0.000000000E+00 0.000000000E+00
         IVIB=   1 IATOM=   2 ICOORD=   2 E=       -0.0471153773
 2.429799815E-05-2.485515214E-05 1.952390470E-05
 1.061342040E-04 1.377443337E-04 3.573160183E-05
-1.839561619E-06 2.981757581E-06 1.090276742E-05
 1.752503760E-05-1.816385613E-05 9.030363848E-06
-8.749044729E-07 1.529578252E-06-8.375210712E-08
-1.905759792E-07-3.219228980E-06 3.515967597E-06
-2.215763704E-05 1.950604053E-05-2.983541474E-05
 5.555490977E-05 1.019182996E-04 3.045299373E-05
 5.741049887E-07 8.377757791E-07-5.075052735E-07
-1.009586780E-05 1.766681695E-06 7.022358877E-06
 0.000000000E+00 0.000000000E+00 0.000000000E+00
         IVIB=   1 IATOM=   2 ICOORD=   3 E=       -0.0471139156
 7.138556302E-05-1.942049017E-05 1.984630957E-05
 4.673245685E-05 3.311049557E-05 4.260882093E-04
-7.802371294E-05-2.471920658E-05-2.874652702E-06
-9.887992433E-06 1.723756948E-05 1.856240489E-04
-5.113679521E-06 4.344603215E-06 3.967979690E-07
 1.288478203E-05 9.781749371E-06 2.282018770E-05
 1.245551866E-05 3.556860586E-05-1.819387962E-05
 8.385595434E-05 2.135472880E-05 8.122816906E-05
-7.036892192E-07 4.226487669E-06 8.254247814E-07
 9.129575400E-06 1.127099270E-06 2.140417412E-05
 0.000000000E+00 0.000000000E+00 0.000000000E+00
         IVIB=   1 IATOM=   3 ICOORD=   1 E=       -0.0471154052
-2.684188702E-05 1.063142700E-05-1.621296719E-06
 1.644091627E-07-3.908523350E-06-7.637060890E-05
 1.295227698E-04 3.151699929E-05-3.991876806E-05
 2.370022809E-06-2.813346456E-06-3.957297773E-05
-1.078802218E-04-3.475195823E-05 4.449485106E-05
 5.701624295E-06 3.590678869E-05 1.868451614E-05
 1.064987933E-06-4.195905320E-06-1.397077557E-06
 6.597469053E-06 2.175884371E-06-1.090447094E-05
 4.134351098E-06-3.200562736E-06-1.557708731E-06
-3.791297982E-06 3.832188971E-06-3.756829364E-07
 0.000000000E+00 0.000000000E+00 0.000000000E+00
         IVIB=   1 IATOM=   3 ICOORD=   2 E=       -0.0471150849
 1.717322095E-05-1.560411171E-04-1.528239164E-06
 2.983053567E-05 1.142053917E-07-2.472707571E-05
 3.079494008E-05 1.938130921E-04-2.410401652E-05
-7.156619643E-06-5.550587637E-06-6.538396554E-05
-4.357353872E-05-3.553281728E-05 2.283849913E-05
-1.757473851E-05-3.857640248E-06-4.191762405E-05
-3.656423716E-06 5.032552120E-07 2.036181470E-06
 8.984794363E-06 2.230795922E-06-9.787508205E-06
-7.381985923E-07-2.742413001E-06 7.575750900E-07
-4.918013508E-06 3.114909296E-06-2.903069977E-06
 0.000000000E+00 0.000000000E+00 0.000000000E+00
         IVIB=   1 IATOM=   3 ICOORD=   3 E=       -0.0471158310
-3.231154865E-06 3.092651497E-06-9.150292696E-06
 3.018672664E-05 7.489575053E-06-2.878128980E-06
-4.209739375E-05-2.498265123E-05 4.337308345E-05
-3.731245573E-06 3.199600495E-05-4.785663740E-07
 4.603670438E-05 2.039374575E-05-3.323037663E-05
 7.289399686E-06 1.805766953E-05 5.178438318E-06
 1.252630583E-06-2.768991465E-07-1.640713980E-06
 1.127776069E-05 3.174792229E-06-4.596666670E-06
-1.960786350E-06 1.773153130E-06 6.482998525E-07
-3.187466434E-06 3.240129217E-06 1.877733646E-06
 0.000000000E+00 0.000000000E+00 0.000000000E+00
         IVIB=   1 IATOM=   4 ICOORD=   1 E=       -0.0471151745
-1.971349717E-06-1.713575415E-05-2.250577231E-05
 6.050007425E-05 1.542395838E-05-8.415832208E-06
 2.274467227E-06-6.024931528E-06-2.352672974E-06
 1.757608389E-04-1.109781650E-04 7.279909103E-05
-4.644592468E-06 2.174902405E-05 2.604811445E-05
 1.842215813E-05-2.281629743E-05 3.707222408E-05
 2.049370932E-06-1.622201405E-07-2.029960352E-06
 1.265850852E-05 9.188651102E-06 3.577951258E-06
 2.292104027E-06 1.573881773E-06 8.402911852E-07
-7.159176493E-06 2.170848201E-06 1.676646043E-05
 0.000000000E+00 0.000000000E+00 0.000000000E+00
         IVIB=   1 IATOM=   4 ICOORD=   2 E=       -0.0471152447
 4.695220911E-06-1.546516332E-06 2.959254786E-06
-1.152547107E-05-1.676593895E-05 2.223906451E-05
 8.181114674E-07-1.516261086E-06 3.695950314E-05
-1.073179503E-04 1.658635659E-04 3.814893998E-05
-5.481963685E-06 2.996121255E-06-3.826172519E-05
 2.061223741E-05 5.853201119E-05 9.952194654E-06
 1.366084482E-06-9.896295969E-07-7.792743635E-07
 1.114178369E-05-4.325496074E-06-5.925679187E-06
-1.397453175E-06 1.056285759E-06-8.777583694E-07
 2.849549051E-06 5.444142202E-06-2.549320536E-06
 0.000000000E+00 0.000000000E+00 0.000000000E+00
         IVIB=   1 IATOM=   4 ICOORD=   3 E=       -0.0471139053
 6.363825040E-05 7.423933654E-06 2.425755932E-06
-1.232806406E-05 7.309786362E-06 1.872601331E-04
-3.934898336E-05-6.399368718E-05 1.211086279E-06
 7.307761964E-05 3.474770711E-05 4.304143651E-04
-3.283367503E-05 5.096927365E-05 2.382488932E-08
 5.075783332E-05 5.500860478E-05 1.190025993E-04
 5.078045152E-06 6.183889728E-07-2.391405983E-06
 2.344288328E-05-2.230949062E-06 1.271835633E-05
 3.466362839E-06 4.982090900E-06-1.269261117E-06
 7.811880626E-06 2.297525245E-06 2.228973865E-05
 0.000000000E+00 0.000000000E+00 0.000000000E+00
         IVIB=   1 IATOM=   5 ICOORD=   1 E=       -0.0471151406
-2.467394097E-06 4.613133732E-06-1.011417716E-06
-4.237933327E-06-1.614436737E-06-2.487968389E-06
-1.087122556E-04-4.220528927E-05 4.912762181E-05
-3.632934866E-06-6.975496886E-06-3.163977418E-05
 1.843479959E-04-2.289136653E-05-6.664485075E-05
-1.431059625E-05-1.915018756E-05-8.226285819E-05
-1.958006216E-06-3.372464369E-06 1.116611161E-07
 7.660843744E-06 1.763885657E-06-1.074521973E-05
-7.121033995E-05 6.385598643E-05 1.841698554E-05
-5.346020104E-06 1.239263756E-05-5.083049585E-05
 0.000000000E+00 0.000000000E+00 0.000000000E+00
         IVIB=   1 IATOM=   5 ICOORD=   2 E=       -0.0471154190
 1.198236733E-06 2.515110719E-06-2.299283745E-06
-6.300904262E-07-3.255374688E-07 5.915721634E-06
-3.525115491E-05-3.465897813E-05 2.195594385E-05
 2.201620656E-05-4.065538420E-07 5.084858871E-05
-2.569030263E-05 1.276157420E-04 1.018754790E-05
 3.314679176E-05 3.300505336E-05-6.257948509E-06
 2.021581750E-06 3.910136637E-06-1.026133982E-06
 1.012614762E-05 1.870876570E-06-7.589957769E-06
 5.772163906E-05-9.938201125E-05-2.881807402E-05
 1.777267966E-07 1.611690080E-05-3.318096657E-05
 0.000000000E+00 0.000000000E+00 0.000000000E+00
         IVIB=   1 IATOM=   5 ICOORD=   3 E=       -0.0471157933
-1.074135151E-06-2.485954060E-06-1.093526938E-06
 1.318077433E-07-1.050687664E-06 2.940175210E-06
 4.594276633E-05 2.471589080E-05-3.064710850E-05
 2.699347929E-05-4.024214154E-05 1.129069091E-06
-6.626051847E-05 1.101553470E-05 5.328460203E-05
 2.954493983E-05 2.387368030E-05-1.545274619E-05
 2.169083375E-06-1.005698452E-06-2.106895664E-06
 1.154316156E-05 4.808391684E-07-4.971325167E-06
 1.922280392E-05-3.223977298E-05-1.943707093E-05
 2.203898597E-05 1.858905763E-05-1.098599584E-05
 0.000000000E+00 0.000000000E+00 0.000000000E+00
         IVIB=   1 IATOM=   6 ICOORD=   1 E=       -0.0471154763
 5.903929451E-07-1.358326616E-06-1.648113139E-06
 1.249854723E-06-3.467962504E-06 1.310707699E-05
 4.403104004E-06-1.822114657E-05 7.403634968E-06
 1.740912118E-05 1.585435063E-05 4.932862398E-05
-1.695032528E-05 3.138086770E-05 2.728836795E-05
 1.146187051E-04 9.835779207E-05 7.189311445E-05
 3.168095517E-06-5.058627028E-07-2.725082943E-06
 1.551910201E-05-3.093537923E-06 2.033701153E-06
 8.788732811E-06-1.129553181E-05-3.031880684E-05
 3.885794605E-05 3.087393145E-05-1.870487475E-06
 0.000000000E+00 0.000000000E+00 0.000000000E+00
         IVIB=   1 IATOM=   6 ICOORD=   2 E=       -0.0471148627
-1.820114724E-07-1.642368628E-06 5.460567866E-08
-9.418466060E-06-7.471997446E-06 9.036965100E-06
 3.371168886E-05-5.405395604E-06 1.733757501E-05
-2.516418722E-05 5.230904583E-05 5.192730003E-05
-2.221907453E-05 3.056858106E-05 2.020356097E-05
 9.685789117E-05 2.363679846E-04-1.674382552E-05
 8.722726803E-07-1.216091549E-06-2.649891417E-06
 1.486545815E-05-8.086987583E-06-7.520398970E-06
-1.218287554E-05-2.230472528E-05-3.494585025E-05
 5.228577145E-05 2.868353304E-05-5.674963261E-05
 0.000000000E+00 0.000000000E+00 0.000000000E+00
         IVIB=   1 IATOM=   6 ICOORD=   3 E=       -0.0471139314
 2.316932716E-06-3.159951333E-06-2.059587720E-06
 8.687714017E-06 1.713158514E-06 2.450309865E-05
 1.873439246E-05-4.097183688E-05 7.159944108E-06
 3.707065994E-05 6.741136654E-06 1.185755927E-04
-8.338040913E-05-5.819122200E-06-1.650578804E-05
 7.313253491E-05-1.263567843E-05 4.248373887E-04
 6.735507593E-06-2.466190551E-06-3.328416182E-06
 2.208952418E-05 2.502324187E-06 1.432346476E-05
 5.559357636E-05 5.241710096E-05 1.473384784E-05
-7.819590034E-06-3.918307181E-05 1.749993440E-04
 0.000000000E+00 0.000000000E+00 0.000000000E+00
         IVIB=   1 IATOM=   7 ICOORD=   1 E=       -0.0471152342
-1.158454427E-04 3.467296297E-05 5.962763116E-05
-7.297574662E-06-2.519513367E-05 1.316762162E-05
 4.533451041E-07-3.453551916E-06 2.014926819E-06
 1.385739059E-06-2.677163674E-06 4.240312786E-06
-3.887631716E-06 1.221943080E-06 4.980691553E-07
 3.834874166E-06 2.505533614E-06 5.934991574E-06
 1.638299666E-04 2.929020287E-05-8.099049241E-05
 2.440843313E-05-4.858881583E-05 2.712440598E-05
-4.455023725E-05-6.173155701E-05 1.884986527E-05
 2.098540172E-05-9.303716930E-06 3.614175750E-05
 0.000000000E+00 0.000000000E+00 0.000000000E+00
         IVIB=   1 IATOM=   7 ICOORD=   2 E=       -0.0471153862
 2.596313306E-05-2.675979208E-05-7.888197976E-06
 2.855821270E-05 1.958897123E-05 3.911836903E-05
-2.188949278E-06 3.301306110E-06 3.088499505E-06
 1.811578449E-06-2.404787017E-06 2.466276243E-06
-2.692599307E-06 5.681339709E-06-7.326308310E-08
 2.805475566E-06 3.062145676E-06-5.852816453E-07
 3.194561627E-05 1.352724662E-04-1.329201379E-05
 3.857540903E-05 2.940416817E-05 1.676957686E-05
-5.302720075E-05-1.174953200E-04 1.816497535E-05
-1.723712331E-06-4.668164991E-06-3.307625298E-05
 0.000000000E+00 0.000000000E+00 0.000000000E+00
         IVIB=   1 IATOM=   7 ICOORD=   3 E=       -0.0471156765
 5.761430243E-05-1.206372038E-05-5.125635174E-05
-2.910160824E-05-2.975949578E-05-1.481331865E-05
 1.532312350E-07 4.368794557E-06 1.280314425E-06
-5.300368215E-07-2.650751926E-06-1.016675629E-06
 3.281043833E-07 3.298509922E-07-1.630837485E-06
 9.488663785E-08 1.114687197E-06-2.042883681E-06
-7.777041382E-05-1.411751392E-05 7.709500179E-05
-5.536719065E-05-1.165698213E-06-5.074678691E-05
 1.967477578E-05 2.148258875E-05-2.548812699E-05
-7.302313562E-05 3.472222426E-05-1.623679857E-05
 0.000000000E+00 0.000000000E+00 0.000000000E+00
         IVIB=   1 IATOM=   8 ICOORD=   1 E=       -0.0471147878
 6.272283675E-06-4.107337900E-05 1.578172373E-05
 5.070851848E-05 4.402605311E-05 7.617878921E-05
-2.749345418E-06 5.261319755E-07 3.320470743E-06
 3.269110820E-06-1.611278270E-06 1.394508980E-05
-2.983764325E-06 6.492203842E-07 1.154409175E-06
 7.432790386E-06 7.844842035E-06 1.245717485E-05
 1.561681866E-05 2.681893636E-05-6.631209155E-05
 2.442315359E-04-1.234722867E-05 1.791466174E-04
-1.615599259E-05 1.307909028E-05 4.605548790E-05
 1.101858894E-04-5.516738842E-05 6.147603344E-05
 0.000000000E+00 0.000000000E+00 0.000000000E+00
         IVIB=   1 IATOM=   8 ICOORD=   2 E=       -0.0471145949
 4.592875701E-05-2.818807644E-05 3.326230102E-05
 7.187825715E-05 9.827093380E-05 2.160414606E-05
 1.041349559E-06 2.026995862E-06 3.444656552E-06
 8.057209661E-06-8.830148900E-06-3.459752763E-06
-6.659025794E-07 6.180740763E-07-1.694528217E-06
-2.907069371E-06-6.977303521E-06 1.237887719E-06
-4.846591092E-05 2.610752710E-05-3.739123347E-06
-2.869560739E-06 2.904986155E-04 2.657035379E-05
 2.161706931E-06-5.645205984E-07-3.127330601E-05
-9.212128784E-05 3.174847366E-05-2.894929716E-06
 0.000000000E+00 0.000000000E+00 0.000000000E+00
         IVIB=   1 IATOM=   8 ICOORD=   3 E=       -0.0471146834
-5.680329486E-06-5.084869006E-05 2.057973772E-05
 7.648856005E-05 3.633023702E-05 9.048093081E-05
-3.417291455E-06-1.353420047E-06 4.303167330E-06
 1.110970098E-05-1.881287564E-06 2.005272517E-05
-4.541839263E-06-2.054387051E-07 1.476446823E-06
 1.076084746E-05 2.226716546E-06 2.156868868E-05
 3.515953639E-05 2.176727820E-05-4.492336694E-05
 1.962543481E-04 3.519402756E-05 2.817661316E-04
-2.152007619E-05 3.064027061E-05 1.856401506E-05
 5.377206803E-05-1.550729331E-05 9.848781282E-05
 0.000000000E+00 0.000000000E+00 0.000000000E+00
         IVIB=   1 IATOM=   9 ICOORD=   1 E=       -0.0471155022
 2.157317272E-06 1.280482380E-06-3.093267124E-06
-3.582779574E-06-1.334671795E-06 8.332610181E-07
 4.318354264E-06 2.240315572E-07-4.294895555E-07
 2.375408999E-06-4.726480601E-06 3.361414570E-06
-7.328188146E-05 5.755364402E-05 1.845882551E-05
 1.026414777E-05-9.825551933E-06 5.548426523E-05
-4.402873877E-05-5.596117724E-05 1.835961124E-05
-7.143182409E-06 3.335765643E-06-2.921092173E-05
 1.108349487E-04-3.096980714E-06-3.329568008E-05
-2.671346000E-05 4.120129760E-06 2.043558643E-05
 0.000000000E+00 0.000000000E+00 0.000000000E+00
         IVIB=   1 IATOM=   9 ICOORD=   2 E=       -0.0471149428
 2.583848983E-06-2.718519865E-06-2.846323233E-06
 2.336543859E-07-6.971773619E-07 6.178229264E-06
-2.682993370E-06-1.410795682E-06 3.658823996E-06
 2.078447157E-06-1.819500209E-06 5.361313484E-06
 6.291078281E-05-9.737652072E-05-3.239946654E-05
-9.573889549E-06-1.921425354E-05 5.254136418E-05
-6.179329459E-05-1.215162947E-04 2.069333923E-05
 2.272741039E-05 8.501550914E-07 2.363216967E-05
-1.018343834E-06 2.230221310E-04 1.089362654E-05
-6.511604381E-06-2.751901808E-06 8.157925993E-05
 0.000000000E+00 0.000000000E+00 0.000000000E+00
         IVIB=   1 IATOM=   9 ICOORD=   3 E=       -0.0471158285
-2.742049186E-06-9.277124450E-07-2.882664175E-07
-2.506169762E-06-2.369369587E-06 2.447803420E-06
-1.397842163E-06 1.721085518E-06 2.190318977E-06
 9.667226900E-07-4.098660787E-06-1.263477759E-06
 1.740959571E-05-2.846272525E-05-2.041075504E-05
-2.874530407E-05-3.244198977E-05 1.486077867E-05
 1.969375820E-05 1.654248423E-05-2.689888514E-05
 5.539481491E-05-2.986379934E-05 1.120899351E-05
-3.296346256E-05 1.112686795E-05 4.540758763E-05
 3.982395129E-05-4.378198135E-05 3.153627928E-05
 0.000000000E+00 0.000000000E+00 0.000000000E+00
         IVIB=   1 IATOM=  10 ICOORD=   1 E=       -0.0471145385
-2.236527729E-06-2.941718498E-06-1.884183688E-06
-3.554666210E-06-7.675593313E-06 1.503428977E-05
 5.848540743E-07 3.178540970E-07 2.611743366E-06
-2.782210056E-06 3.762568578E-06 1.197850453E-05
-2.411554520E-06 4.646923141E-06 2.533791368E-05
 4.431728171E-05 5.883547433E-05-3.782179510E-06
 2.595052451E-05 5.163090755E-07-6.995736318E-05
 1.234602579E-04-8.630117075E-05 5.052147672E-05
-2.188729634E-05-2.539367816E-06 4.389188982E-05
 3.073615359E-04-6.250208227E-05 5.598342596E-05
 0.000000000E+00 0.000000000E+00 0.000000000E+00
         IVIB=   1 IATOM=  10 ICOORD=   2 E=       -0.0471155409
-7.608319920E-08 6.737053712E-07-1.120378458E-06
-2.101406054E-06-2.792805055E-06-1.017553891E-08
 1.287618265E-06 1.381058954E-06 2.077581257E-06
-3.933203843E-07-5.507489309E-07-4.891954574E-07
 8.442204382E-06 1.344522006E-05 1.486107257E-05
 2.948320449E-05 2.802940465E-05-4.204004783E-05
-1.121532293E-05-9.378880074E-06 3.065371158E-05
-4.823264559E-05 3.046017751E-05-2.554061567E-05
 1.561583482E-06-6.121104315E-06-4.647198695E-05
-7.034004950E-05 1.001138557E-04-6.345768655E-05
 0.000000000E+00 0.000000000E+00 0.000000000E+00
         IVIB=   1 IATOM=  10 ICOORD=   3 E=       -0.0471140164
 2.157246124E-07-6.259940181E-06-6.190233814E-07
 1.348579707E-05 3.950764754E-06 2.181200169E-05
-1.502139293E-06-3.113346627E-06 2.236458831E-06
 1.568523573E-05-7.051095943E-06 2.103992849E-05
-5.384685289E-05-3.381341769E-05-1.293409338E-05
-1.712214498E-06-5.507220255E-05 1.736685201E-04
 3.599042648E-05-3.639324149E-05-1.883362548E-05
 7.027382128E-05-3.309870427E-06 9.013021482E-05
 1.914284110E-05 7.957994599E-05 3.015028340E-05
 5.098242216E-05-6.215879662E-05 4.069764064E-04
 0.000000000E+00 0.000000000E+00 0.000000000E+00
         IVIB=   2 IATOM=   1 ICOORD=   1 E=       -0.0471153560
-1.394429786E-04 5.164257602E-05 5.588861534E-05
-8.056107347E-06-2.747698287E-05-7.075731571E-05
 2.618906834E-05-1.676069870E-05 3.915650018E-06
 1.231693954E-06-8.754522683E-06-6.439419068E-05
 4.771463079E-07-2.057944594E-06-6.712102552E-07
-1.226636905E-08 1.701399646E-06-3.292675375E-06
 1.157778476E-04-2.904583755E-05-6.103771575E-05
 2.096907767E-06-4.604936107E-05-2.527973612E-06
-3.001083580E-06-3.778095175E-06 1.904660649E-06
-2.933456577E-06 1.921330799E-06 3.564348314E-08
 0.000000000E+00 0.000000000E+00 0.000000000E+00
         IVIB=   2 IATOM=   1 ICOORD=   2 E=       -0.0471151472
 5.043818043E-05-1.825330973E-04-1.253571910E-05
 6.488747200E-05 2.326436433E-05 2.065528132E-05
-1.050643063E-05 1.571984871E-04-1.307423076E-06
 1.733830663E-05-1.565407838E-06-7.891406161E-06
-5.590666964E-06-2.360932809E-06 1.779791426E-06
 2.963160591E-06 4.184430082E-06 3.228781599E-06
-3.325705941E-05 2.513490758E-05 1.094223732E-05
 5.067902140E-05 2.951953801E-05 4.355109384E-05
-1.084023418E-06 2.560635491E-06 1.121113428E-06
-1.100779922E-06 2.216032209E-06 7.676424859E-06
 0.000000000E+00 0.000000000E+00 0.000000000E+00
         IVIB=   2 IATOM=   1 ICOORD=   3 E=       -0.0471157546
 5.415160134E-05-1.190000891E-05-5.978731693E-05
 5.572007402E-06-2.111352871E-05-1.815028032E-05
 1.491287660E-06 2.099483102E-06 1.036638375E-05
 2.244471854E-05-6.552546739E-06-2.622643809E-06
-4.540810968E-07 1.955330128E-06-1.247713761E-07
 2.769532010E-06 2.039645078E-06 1.693594214E-06
-5.796392520E-05 5.670430402E-06 4.956500670E-05
-6.622375766E-06-3.236489920E-05-2.800842931E-05
 2.775117298E-06 2.174765277E-06-1.930214381E-08
-2.619422954E-06 3.533072872E-06 1.588395885E-06
 0.000000000E+00 0.000000000E+00 0.000000000E+00
         IVIB=   2 IATOM=   2 ICOORD=   1 E=       -0.0471148273
-7.186843695E-06 6.664619554E-05 6.932836673E-06
-2.432303428E-04-1.099425250E-04-4.597025502E-05
-2.058226185E-06-3.060217248E-05-3.034282137E-05
-6.260383438E-05 6.164520212E-06 1.066248025E-05
 1.185779733E-06-1.265138293E-06-3.002834878E-06
-1.725266887E-06 9.837881674E-06-1.072128157E-05
 6.383575145E-06-3.228385543E-05 2.585745539E-05
-4.305587532E-05-7.327853661E-05-8.522392792E-05