!  MeOH dimer, EFP2 potential, computing numerical gradient ,
!  from Lyuda (7/2008)
!
!      FINAL EFP E=  -0.0054223437, RMS grad= 0.001665247
!
!  This run takes 5 seconds on 2.66 GHz Cloverton (14 Apr 2015)
!  results same as in 2011.
!
!  ---------------------------------------------------------------------
!  This is a test of a full EFP2-type potential, including polarization,
!  overlap-based dispersion, and overlap-based electrostatics,
!  the energy of the input geometry happens to be -0.0054223437
!
!  ===> numerical differentiation prints R.M.S.= 0.001665247, and
!                        ----------------------
!                        GRADIENT OF THE ENERGY
!                        ----------------------
!UNITS ARE HARTREE/BOHR    E'X               E'Y               E'Z
!     TOTAL QM trans.  0.000000000       0.000000000       0.000000000
!     total QM TORQUE  0.000000000       0.000000000       0.000000000
! EFP           Trans GRADIENT                           TORQUE
!   1   0.0028256  0.0005277 -0.0005549     0.0000955 -0.0022886 -0.0018336
!   2  -0.0028256 -0.0005277  0.0005549    -0.0006283  0.0004444 -0.0026334
!
!  ===>  analytic differentiation prints R.M.S.= 0.001665249, and
!                    -----------------------------
!                    FRAGMENT GRADIENT INFORMATION
!                    -----------------------------
!     FRAGMENT NO.    1     E'X               E'Y               E'Z
!     TOTALS           0.002825569       0.000527726      -0.000554882
!     TORQUE           0.000095513      -0.002288655      -0.001833569
!     FRAGMENT NO.    2     E'X               E'Y               E'Z
!     TOTALS          -0.002825569      -0.000527726       0.000554882
!     TORQUE          -0.000628295       0.000444441      -0.002633418
!     TOTAL FORCE ON ALL FRAGMENTS
!     FORCE            0.000000000       0.000000000       0.000000000
!
 $contrl runtyp=gradient coord=fragonly numgrd=.true. $end
 $system mwords=2 memddi=0 $end
 $statpt opttol=1.0e-6 nstep=100 $end
 $efrag                                                                         
iscrelec=1 iscrpol=1 iscrdisp=1 >
coord=cart polmethd=frgscf   
 FRAGNAME=MeOH
O1         1.18736267     0.13488382    -0.59738898
H2         1.45477128     0.21659493    -1.49717724
C3         2.19796705    -0.46808979     0.16327024
 FRAGNAME=MeOH
O1        -2.22136784    -0.68695098     0.05935264
H2        -1.32613206    -0.46493262    -0.13316785
C3        -2.94101429     0.45467955     0.43680125
 $end 

 $MEOH
PLEASE REPLACE THIS LINE WITH AN APPROPRIATE TITLE/DESCRIPTION
 COORDINATES (BOHR)
O1        -1.2847450400  -0.1195075376   0.0000000407  15.9949100  8.0
H2        -2.0003185179   1.5109390710  -0.0000002284   1.0078250  1.0
C3         1.3592426471   0.0258088987   0.0000000000  12.0000000  6.0
H4         2.0666508674  -1.8909068487   0.0000002203   1.0078250  1.0
H5         2.0696139422   0.9846677847  -1.6722549987   1.0078250  1.0
H6         2.0696147154   0.9846687077   1.6722542810   1.0078250  1.0
BO21      -1.6425317790   0.6957157667  -0.0000000939   0.0000000  0.0
BO31       0.0372488036  -0.0468493195   0.0000000203   0.0000000  0.0
BO43       1.7129467573  -0.9325489750   0.0000001102   0.0000000  0.0
BO53       1.7144282947   0.5052383417  -0.8361274994   0.0000000  0.0
BO63       1.7144286813   0.5052388032   0.8361271405   0.0000000  0.0
 STOP
 MONOPOLES 
O1        -8.2051188771   8.00000
H2        -0.5790125365   1.00000
C3        -4.6878864507   6.00000
H4        -0.7104056365   1.00000
H5        -0.7378716853   1.00000
H6        -0.7378716545   1.00000
BO21      -0.3919308556   0.00000
BO31      -0.2629700952   0.00000
BO43      -0.5890360918   0.00000
BO53      -0.5489480517   0.00000
BO63      -0.5489480651   0.00000
 STOP
 DIPOLES 
O1          0.2668910640    0.6713994065   -0.0000000455
H2         -0.0478308752    0.0579443296   -0.0000000077
C3         -0.3129530959   -0.0274580412    0.0000000746
H4          0.0266032941   -0.0685890341    0.0000000037
H5          0.0278804618    0.0296346171   -0.0571591821
H6          0.0278804926    0.0296346464    0.0571591406
BO21        0.0554622745   -0.3653665144    0.0000000660
BO31       -0.0195183509   -0.1098576698   -0.0000001641
BO43       -0.1084495188    0.3391836291   -0.0000000782
BO53       -0.0873637713   -0.1780440707    0.2859734418
BO63       -0.0873637654   -0.1780441902   -0.2859733490
 STOP
 QUADRUPOLES 
O1         -3.8294853814   -3.8670300299   -4.7807314581   -0.2156013042 >
    0.0000000960   -0.0000001394
H2         -0.3428472506   -0.3273087402   -0.3495946821   -0.0003225498 >
    0.0000000007   -0.0000000044
C3         -2.2767809052   -2.7408371876   -2.7066366342    0.0170803601 >
   -0.0000000620    0.0000000125
H4         -0.4855432515   -0.4905085491   -0.4870610200    0.0017490132 >
   -0.0000000001   -0.0000000000
H5         -0.5331987389   -0.5339346225   -0.5355898339   -0.0008403127 >
    0.0018664768    0.0013381604
H6         -0.5331987817   -0.5339346644   -0.5355898690   -0.0008403146 >
   -0.0018664770   -0.0013381601
BO21       -0.0832318283    0.0636799395   -0.1351798363   -0.0477380928 >
    0.0000000090   -0.0000000363
BO31        0.4642285581    0.3053189013    0.3422702433    0.0477762526 >
   -0.0000000055   -0.0000000219
BO43       -0.4106397452   -0.4508023640   -0.4483297156    0.0365595336 >
   -0.0000000083    0.0000000000
BO53       -0.3281357752   -0.3388046768   -0.3435575181   -0.0293575455 >
    0.0658406991    0.0113896125
BO63       -0.3281357689   -0.3388046070   -0.3435574141   -0.0293575619 >
   -0.0658406470   -0.0113896021
 STOP
 OCTUPOLES  
O1          0.8813058325    1.7702214492    0.0000001188    0.5810090850 >
    0.0000000168    0.3041540362    0.0000000386    0.3003075839 >
    0.5855671112   -0.0000000086
H2         -0.0883003237    0.0483148282   -0.0000000060    0.0192297132 >
   -0.0000000017   -0.0268608603    0.0000000010   -0.0302393336 >
    0.0217033660   -0.0000000009
C3         -0.7151843490    0.0704468376    0.0000004674   -0.0084243532 >
    0.0000000554   -0.3915278153    0.0000000232   -0.4156763841 >
   -0.1622709569   -0.0000000361
H4          0.0467948030   -0.1075974003    0.0000000043   -0.0355172418 >
    0.0000000014    0.0161716946    0.0000000013    0.0158746488 >
   -0.0358905535   -0.0000000000
H5          0.0448432601    0.0422953141   -0.0856501283    0.0140138261 >
   -0.0285754040    0.0150066346   -0.0285712422    0.0152903025 >
    0.0140404386   -0.0001142232
H6          0.0448433007    0.0422953538    0.0856500480    0.0140138395 >
    0.0285753779    0.0150066483    0.0285712156    0.0152903155 >
    0.0140404513    0.0001142233
BO21        0.0765604064   -1.0432674584    0.0000002229   -0.3286693828 >
    0.0000000752    0.0581593841    0.0000000872    0.0266816536 >
   -0.3232565665   -0.0000000057
BO31       -0.3072179478   -0.4756907537   -0.0000010174   -0.1616581221 >
   -0.0000003572   -0.0132325647   -0.0000002936   -0.0245478516 >
   -0.0968206254    0.0000000067
BO43       -0.2842455353    1.1186477058   -0.0000003264    0.3427333286 >
   -0.0000001057   -0.1122027310   -0.0000001185   -0.0861573922 >
    0.3554231534    0.0000000051
BO53       -0.2318389241   -0.5941036118    0.9004490108   -0.1773490679 >
    0.2433957799   -0.0684905950    0.3013231772   -0.0927913751 >
   -0.2040098367    0.0125120563
BO63       -0.2318388114   -0.5941038306   -0.9004486515   -0.1773491417 >
   -0.2433957140   -0.0684905874   -0.3013230718   -0.0927913407 >
   -0.2040099033   -0.0125120666
 STOP
 POLARIZABLE POINTS
CT1  -0.2800147349   0.0025281496   0.0000000694
    4.8954573131    0.8722546545    0.7347285573    0.2281847149 >
    0.0000000673   -0.0000000054    0.0328546412   -0.0000367911 >
   -0.0000026504
CT2   1.8496862147   0.6971480848   1.1493879462
    2.8459719321    3.0360711489    4.7118545563    0.6543650343 >
    1.0627912202    1.3177869286    0.4815411763    0.9508464149 >
    1.3591824202
CT3  -1.6269759952   0.7902340529  -0.0000001133
    1.8372840809    2.7044323353    0.6459664600   -1.3973204278 >
    0.0000002259   -0.0000003571   -0.9579075252   -0.0000014304 >
   -0.0000144021
CT4   1.8496857861   0.6971474817  -1.1493884143
    2.8459707183    3.0360695077    4.7118275060    0.6543640037 >
   -1.0627906689   -1.3177862595    0.4815401297   -0.9508381245 >
   -1.3591657473
CT5   1.8491264266  -1.2767609260   0.0000001838
    2.8505210179    5.4043332676    2.2537346021   -1.1991442676 >
    0.0000001990   -0.0000003361   -1.1556267909    0.0000042159 >
   -0.0000176102
CT6  -1.4302917071  -0.3608475100  -0.5006675750
    2.1389725044    1.3830760474    2.0740049918    0.2338942469 >
    0.6938643040    0.6404257812    0.2629428763    0.6399612024 >
    0.6583655614
CT7  -1.4302917693  -0.3608473621   0.5006677247
    2.1389722463    1.3830755424    2.0739960200    0.2338939708 >
   -0.6938644460   -0.6404254538    0.2629425434   -0.6399760698 >
   -0.6583633149
 STOP
 DYNAMIC POLARIZABLE POINTS
CT  1  -0.2800147349   0.0025281496   0.0000000694 -- FOR W= 0.002792I A.U.
    4.8952143542    0.8720492775    0.7345555010    0.2283140205 >
    0.0000000674   -0.0000000045    0.0331305380   -0.0000001114 >
   -0.0000000202
CT  2   1.8496862147   0.6971480848   1.1493879462
    2.8459331532    3.0361302754    4.7117136242    0.6544448955 >
    1.0628289106    1.3177965537    0.4813168681    0.9507265777 >
    1.3590943255
CT  3  -1.6269759952   0.7902340529  -0.0000001133
    1.8370817160    2.7047818184    0.6459223876   -1.3971418307 >
    0.0000002260   -0.0000003565   -0.9576079296    0.0000001287 >
   -0.0000003254
CT  4   1.8496857861   0.6971474817  -1.1493884143
    2.8459319395    3.0361286343    4.7117153832    0.6544438649 >
   -1.0628283590   -1.3177958836    0.4813158217   -0.9507257943 >
   -1.3590935600
CT  5   1.8491264266  -1.2767609260   0.0000001838
    2.8504204080    5.4037743547    2.2537366360   -1.1991759254 >
    0.0000001992   -0.0000003354   -1.1555105639    0.0000001898 >
   -0.0000004438
CT  6  -1.4302917071  -0.3608475100  -0.5006675750
    2.1391176600    1.3833006019    2.0740357816    0.2337955936 >
    0.6939063105    0.6405265924    0.2630517018    0.6398134152 >
    0.6584079298
CT  7  -1.4302917693  -0.3608473621   0.5006677247
    2.1391174019    1.3833000964    2.0740359774    0.2337953175 >
   -0.6939064520   -0.6405262633    0.2630513687   -0.6398135035 >
   -0.6584076027
CT  1  -0.2800147349   0.0025281496   0.0000000694 -- FOR W= 0.015107I A.U.
    4.8918922398    0.8718814733    0.7343020633    0.2280882904 >
    0.0000000673   -0.0000000045    0.0328935495   -0.0000001112 >
   -0.0000000202
CT  2   1.8496862147   0.6971480848   1.1493879462
    2.8444339867    3.0342604749    4.7080200471    0.6537044191 >
    1.0616994176    1.3164084952    0.4807508780    0.9494723349 >
    1.3576407501
CT  3  -1.6269759952   0.7902340529  -0.0000001133
    1.8363331761    2.7033805502    0.6459268822   -1.3961113216 >
    0.0000002259   -0.0000003562   -0.9567781346    0.0000001285 >
   -0.0000003252
CT  4   1.8496857861   0.6971474817  -1.1493884143
    2.8444327743    3.0342588354    4.7080218040    0.6537033896 >
   -1.0616988667   -1.3164078257    0.4807498328   -0.9494715524 >
   -1.3576399856
CT  5   1.8491264266  -1.2767609260   0.0000001838
    2.8491166213    5.3995720617    2.2527099407   -1.1981648104 >
    0.0000001990   -0.0000003351   -1.1542730194    0.0000001896 >
   -0.0000004433
CT  6  -1.4302917071  -0.3608475100  -0.5006675750
    2.1377094416    1.3828072895    2.0728418554    0.2335540329 >
    0.6932356345    0.6400122915    0.2626282781    0.6389257044 >
    0.6576498948
CT  7  -1.4302917693  -0.3608473621   0.5006677247
    2.1377091839    1.3828067847    2.0728420511    0.2335537571 >
   -0.6932357759   -0.6400119629    0.2626279456   -0.6389257926 >
   -0.6576495682
CT  1  -0.2800147349   0.0025281496   0.0000000694 -- FOR W= 0.039002I A.U.
    4.8725172786    0.8708979011    0.7328274953    0.2267729182 >
    0.0000000667   -0.0000000047    0.0315251105   -0.0000001099 >
   -0.0000000201
CT  2   1.8496862147   0.6971480848   1.1493879462
    2.8356908061    3.0233594479    4.6865092303    0.6493949168 >
    1.0551235647    1.3083309027    0.4774623068    0.9421936940 >
    1.3491821140
CT  3  -1.6269759952   0.7902340529  -0.0000001133
    1.8319573355    2.6952032537    0.6459512061   -1.3900944425 >
    0.0000002249   -0.0000003548   -0.9519454633    0.0000001279 >
   -0.0000003240
CT  4   1.8496857861   0.6971474817  -1.1493884143
    2.8356896007    3.0233578178    4.6865109755    0.6493938935 >
   -1.0551230176   -1.3083302372    0.4774612694   -0.9421929172 >
   -1.3491813546
CT  5   1.8491264266  -1.2767609260   0.0000001838
    2.8414967204    5.3750855135    2.2467134837   -1.1922632886 >
    0.0000001979   -0.0000003334   -1.1470719524    0.0000001884 >
   -0.0000004405
CT  6  -1.4302917071  -0.3608475100  -0.5006675750
    2.1295051318    1.3799277771    2.0658922679    0.2321498978 >
    0.6893325235    0.6370183495    0.2601712305    0.6337750297 >
    0.6532540126
CT  7  -1.4302917693  -0.3608473621   0.5006677247
    2.1295048765    1.3799272757    2.0658924625    0.2321496236 >
   -0.6893326640   -0.6370180233    0.2601709012   -0.6337751170 >
   -0.6532536883
CT  1  -0.2800147349   0.0025281496   0.0000000694 -- FOR W= 0.077996I A.U.
    4.8056372515    0.8674377936    0.7277814635    0.2222469709 >
    0.0000000648   -0.0000000052    0.0269786028   -0.0000001057 >
   -0.0000000199
CT  2   1.8496862147   0.6971480848   1.1493879462
    2.8055091495    2.9857788649    4.6126490790    0.6346365785 >
    1.0325736012    1.2806774616    0.4662700162    0.9175324178 >
    1.3202274727
CT  3  -1.6269759952   0.7902340529  -0.0000001133
    1.8167181279    2.6669107003    0.6460089071   -1.3692374253 >
    0.0000002217   -0.0000003498   -0.9353520155    0.0000001257 >
   -0.0000003198
CT  4   1.8496857861   0.6971474817  -1.1493884143
    2.8055079685    2.9857772669    4.6126507839    0.6346355768 >
   -1.0325730671   -1.2806768097    0.4662690053   -0.9175316607 >
   -1.3202267308
CT  5   1.8491264266  -1.2767609260   0.0000001838
    2.8149842358    5.2908420211    2.2259011342   -1.1718346512 >
    0.0000001942   -0.0000003278   -1.1224279964    0.0000001845 >
   -0.0000004308
CT  6  -1.4302917071  -0.3608475100  -0.5006675750
    2.1012950430    1.3699547242    2.0420718410    0.2273637383 >
    0.6759677220    0.6267550369    0.2518505651    0.6163364577 >
    0.6383990944
CT  7  -1.4302917693  -0.3608473621   0.5006677247
    2.1012947958    1.3699542346    2.0420720320    0.2273634698 >
   -0.6759678595   -0.6267547189    0.2518502466   -0.6163365425 >
   -0.6383987784
CT  1  -0.2800147349   0.0025281496   0.0000000694 -- FOR W= 0.138651I A.U.
    4.6249665776    0.8575776264    0.7144470336    0.2101341829 >
    0.0000000596   -0.0000000065    0.0160153107   -0.0000000950 >
   -0.0000000193
CT  2   1.8496862147   0.6971480848   1.1493879462
    2.7238988741    2.8845847268    4.4159901134    0.5956559873 >
    0.9727798554    1.2076894596    0.4372149271    0.8542521950 >
    1.2438370525
CT  3  -1.6269759952   0.7902340529  -0.0000001133
    1.7745155781    2.5899527138    0.6459282476   -1.3122635735 >
    0.0000002128   -0.0000003363   -0.8911939269    0.0000001199 >
   -0.0000003085
CT  4   1.8496857861   0.6971474817  -1.1493884143
    2.7238977582    2.8845832144    4.4159917127    0.5956550424 >
   -0.9727793554   -1.2076888441    0.4372139848   -0.8542514896 >
   -1.2438363565
CT  5   1.8491264266  -1.2767609260   0.0000001838
    2.7417643670    5.0653705070    2.1688024402   -1.1162675285 >
    0.0000001842   -0.0000003127   -1.0574544516    0.0000001741 >
   -0.0000004054
CT  6  -1.4302917071  -0.3608475100  -0.5006675750
    2.0258890237    1.3427293604    1.9788451122    0.2148915306 >
    0.6406745268    0.5995609742    0.2305754444    0.5717101706 >
    0.6005392677
CT  7  -1.4302917693  -0.3608473621   0.5006677247
    2.0258887978    1.3427289008    1.9788452942    0.2148912774 >
   -0.6406746567   -0.5995606771    0.2305751538   -0.5717102488 >
   -0.6005389731
CT  1  -0.2800147349   0.0025281496   0.0000000694 -- FOR W= 0.233223I A.U.
    4.2128236997    0.8321389507    0.6851102447    0.1831392953 >
    0.0000000481   -0.0000000087   -0.0024925773   -0.0000000741 >
   -0.0000000176
CT  2   1.8496862147   0.6971480848   1.1493879462
    2.5364247306    2.6548839840    3.9809083708    0.5113140256 >
    0.8421525969    1.0497994269    0.3766779283    0.7252766091 >
    1.0788077502
CT  3  -1.6269759952   0.7902340529  -0.0000001133
    1.6726375489    2.4112304994    0.6440310741   -1.1794779071 >
    0.0000001919   -0.0000003053   -0.7938877466    0.0000001072 >
   -0.0000002822
CT  4   1.8496857861   0.6971474817  -1.1493884143
    2.5364237592    2.6548826606    3.9809097454    0.5113132042 >
   -0.8421521702   -1.0497988917    0.3766771290   -0.7252760153 >
   -1.0788071520
CT  5   1.8491264266  -1.2767609260   0.0000001838
    2.5662694929    4.5615975687    2.0337395554   -0.9882217061 >
    0.0000001615   -0.0000002795   -0.9173178680    0.0000001516 >
   -0.0000003516
CT  6  -1.4302917071  -0.3608475100  -0.5006675750
    1.8575713867    1.2787093164    1.8387247150    0.1887525800 >
    0.5642369111    0.5401464027    0.1880675546    0.4816360001 >
    0.5243509942
CT  7  -1.4302917693  -0.3608473621   0.5006677247
    1.8575712061    1.2787089173    1.8387248793    0.1887523610 >
   -0.5642370262   -0.5401461478    0.1880673202   -0.4816360658 >
   -0.5243507442
CT  1  -0.2800147349   0.0025281496   0.0000000694 -- FOR W= 0.385897I A.U.
    3.4341358485    0.7714136568    0.6299952217    0.1347777535 >
    0.0000000287   -0.0000000105   -0.0177621505   -0.0000000449 >
   -0.0000000142
CT  2   1.8496862147   0.6971480848   1.1493879462
    2.1704926687    2.2203394106    3.1969723531    0.3678909281 >
    0.6155643866    0.7795529672    0.2794209082    0.5240915779 >
    0.7973468768
CT  3  -1.6269759952   0.7902340529  -0.0000001133
    1.4586464408    2.0591212411    0.6306466008   -0.9226336700 >
    0.0000001512   -0.0000002460   -0.6215210267    0.0000000846 >
   -0.0000002304
CT  4   1.8496857861   0.6971474817  -1.1493884143
    2.1704919546    2.2203384210    3.1969733541    0.3678903215 >
   -0.6155640848   -0.7795525731    0.2794203376   -0.5240911723 >
   -0.7973464427
CT  5   1.8491264266  -1.2767609260   0.0000001838
    2.2034344918    3.6437215523    1.7592186368   -0.7469745052 >
    0.0000001197   -0.0000002202   -0.6790188989    0.0000001126 >
   -0.0000002621
CT  6  -1.4302917071  -0.3608475100  -0.5006675750
    1.5486877145    1.1472830757    1.5787166989    0.1466946031 >
    0.4329328337    0.4358505561    0.1269873644    0.3454899032 >
    0.4072412485
CT  7  -1.4302917693  -0.3608473621   0.5006677247
    1.5486876072    1.1472827703    1.5787168368    0.1466944434 >
   -0.4329329264   -0.4358503677    0.1269872134   -0.3454899527 >
   -0.4072410698
CT  1  -0.2800147349   0.0025281496   0.0000000694 -- FOR W= 0.649114I A.U.
    2.3062297243    0.6443396279    0.5353041828    0.0726586161 >
    0.0000000079   -0.0000000091   -0.0110013732   -0.0000000193 >
   -0.0000000092
CT  2   1.8496862147   0.6971480848   1.1493879462
    1.5860362334    1.5700837020    2.1151631755    0.1950854433 >
    0.3338409739    0.4433415870    0.1648217567    0.2960368963 >
    0.4500215184
CT  3  -1.6269759952   0.7902340529  -0.0000001133
    1.0934832328    1.5035999977    0.5723590100   -0.5553429254 >
    0.0000000921   -0.0000001597   -0.3937863500    0.0000000547 >
   -0.0000001520
CT  4   1.8496857861   0.6971474817  -1.1493884143
    1.5860358498    1.5700831420    2.1151637314    0.1950851085 >
   -0.3338408251   -0.4433413707    0.1648214470   -0.2960367098 >
   -0.4500212829
CT  5   1.8491264266  -1.2767609260   0.0000001838
    1.6012554258    2.3758204315    1.3063601187   -0.4191181813 >
    0.0000000642   -0.0000001387   -0.3854326359    0.0000000626 >
   -0.0000001539
CT  6  -1.4302917071  -0.3608475100  -0.5006675750
    1.1039848079    0.9159747427    1.1851965984    0.0971201107 >
    0.2665523237    0.2964532598    0.0716510271    0.2019698933 >
    0.2727778383
CT  7  -1.4302917693  -0.3608473621   0.5006677247
    1.1039847770    0.9159745459    1.1851967040    0.0971200228 >
   -0.2665523884   -0.2964531486    0.0716509575   -0.2019699297 >
   -0.2727777387
CT  1  -0.2800147349   0.0025281496   0.0000000694 -- FOR W= 1.153904I A.U.
    1.1581838680    0.4337719912    0.3799337771    0.0246779338 >
   -0.0000000013   -0.0000000046    0.0061013973   -0.0000000066 >
   -0.0000000041
CT  2   1.8496862147   0.6971480848   1.1493879462
    0.8761826576    0.8461932304    1.0477621553    0.0656333483 >
    0.1148364408    0.1697090655    0.0684093517    0.1168223401 >
    0.1710234656
CT  3  -1.6269759952   0.7902340529  -0.0000001133
    0.6330678749    0.8497015440    0.4187919050   -0.2226369004 >
    0.0000000375   -0.0000000738   -0.1830299518    0.0000000267 >
   -0.0000000712
CT  4   1.8496857861   0.6971474817  -1.1493884143
    0.8761825338    0.8461930243    1.0477623660    0.0656332311 >
   -0.1148364020   -0.1697089900    0.0684092390   -0.1168222979 >
   -0.1710233835
CT  5   1.8491264266  -1.2767609260   0.0000001838
    0.8739937702    1.1484649810    0.7442090620   -0.1472363969 >
    0.0000000197   -0.0000000605   -0.1480263678    0.0000000223 >
   -0.0000000647
CT  6  -1.4302917071  -0.3608475100  -0.5006675750
    0.6189741614    0.5841499164    0.7164842057    0.0514464909 >
    0.1206376151    0.1577677706    0.0385772135    0.0960115480 >
    0.1500995302
CT  7  -1.4302917693  -0.3608473621   0.5006677247
    0.6189741675    0.5841498153    0.7164842730    0.0514464576 >
   -0.1206376502   -0.1577677198    0.0385771911   -0.0960115733 >
   -0.1500994848
CT  1  -0.2800147349   0.0025281496   0.0000000694 -- FOR W= 2.307592I A.U.
    0.3853231689    0.1948091676    0.1817356731    0.0056745544 >
   -0.0000000007   -0.0000000010    0.0071076707   -0.0000000018 >
   -0.0000000007
CT  2   1.8496862147   0.6971480848   1.1493879462
    0.3081905960    0.2979197477    0.3430232658    0.0123618208 >
    0.0214972860    0.0392003785    0.0168075593    0.0274560849 >
    0.0394926467
CT  3  -1.6269759952   0.7902340529  -0.0000001133
    0.2435839887    0.3181252739    0.1966539381   -0.0528075978 >
    0.0000000091   -0.0000000208   -0.0530762612    0.0000000084 >
   -0.0000000203
CT  4   1.8496857861   0.6971474817  -1.1493884143
    0.3081905754    0.2979197041    0.3430233158    0.0123617985 >
   -0.0214972826   -0.0392003634    0.0168075357   -0.0274560827 >
   -0.0394926300
CT  5   1.8491264266  -1.2767609260   0.0000001838
    0.3051722701    0.3664289294    0.2742550310   -0.0281096651 >
    0.0000000026   -0.0000000157   -0.0339415743    0.0000000049 >
   -0.0000000175
CT  6  -1.4302917071  -0.3608475100  -0.5006675750
    0.2381152830    0.2469803098    0.2974529201    0.0185296607 >
    0.0366846004    0.0572804390    0.0164222127    0.0338622248 >
    0.0572370360
CT  7  -1.4302917693  -0.3608473621   0.5006677247
    0.2381152893    0.2469802736    0.2974529484    0.0185296523 >
   -0.0366846129   -0.0572804206    0.0164222072   -0.0338622365 >
   -0.0572370182
CT  1  -0.2800147349   0.0025281496   0.0000000694 -- FOR W= 5.957643I A.U.
    0.0672779266    0.0421964579    0.0407100293    0.0009452436 >
   -0.0000000000   -0.0000000001    0.0016687737   -0.0000000002 >
    0.0000000000
CT  2   1.8496862147   0.6971480848   1.1493879462
    0.0541606058    0.0529978456    0.0585599576    0.0011866283 >
    0.0018825475    0.0048610280    0.0020798981    0.0031829156 >
    0.0049174196
CT  3  -1.6269759952   0.7902340529  -0.0000001133
    0.0474453042    0.0597269881    0.0425145465   -0.0064377986 >
    0.0000000012   -0.0000000030   -0.0074338046    0.0000000013 >
   -0.0000000029
CT  4   1.8496857861   0.6971474817  -1.1493884143
    0.0541606040    0.0529978407    0.0585599639    0.0011866263 >
   -0.0018825476   -0.0048610263    0.0020798956   -0.0031829160 >
   -0.0049174176
CT  5   1.8491264266  -1.2767609260   0.0000001838
    0.0535854060    0.0615121070    0.0500991526   -0.0026784844 >
    0.0000000002   -0.0000000021   -0.0040201284    0.0000000007 >
   -0.0000000025
CT  6  -1.4302917071  -0.3608475100  -0.5006675750
    0.0474263254    0.0510062121    0.0612326367    0.0033048564 >
    0.0061821024    0.0104815267    0.0032178601    0.0062600795 >
    0.0106210602
CT  7  -1.4302917693  -0.3608473621   0.5006677247
    0.0474263268    0.0510062056    0.0612326421    0.0033048552 >
   -0.0061821046   -0.0104815231    0.0032178593   -0.0062600819 >
   -0.0106210565
CT  1  -0.2800147349   0.0025281496   0.0000000694 -- FOR W=32.239080I A.U.
    0.0024797648    0.0016674932    0.0016111323    0.0000366692 >
    0.0000000000   -0.0000000000    0.0000654332   -0.0000000000 >
    0.0000000000
CT  2   1.8496862147   0.6971480848   1.1493879462
    0.0019358501    0.0019048757    0.0020808863    0.0000327526 >
    0.0000472440    0.0001533861    0.0000648030    0.0000949447 >
    0.0001552825
CT  3  -1.6269759952   0.7902340529  -0.0000001133
    0.0018088260    0.0022352399    0.0016598755   -0.0001976466 >
    0.0000000000   -0.0000000001   -0.0002389669    0.0000000000 >
   -0.0000000001
CT  4   1.8496857861   0.6971474817  -1.1493884143
    0.0019358500    0.0019048755    0.0020808865    0.0000327526 >
   -0.0000472440   -0.0001533861    0.0000648029   -0.0000949447 >
   -0.0001552825
CT  5   1.8491264266  -1.2767609260   0.0000001838
    0.0019159890    0.0021752605    0.0018143385   -0.0000739460 >
    0.0000000000   -0.0000000001   -0.0001232052    0.0000000000 >
   -0.0000000001
CT  6  -1.4302917071  -0.3608475100  -0.5006675750
    0.0018379050    0.0019893196    0.0023787088    0.0001145055 >
    0.0002229424    0.0003800146    0.0001133203    0.0002285683 >
    0.0003845395
CT  7  -1.4302917693  -0.3608473621   0.5006677247
    0.0018379051    0.0019893194    0.0023787090    0.0001145055 >
   -0.0002229425   -0.0003800145    0.0001133203   -0.0002285684 >
   -0.0003845393
 STOP
 PROJECTION BASIS SET
O1          -1.2847450400  -0.1195075376   0.0000000407    6.0
   S          6
     1      8588.5000000000     1.20501289
     2      1297.2300000000     2.21620477
     3       299.2960000000     3.62745250
     4        87.3771000000     4.88845231
     5        25.6789000000     4.83572052
     6         3.7400400000     0.53822949
   L          3
     7        42.1175000000     1.34195780     5.58401753
     8         9.6283700000     3.58711431     5.73336569
     9         2.8533200000    -0.00512347     4.33295474
   L          1
    10         0.9056610000     0.66165918     1.25935210
   L          1
    11         0.2556110000     0.25620922     0.25906844
   L          1
    12         0.0845000000     0.11169986     0.06493980
   D          1
    13         2.5840000000     8.66804880
   D          1
    14         0.6460000000     0.76615451
  
H2          -2.0003185179   1.5109390710  -0.0000002284    1.0
   S          3
    15        33.8650000000     0.25506932
    16         5.0947900000     0.46010866
    17         1.1587900000     0.67832145
   S          1
    18         0.3258400000     0.30737135
   S          1
    19         0.1027410000     0.12933556
   S          1
    20         0.0360000000     0.05890294
   P          1
    21         1.5000000000     2.36621477
   P          1
    22         0.3750000000     0.41829163
  
C3           1.3592426471   0.0258088987   0.0000000000    4.0
   S          6
    23      4563.2400000000     0.77820176
    24       682.0240000000     1.44869481
    25       154.9730000000     2.38308933
    26        44.4553000000     3.20008901
    27        13.0290000000     3.01300444
    28         1.8277300000     0.24759863
   L          3
    29        20.9642000000     0.80062852     2.57359222
    30         4.8033100000     2.12741989     2.40824822
    31         1.4593300000    -0.00286791     1.86528133
   L          1
    32         0.4834560000     0.41321665     0.57462733
   L          1
    33         0.1455850000     0.16797613     0.12818461
   L          1
    34         0.0438000000     0.06823633     0.02856161
   D          1
    35         1.2520000000     2.43902938
   D          1
    36         0.3130000000     0.21558178
  
H4           2.0666508674  -1.8909068487   0.0000002203    1.0
   S          3
    37        33.8650000000     0.25506932
    38         5.0947900000     0.46010866
    39         1.1587900000     0.67832145
   S          1
    40         0.3258400000     0.30737135
   S          1
    41         0.1027410000     0.12933556
   S          1
    42         0.0360000000     0.05890294
   P          1
    43         1.5000000000     2.36621477
   P          1
    44         0.3750000000     0.41829163
  
H5           2.0696139422   0.9846677847  -1.6722549987    1.0
   S          3
    45        33.8650000000     0.25506932
    46         5.0947900000     0.46010866
    47         1.1587900000     0.67832145
   S          1
    48         0.3258400000     0.30737135
   S          1
    49         0.1027410000     0.12933556
   S          1
    50         0.0360000000     0.05890294
   P          1
    51         1.5000000000     2.36621477
   P          1
    52         0.3750000000     0.41829163
  
H6           2.0696147154   0.9846687077   1.6722542810    1.0
   S          3
    53        33.8650000000     0.25506932
    54         5.0947900000     0.46010866
    55         1.1587900000     0.67832145
   S          1
    56         0.3258400000     0.30737135
   S          1
    57         0.1027410000     0.12933556
   S          1
    58         0.0360000000     0.05890294
   P          1