!  hydrogen peroxide -
!  illustration of accuracy with increasing numerical differentiation
!
!      analytic: F.EQ= 398.54  1150.70  1493.01  1634.52  4090.64  4092.55
!  semi-numeric: F.EQ= 398.21  1150.77  1492.96  1634.82  4090.64  4092.56
! fully numeric: FREQ= 396.76  1150.87  1492.98  1634.47  4090.82  4092.73
!
!      analytic residuals:   4.52  1.03  0.01  0.05  1.07   1.79
!  semi-numeric residuals:  22.97  8.55  3.20  0.62  1.12  19.45
! fully numeric residuals:  37.62  2.31  1.13  0.73  0.39   3.25
!
!  This run takes 7 seconds on 2.66 GHz Cloverton (15 Apr 2015)
!      the results have not changed appreciably since 2003.
!  our old J50 needed analytic=16  semi-numeric=44  fully numeric=257 s.conds
!
 $contrl scftyp=rhf runtyp=hessian nzvar=6 $end 
 $system mwords=1 $end 
 $basis  gbasis=n31 ngauss=6 ndfunc=1 $end
 $guess  guess=huckel $end
 $force  method=fullnum vibsiz=0.01 nvib=2 $end
 $zmat   izmat(1)=1,1,2, 1,1,3, 1,2,4, 2,3,1,2, 2,4,2,1, 3,3,1,2,4 $end
 $data 
HOOH
Cn 2

O           8.0  -0.6966330151  -0.0471827268  -0.0113676137
H           1.0  -0.9479954216   0.7247991726   0.4804122311
 $end

! TRAVIS-CI SMALL

! TRAVIS-CI SKIP
