!  Test of numerical MP2 hessian for non-Abelian molecule (ammonia).
!  Since restart data is provided, only the SCF wfn at Vib0 is
!  computed, along with RHF+MP2 at 4 displacements.
!
!  Vib0 E(MP2)= -56.3542116434 (value is not computed in this run)
!       FREQ= 1162.02, 1755.04, 1755.04, 3502.65, 3658.58, 3658.58
!  Intensity= 4.42688, 0.46799, 0.46799, 0.00190, 0.01453, 0.01453
!
!  This run takes 1 second on 2.66 GHz Cloverton (15 Apr 2015)
!  results changed only minisculely since 2005.
!
 $mp2 code=ddi $end
 $contrl scftyp=rhf mplevl=2 runtyp=hessian coord=zmt $end
 $system mwords=1 memddi=10 $end
 $basis  gbasis=n31 ngauss=6 ndfunc=1 $end
 $guess  guess=huckel $end
 $force  method=numeric nvib=2 $end
 $data
ammonia...MP2/6-31G(d)
Cnv 3

N
H 1 rNH
H 1 rNH 2 aHNH
H 1 rNH 2 aHNH 3 aHNH +1

rNH=1.0170604
aHNH=106.3168316
 $end

ENERGY/GRADIENT/DIPOLE RESTART DATA FOR RUNTYP=HESSIAN
ammonia...MP2/6-31G(d)                                                          
 $VIB   
         IVIB=   0 IATOM=   0 ICOORD=   0 E=      -56.3542116430
-2.175372115E-08 0.000000000E+00 9.731119248E-07 5.041640574E-07-8.738741031E-07
-3.273720748E-07 5.041640692E-07 8.738740944E-07-3.273720746E-07-9.865744015E-07
 0.000000000E+00-3.183677438E-07
 5.643854273E-15-8.399486641E-15-1.965712077E+00
         IVIB=   1 IATOM=   1 ICOORD=   1 E=      -56.3541785456
 6.597645255E-03 0.000000000E+00-4.728237209E-05-1.440921951E-03 1.354791049E-03
 9.252969765E-04-1.440921951E-03-1.354791050E-03 9.252969765E-04-3.715801352E-03
 0.000000000E+00-1.803311581E-03
-9.775858179E-03-3.210367459E-14-1.965714964E+00
         IVIB=   1 IATOM=   1 ICOORD=   2 E=      -56.3541783260
 6.584822380E-05 6.663536647E-03-4.772692849E-05 1.317684346E-03-2.965791323E-03
-1.566110055E-03-1.372912702E-03-3.029736218E-03 1.616082196E-03-1.061986765E-05
-6.680091059E-04-2.245212617E-06
-3.913881002E-05-9.814991795E-03-1.965714990E+00
         IVIB=   1 IATOM=   1 ICOORD=   3 E=      -56.3541994304
-1.361532849E-08 0.000000000E+00 2.448823867E-03 5.933637977E-04-1.027736632E-03
-8.162765373E-04 5.933637977E-04 1.027736632E-03-8.162765374E-04-1.186713980E-03
 0.000000000E+00-8.162707924E-04
 4.176452162E-14-1.626861514E-15-1.981971234E+00
         IVIB=   1 IATOM=   4 ICOORD=   1 E=      -56.3541908615
-3.832665292E-03 0.000000000E+00-1.223238693E-03-1.722463185E-04-4.734040764E-05
-1.233193895E-04-1.722463185E-04 4.734040763E-05-1.233193896E-04 4.177157929E-03
 0.000000000E+00 1.469877472E-03
 1.936710707E-03 3.452607332E-15-1.968005907E+00
         IVIB=   1 IATOM=   4 ICOORD=   2 E=      -56.3542084197
 8.891171371E-06-6.680223707E-04 3.170417252E-06 3.652159640E-04 1.079393976E-05
 1.596471629E-04-3.656262553E-04 1.257027632E-05-1.593095090E-04-8.480880105E-06
 6.446581546E-04-3.508071136E-06
 1.149669879E-05 4.632537797E-03-1.965709097E+00
         IVIB=   1 IATOM=   4 ICOORD=   3 E=      -56.3542077870
-1.842630879E-03 0.000000000E+00-8.008003923E-04 2.004216162E-04-2.716515539E-05
 1.564514816E-05 2.004216158E-04 2.716515561E-05 1.564514821E-05 1.441787647E-03
 0.000000000E+00 7.695100960E-04
-4.649744783E-03 1.733326209E-13-1.960205039E+00
         IVIB=   2 IATOM=   1 ICOORD=   1 E=      -56.3541781064
-6.729421297E-03 0.000000000E+00-4.816164138E-05 1.447917102E-03-1.335201856E-03
-9.116485362E-04 1.447917102E-03 1.335201856E-03-9.116485362E-04 3.833587092E-03
 0.000000000E+00 1.871458714E-03
 9.854125300E-03 3.562257669E-14-1.965715016E+00
         IVIB=   2 IATOM=   1 ICOORD=   2 E=      -56.3541783260
 6.584822379E-05-6.663536647E-03-4.772692849E-05-1.372912702E-03 3.029736218E-03
 1.616082196E-03 1.317684346E-03 2.965791323E-03-1.566110055E-03-1.061986764E-05
 6.680091059E-04-2.245212617E-06
-3.913881002E-05 9.814991795E-03-1.965714990E+00
 $end
         IVIB=   2 IATOM=   1 ICOORD=   3 E=      -56.3541996008
-1.884577515E-08 0.000000000E+00-2.401781225E-03-5.991700900E-04 1.037791568E-03
 8.005911964E-04-5.991700899E-04-1.037791568E-03 8.005911964E-04 1.198359026E-03
 0.000000000E+00 8.005988327E-04
-2.991242765E-14-1.178579920E-14-1.949133081E+00
         IVIB=   2 IATOM=   4 ICOORD=   1 E=      -56.3541912319
 3.716738447E-03 0.000000000E+00 1.162747695E-03 1.725374899E-04 4.585036605E-05
 1.221041508E-04 1.725374902E-04-4.585036626E-05 1.221041508E-04-4.061813427E-03
 0.000000000E+00-1.406955996E-03
-1.884712051E-03-1.703781043E-13-1.963427002E+00
         IVIB=   2 IATOM=   4 ICOORD=   2 E=      -56.3542084197
 8.891171373E-06 6.680223707E-04 3.170417248E-06-3.656262553E-04-1.257027631E-05
-1.593095090E-04 3.652159640E-04-1.079393976E-05 1.596471629E-04-8.480880110E-06
-6.446581546E-04-3.508071138E-06
 1.149669887E-05-4.632537797E-03-1.965709097E+00
         IVIB=   2 IATOM=   4 ICOORD=   3 E=      -56.3542077397
 1.831121353E-03 0.000000000E+00 8.161172487E-04-1.985123506E-04 2.589092505E-05
-1.693989292E-05-1.985123502E-04-2.589092533E-05-1.693989298E-05-1.434096653E-03
 0.000000000E+00-7.822374628E-04
 4.695306485E-03-2.618085435E-13-1.971151063E+00
 $end

! TRAVIS-CI SMALL

! TRAVIS-CI SKIP
