!  CCH radical...CCT has 85 AOs, 74 MOs, with 7 alpha and 6 beta occupied
!  This example is difficult to converge with ROHF, but is fine with CUHF
!
!     F.NAL  U-BLYP E= -76.6128204970, 26 iters, S**2= 0.765
!     FINAL CU-BLYP E= -76.6109947881, 18 iters, S**2= 0.750 exactly
!
!  This test takes 12 seconds on 2.66 GHz Cloverton (18 Feb 2013)
!
 $contrl scftyp=uhf mult=2 dfttyp=blyp ispher=1 $end
 $basis  gbasis=cct $end
 $scf    cuhf=.true. $end
 $data
CCH radical
Cnv 4

C           6.0      0.0000000000      0.0000000000      1.2080000000
C           6.0      0.0000000000      0.0000000000      0.0000000000
H           1.0      0.0000000000      0.0000000000     -1.0620000000
 $end

! TRAVIS-CI SMALL

