!   "Criegee intermediate" aka formaldehyde oxide aka carbonyl oxide.
!   Its planar geometry is actually a saddle point!
!   (this geometry has r-m-s- of 0.000000961)
!
!   The analytic run automatically picks CPHF=AO (the only option),
!   but requires user to select direct AO integrals and no symmetry.
!
!   FINAL U-B3LYP E= -189.4424996938, 20 iters, <S**2>= 1.008
!    analyt. FREQ= 557.46i, 365.41, 600.50, ..., 1459.46, 3156.92, 3303.69
!   seminum. F.EQ= 557.53i, 365.58, 600.16, ..., 1459.34, 3157.02, 3303.80
!
!   anal. residual = 34.02, 14.96, 0.02, 0.01, 0.00, 14.17
!    num. residual =  4.60,  3.81, 0.12, 0.19, 0.22,  2.34
!
!   the mode at 365 has intensity 0.55559/0.55513 for seminum/analyt.
!
!   this job takes 331/323 seconds for num/anal on 2.66 GHz Clov. (5 Dec 2014)
!
 $contrl scftyp=uhf mult=1 dfttyp=b3lyp runtyp=hessian ispher=1 $end
 $system mwords=10 $end
 $guess  guess=huckel norder=1 jorder(12)=13,12 $end
 $basis  gbasis=n31 ngauss=6 ndfunc=1 $end
!                half-numerical is straightforward,
!                I happened to choose disk integrals but am not required to.
x$force  method=seminum $end
!                default this test case to analytic,
!                with human assistance for present program limitations.
 $force  method=analytic $end
 $scf    dirscf=.true. $end
 $contrl nosym=1 $end

 $data
Criegee intermediate...B3LYP/6-31G(d) optimized geometry
Cs

C    6.0  -1.1780325985   0.2100249322   0.0000000000
O    8.0   0.0020310975  -0.5275318300   0.0000000000
O    8.0   1.0707432500   0.2935543326   0.0000000000
H    1.0  -1.4995351160   0.6063303783  -0.9571561730
 $end

! TRAVIS-CI SMALL
! 

