!  formaldehyde...test of long range correction.
!
!  Very small range separation parameter should reproduce pure DFT,
!  as the HF exchange part is effectively turned off.
!  Very large range separation parameter should reproduce HF exchange,
!  as the DFT exchange part is effectively turned off,
!  so this amounts to using only a correlation functional.
!
!  pure BPBE: F.NAL U-BPBE ENERGY= -114.3257391032, 11 iters
!   0.000001: F.NAL U-BPBE ENERGY= -114.3257370156, 11 iters
!    0.33:    FINAL U-BPBE ENERGY= -114.0989909669, 11 iters  <--default run
!   99,999.9: F.NAL U-BPBE ENERGY= -114.2807463595, 11 iters
!  pure PBEC: F.NAL U-PBEC ENERGY= -114.2807448551, 11 iters
!
!  This run takes 25 seconds on 2.66 GHz Cloverton (31 Mar 2015)
!
 $contrl scftyp=uhf dfttyp=bpbe runtyp=energy  mult=3 $end
 $system mwords=4 memddi=0 $end
!    select the following, one at a time, to get the energies shown above.
!    default for MU is 0.33.
x$contrl dfttyp=bpbe $end
x$dft    lc=.true. mu=0.000001 $end
 $dft    lc=.true. $end
x$dft    lc=.true. mu=99999.9 $end
x$contrl dfttyp=pbec $end

 $guess  guess=moread norb=32 $end
 $scf    dirscf=.t. $end
 $dft    nrad0=96 nrad=144 nleb0=590 nleb=1202 swoff=0.0 $end
 $data
CH2O...unknown basis set, probably 6-31G(d)
C1
C 6 0.248913563,-0.1766364546,0.0013923669
 S   6
 1    0.3047524880D+04  0.1834737132D-02
 2    0.4573695180D+03  0.1403732281D-01
 3    0.1039486850D+03  0.6884262226D-01
 4    0.2921015530D+02  0.2321844432D+00
 5    0.9286662960D+01  0.4679413484D+00
 6    0.3163926960D+01  0.3623119853D+00
 L    3
 1    0.7868272350D+01 -0.1193324198D+00  0.6899906659D-01
 2    0.1881288540D+01 -0.1608541517D+00  0.3164239610D+00
 3    0.5442492580D+00  0.1143456438D+01  0.7443082909D+00
 L    1
 1    0.1687144782D+00  0.1000000000D+01  0.1000000000D+01
 D   1
 1    0.8000000000D+00  0.1000000000D+01

O 8 0.2347951927,-1.3947064608,-0.0052436694
 S  6
 1    0.5484671660D+04  0.1831074430D-02
 2    0.8252349460D+03  0.1395017220D-01
 3    0.1880469580D+03  0.6844507810D-01
 4    0.5296450000D+02  0.2327143360D+00
 5    0.1689757040D+02  0.4701928980D+00
 6    0.5799635340D+01  0.3585208530D+00
 L    3
 1    0.1553961625D+02 -0.1107775495D+00  0.7087426823D-01
 2    0.3599933586D+01 -0.1480262627D+00  0.3397528391D+00
 3    0.1013761750D+01  0.1130767015D+01  0.7271585773D+00
 L    1
 1    0.2700058226D+00  0.1000000000D+01  0.1000000000D+01
 D   1
 1    0.8000000000D+00  0.1000000000D+01

H 1 -0.6890220684,0.4370074959,0.0078205435
 S   3
 1    0.1873113696D+02  0.3349460434D-01
 2    0.2825394365D+01  0.2347269535D+00
 3    0.6401216923D+00  0.8137573261D+00
 S   1
 1    0.1612777588D+00  0.1000000000D+01

H 1 1.2008133127,0.4151354195,0.001530759
 S   3
 1    0.1873113696D+02  0.3349460434D-01
 2    0.2825394365D+01  0.2347269535D+00
 3    0.6401216923D+00  0.8137573261D+00
 S   1
 1    0.1612777588D+00  0.1000000000D+01

 $end

--- CLOSED SHELL ORBITALS --- GENERATED AT Fri May 11 09:13:14 2012
 CH2O                                                                           
E(RHF)=     -113.8622263713, E(NUC)=   30.9238760090,   11 ITERS
 $VEC   
 1  1 1.35068060E-04-8.20910390E-05 1.50654469E-06 1.29849719E-04 7.07405899E-07
 1  2 4.64437535E-03-3.27118183E-05-2.82189583E-03-1.53737026E-05 3.85282318E-04
 1  3-6.87562724E-04 3.02280406E-04-1.43578750E-05-3.91556240E-07-6.22349212E-06
 1  4 9.95844375E-01 2.23244080E-02 2.41195299E-05 2.08091730E-03 1.13368254E-05
 1  5-9.87589785E-03-3.56353268E-05-3.07457379E-03-1.67502310E-05 1.28733824E-04
 1  6 5.89476304E-05-1.87681454E-04-9.26900678E-07-1.19794384E-06 1.56533986E-06
 1  7-2.53852130E-04 4.48797596E-05-2.53852718E-04 4.48850079E-05
 2  1 9.96197738E-01 2.36127842E-02-1.17530295E-05-1.01449480E-03-5.52679231E-06
 2  2-8.42835131E-03-2.43931686E-05-2.10351591E-03-1.14593054E-05-2.42689843E-04
 2  3 1.05542252E-03-8.12732675E-04 1.73991514E-05-2.05372672E-06 1.17772186E-05
 2  4-3.35332212E-04 2.99277554E-04 7.62528612E-07 6.57259061E-05 3.58050050E-07
 2  5-1.63019962E-03-2.00462873E-05-1.72980574E-03-9.42420577E-06 1.16553630E-04
 2  6-4.79213213E-04 3.62659583E-04-7.97683952E-06 8.84110975E-07-5.30711022E-06
 2  7-3.18020152E-04 2.57312986E-03-3.18033741E-04 2.57316701E-03
 3  1-1.10025649E-01 2.10267556E-01-2.03163442E-03-1.75294344E-01-9.55004062E-04
 3  2 7.10658293E-02 2.24324860E-04 1.93513056E-02 1.05423439E-04-1.57548393E-02
 3  3 3.31036957E-02-1.73488564E-02 6.54042091E-04-2.42685646E-06 3.17464689E-04
 3  4-1.99038900E-01 4.39654259E-01 1.56335476E-03 1.34876671E-01 7.34806722E-04
 3  5 4.05128475E-01 6.04390935E-04 5.21415262E-02 2.84066315E-04-7.14856851E-03
 3  6 1.37144142E-02-6.56584569E-03 2.79260056E-04 3.72647091E-06 1.27557439E-04
 3  7 2.70198337E-02-6.36591708E-03 2.70202026E-02-6.36604857E-03
 4  1-1.63496363E-01 3.45680967E-01 2.10836123E-03 1.81614421E-01 9.89367894E-04
 4  2 3.26182558E-01 1.00410404E-03 8.65887733E-02 4.71712502E-04 2.22307913E-02
 4  3-3.87418572E-03-1.83566056E-02-3.48223614E-04-1.54919370E-04 9.28736210E-05
 4  4 8.67684925E-02-2.00833591E-01 1.72540195E-03 1.48769475E-01 8.10474871E-04
 4  5-2.60892710E-01 8.41676550E-04 7.25679459E-02 3.95342627E-04-5.94168434E-03
 4  6 8.13079464E-03-2.18911031E-03 1.88426772E-04 1.51790426E-05 6.47557030E-05
 4  7 1.75207496E-01 6.34879241E-02 1.75211461E-01 6.34893714E-02
 5  1 1.18335076E-06-2.45663774E-06 4.07791200E-01-4.71474609E-03-1.35719156E-03
 5  2-2.57848587E-06 1.63066138E-01-1.88701198E-03-5.42718382E-04 2.38998844E-04
 5  3-2.38736348E-04-2.62495813E-07 1.18932148E-02 6.43323284E-05-4.03409534E-05
 5  4-1.42681366E-06 3.33144149E-06 3.45185482E-01-4.00255156E-03-1.14889396E-03
 5  5 5.71519745E-06 1.96403844E-01-2.27715539E-03-6.53697180E-04 4.94697553E-04
 5  6-4.94088160E-04-6.09393413E-07 2.46262641E-02 1.33231196E-04-8.35288861E-05
 5  7-1.80472730E-01-1.19901091E-01 1.80473392E-01 1.19901485E-01
 6  1-1.88485117E-02 5.74366985E-02-4.35735324E-03-3.76355155E-01-2.05033668E-03
 6  2-6.14871387E-02-9.45248267E-04-8.17746243E-02-4.45491352E-04-2.26019827E-02
 6  3 2.37003808E-02-1.09839807E-03 6.19259401E-04 8.44591493E-05 1.55071560E-04
 6  4 6.81668276E-02-1.60494106E-01 5.86185250E-03 5.05232826E-01 2.75251359E-03
 6  5-2.93573523E-01 3.35806668E-03 2.89425082E-01 1.57679302E-03-1.45973648E-02
 6  6 2.68311035E-02-1.22337387E-02 5.54856622E-04 1.19499793E-05 2.45655610E-04
 6  7-9.28556919E-02-7.32970606E-02-9.28519576E-02-7.32944302E-02
 7  1-1.72777871E-08 3.37988305E-08 1.05608322E-03-1.77450806E-03 3.23482561E-01
 7  2 5.61349841E-08 6.78077865E-04-1.13937009E-03 2.07698046E-01-2.36237611E-06
 7  3 3.42829143E-04-3.40466767E-04-1.15500964E-04-4.18770443E-04-3.60799329E-02
 7  4 3.46802816E-10-3.72688081E-09 1.61206308E-03-2.70885123E-03 4.93781941E-01
 7  5 1.33575716E-08 1.15852731E-03-1.94673744E-03 3.54861929E-01 2.74193600E-06
 7  6-3.97471876E-04 3.94729940E-04 1.33907873E-04 4.85609280E-04 4.18300444E-02
 7  7 2.19970234E-09 1.20232520E-08 2.21609470E-09 1.20726495E-08
 8  1-8.61948634E-08-2.47794723E-07-2.02623453E-01 2.34534855E-03 6.74376595E-04
 8  2 2.36926237E-06-5.75378554E-02 6.66653616E-04 1.91502587E-04-1.24347964E-03
 8  3 1.24158571E-03 1.89393624E-06-6.19374283E-02-3.35080004E-04 2.10073856E-04
 8  4 2.86798341E-08-7.69829166E-08 5.48413026E-01-6.34724139E-03-1.82523911E-03
 8  5-6.98173605E-08 4.32620151E-01-5.00711844E-03-1.43985522E-03 3.77693624E-04
 8  6-3.77124336E-04-5.69288385E-07 1.88090208E-02 1.01760175E-04-6.37953699E-05
 8  7 1.88284953E-01 2.38183882E-01-1.88283805E-01-2.38182258E-01
 9  1-5.64178420E-08 5.41115058E-08 1.32163458E-03-2.22068070E-03 4.04821926E-01
 9  2 6.28987864E-07 2.32614661E-03-3.90844160E-03 7.12507699E-01 2.12968435E-06
 9  3-3.08921405E-04 3.06791721E-04 1.04074400E-04 3.77572013E-04 3.25109337E-02
 9  4 4.86297717E-09-2.04936359E-08-1.23931585E-03 2.08241862E-03-3.79607562E-01
 9  5 2.31106605E-08-1.71540317E-03 2.88240739E-03-5.25435142E-01-2.07714517E-07
 9  6 2.99512883E-05-2.97435738E-05-1.00911156E-05-3.66018226E-05-3.15226494E-03
 9  7-7.27043286E-08-3.59355066E-07-7.27052179E-08-3.59371733E-07
10  1-1.24194003E-01 1.46727156E-01 2.46748979E-03 2.13313873E-01 1.16196385E-03
10  2 1.91480832E+00 8.15646824E-03 7.04383604E-01 3.83690352E-03-4.24768892E-03
10  3-3.31889587E-04 4.57957851E-03 5.22303431E-05 3.35641966E-05-3.12951897E-05
10  4 5.13521842E-03-1.85874318E-02-7.97223474E-04-6.89591675E-02-3.75573608E-04
10  5 3.42772192E-02-9.99331160E-04-8.65247316E-02-4.71154757E-04-5.16725282E-03
10  6-6.51500660E-04 5.81875348E-03 6.01090852E-05 4.17457972E-05-4.11832654E-05
10  7-5.29497268E-02-1.41259246E+00-5.29487216E-02-1.41258346E+00
11  1 1.02302463E-06-1.37347886E-06-4.48826312E-01 5.19266996E-03 1.49378183E-03
11  2-3.27887907E-05-1.51771488E+00 1.75569919E-02 5.05124054E-03-1.29502338E-04
11  3 1.29152062E-04 3.50275802E-07-6.43770518E-03-3.48307669E-05 2.18345727E-05
11  4-1.45156344E-07 1.14186160E-07 1.44630656E-01-1.67296322E-03-4.81357311E-04
11  5 2.51650404E-06 4.03373327E-01-4.66590781E-03-1.34250048E-03-1.19114448E-04
11  6 1.18997437E-04 1.17011100E-07-5.93249323E-03-3.21013018E-05 2.01222676E-05
11  7 2.01069622E-02-1.68166570E+00-2.01091752E-02 1.68170592E+00
12  1 4.98620726E-02 6.74982512E-03 7.84184066E-04 6.75554920E-02 3.68035306E-04
12  2-1.61348226E+00 2.31806817E-02 1.99953688E+00 1.08933916E-02-4.84894240E-03
12  3-7.95276062E-04 5.64421846E-03 5.41608050E-05 3.98551811E-05-4.09723810E-05
12  4-9.44614968E-02 7.99035394E-02 1.74639277E-03 1.50691856E-01 8.20971621E-04
12  5 2.05252669E+00 1.05167527E-02 9.07424375E-01 4.94366186E-03-2.70871143E-02
12  6 5.60575862E-02-2.89704720E-02 1.11302547E-03-1.00356759E-06 5.34992246E-04
12  7-1.13847563E-03-1.74601279E-01-1.13788515E-03-1.74613006E-01
13  1 1.65768690E-08-2.11113204E-07-3.50084798E-03 5.88250718E-03-1.07232433E+00
13  2 1.66994358E-07 3.61044034E-03-6.06675468E-03 1.10589328E+00 1.08570861E-06
13  3-1.56274637E-04 1.55188928E-04 5.26503311E-05 1.90802210E-04 1.64466727E-02
13  4 1.82562288E-09-7.22443779E-09-3.06868983E-05 5.15814204E-05-9.39958878E-03
13  5-5.69880555E-08-2.93938233E-04 4.93883431E-04-9.00344260E-02-5.76505655E-06
13  6 8.36432753E-04-8.30667696E-04-2.81796995E-04-1.02190326E-03-8.80274518E-02
13  7 2.84274413E-08 4.20562961E-08 2.84560201E-08 4.20465735E-08
14  1-7.93143492E-06-1.14108744E-04-7.63308442E-01 8.76702719E-03 2.54008867E-03
14  2 2.85889777E-04 2.22612957E+00-2.56341362E-02-7.40833156E-03-1.39804489E-03
14  3 1.37456309E-03 2.34817958E-05-6.88183481E-02-3.72100552E-04 2.33244408E-04
14  4 4.98848699E-06-2.87915222E-05-3.18145391E-01 3.67034964E-03 1.05879301E-03
14  5 3.01457820E-06-2.59556927E-01 2.96662502E-03 8.63657121E-04-6.32874356E-04
14  6 6.29703420E-04 3.17093534E-06-3.12904942E-02-1.69243050E-04 1.06129733E-04
14  7 3.59596902E-01 8.15769140E-01-3.59764144E-01-8.15861856E-01
15  1-5.40075485E-02-8.17022780E-01-5.47035247E-03-4.81447621E-01-2.62326461E-03
15  2 1.94710338E+00 9.72181134E-03 8.64876251E-01 4.71244681E-03-1.21458454E-01
15  3-3.44408976E-02 1.55899351E-01 1.16895234E-03 1.05202452E-03-1.20955638E-03
15  4 3.62383447E-02-2.10395689E-01-8.60192769E-04-7.80621578E-02-4.25335769E-04
15  5 1.22849488E-02-3.08805198E-03-2.69318526E-01-1.46728607E-03-3.28379315E-02
15  6 1.69605294E-02 1.58774021E-02 6.70275057E-04 1.87325033E-04 4.65891340E-06
15  7-5.98021121E-01-2.77808141E-01-5.97919002E-01-2.77599860E-01
16  1-4.47879102E-02 9.80553027E-01-1.00575528E-02-8.68002087E-01-4.72888760E-03
16  2-7.91871471E-01 5.47779061E-03 4.73214005E-01 2.57816873E-03 1.26537597E-01
16  3-1.59601481E-01 3.30638840E-02-3.82914040E-03-3.73364060E-04-1.20797457E-03
16  4 4.78900599E-02-1.75384802E-01-3.50613174E-03-3.02460620E-01-1.64782768E-03
16  5 1.82859725E-01-4.89040921E-03-4.21971955E-01-2.29891181E-03-8.79149581E-02
16  6 1.90087591E-01-1.02172633E-01 3.72198781E-03-3.33633973E-05 1.83922850E-03
16  7 1.65660957E-01 6.67984531E-03 1.65653600E-01 6.69661855E-03
17  1-3.74943931E-06 8.41717643E-05-7.66884439E-01 8.90312976E-03 2.55250998E-03
17  2-1.79578543E-04 1.06777550E+00-1.23885661E-02-3.55395787E-03 4.12137907E-03
17  3-4.12232787E-03 9.48800864E-07 2.05453329E-01 1.11147626E-03-6.96907798E-04
17  4-4.44626285E-07-3.39762387E-07 1.42974162E-01-1.66983809E-03-4.75932159E-04
17  5 2.81008297E-05-8.30567564E-02 9.89976401E-04 2.76588534E-04-2.71063417E-03
17  6 2.70923133E-03 1.40283782E-06-1.34937847E-01-7.30038930E-04 4.57714901E-04
17  7-7.23157255E-01 1.24646067E+00 7.23087856E-01-1.24630212E+00
18  1 6.67270572E-02-1.18169507E+00-6.43167625E-03-5.50782807E-01-3.00031443E-03
18  2 2.89157039E+00 5.44349969E-03 4.63903261E-01 2.52679186E-03 4.12762930E-02
18  3 1.01815670E-01-1.43091963E-01 8.28007522E-04-6.90521637E-04 1.54867407E-03
18  4 2.09984256E-02-6.21137860E-02 4.38635952E-03 3.77766070E-01 2.05805396E-03
18  5-5.15425391E-01-8.99744525E-03-7.75948775E-01-4.22736262E-03 2.16366762E-02
18  6-6.17604166E-02 4.01237404E-02-1.12574376E-03 6.35291316E-05-6.41696851E-04
18  7 5.42198587E-01-1.22381579E+00 5.42285831E-01-1.22397305E+00
19  1-2.86832926E-02-8.84002057E-01-1.47527657E-03-1.26439397E-01-6.88737583E-04
19  2 5.61932787E-01 6.81494788E-03 5.86809724E-01 3.19676547E-03 1.69970980E-01
19  3-2.53377607E-01 8.34066273E-02-5.66174969E-03-3.57354400E-04-2.11495218E-03
19  4-4.83405864E-02 2.67123523E-01-8.42437441E-03-7.26997507E-01-3.96065236E-03
19  5 2.93673936E-01 1.46887639E-02 1.26736525E+00 6.90456114E-03-3.05906188E-02
19  6 5.05740295E-02-1.99834107E-02 1.08406664E-03 4.59266003E-05 4.43434049E-04
19  7 2.28031257E-01-5.21662278E-01 2.28049903E-01-5.21695681E-01
20  1-5.15656731E-09-1.66226050E-07 2.68156240E-04-4.50632566E-04 8.21375465E-02
20  2 3.68639656E-07-1.47018542E-03 2.47054611E-03-4.50324582E-01 3.87518527E-06
20  3-5.66049905E-04 5.62174720E-04 1.90700584E-04 6.91561103E-04 5.95708068E-02
20  4 1.12289305E-10-1.16235244E-08-3.19201133E-03 5.36362423E-03-9.77726611E-01
20  5 1.72274197E-08 3.98983080E-03-6.70422727E-03 1.22210212E+00-2.90393544E-06
20  6 4.19624992E-04-4.16721056E-04-1.41372940E-04-5.12658586E-04-4.41619607E-02
20  7-8.60869909E-09-1.63079008E-07-8.59991509E-09-1.63165943E-07
21  1 1.43115795E-08-2.04067872E-06-2.79742632E-01 3.23695872E-03 9.31040928E-04
21  2 1.33275768E-05 1.50422158E+00-1.74041350E-02-5.00635002E-03-3.44565867E-03
21  3 3.44079995E-03 4.85872271E-06-1.71627096E-01-9.28399882E-04 5.82113314E-04
21  4-6.52710033E-08 1.11208416E-06 8.72667227E-01-1.00984042E-02-2.90441896E-03
21  5-1.73193329E-06-1.48254009E+00 1.71554609E-02 4.93420160E-03 2.15997729E-03
21  6-2.15669230E-03-3.28499520E-06 1.07576832E-01 5.82047818E-04-3.64871694E-04
21  7 1.07236210E-01 6.29375915E-01-1.07233001E-01-6.29389235E-01
22  1-0.00000000E+00-0.00000000E+00 2.04674603E-07-3.22497667E-08 5.48390617E-06
22  2 8.37471297E-11-3.75567834E-07 2.30078567E-08-3.43681658E-06 4.61838104E-03
22  3 8.96324304E-05-4.70801347E-03-4.51091164E-03 8.16726723E-01-9.41911775E-03
22  4-0.00000000E+00 7.43254895E-11 5.11508723E-08-2.46846737E-08 4.42356178E-06
22  5-1.60556522E-10 1.73185999E-07-1.58435249E-08 2.52972130E-06 2.75417858E-03
22  6 5.36921132E-05-2.80787069E-03-2.69067990E-03 4.87058011E-01-5.64126736E-03
22  7 4.51231616E-08-2.34842330E-07-4.51234374E-08 2.34855461E-07
23  1 2.73246377E-09-6.87477349E-08 7.21610745E-04-1.21261757E-03 2.21032690E-01
23  2 7.47990043E-07-4.30663802E-04 7.23339694E-04-1.31913050E-01 4.46011143E-05
23  3-6.45996837E-03 6.41536725E-03 2.17650217E-03 7.87147277E-03 6.79858345E-01
23  4-1.10331916E-08 4.49974753E-07 5.54132914E-04-9.31090149E-04 1.69733138E-01
23  5-9.89686420E-07 3.08008001E-04-5.17925427E-04 9.43454483E-02-3.46637033E-05
23  6 5.02787748E-03-4.99321377E-03-1.69380932E-03-6.15558987E-03-5.29132641E-01
23  7 9.19284497E-09-8.67762671E-08 9.19465357E-09-8.67945182E-08
24  1-1.41113854E-02-4.64582596E-04 2.15478017E-03 1.85988135E-01 1.01331558E-03
24  2-2.08146037E+00 1.64157808E-02 1.41607400E+00 7.71471400E-03 2.95687584E-01
24  3-2.67921764E-01-2.77658203E-02-7.53831787E-03-1.26068809E-03-1.49654372E-03
24  4 3.87033321E-02-1.64836515E+00-1.19439108E-03-1.03059749E-01-5.61437856E-04
24  5 3.65831834E+00 1.50707053E-02 1.30031528E+00 7.08413344E-03 1.69402878E-01
24  6-1.76166318E-01 6.76343912E-03-4.62156349E-03-6.38456017E-04-1.14380843E-03
24  7 2.00519102E-02-3.50446008E-02 2.00525147E-02-3.50481463E-02
25  1-2.35265668E-02-2.03268776E-01-4.40955404E-04-3.80247323E-02-2.07222314E-04
25  2 1.03621019E+00-3.78615259E-04-3.22357929E-02-1.75743123E-04 3.97722832E-01
25  3 8.63772646E-02-4.84100097E-01-4.15428800E-03-3.34717341E-03 3.62723454E-03
25  4-3.48893446E-03 2.88600812E-01 7.33524719E-05 6.55048968E-03 3.56167441E-05
25  5-7.12480807E-01-3.21225131E-03-2.77408896E-01-1.51125472E-03 6.64332077E-01
25  6 5.13249532E-02-7.15657030E-01-8.17176961E-03-5.24722964E-03 4.88553691E-03
25  7-2.94818793E-01-1.41178214E-01-2.94810883E-01-1.41180105E-01
26  1-3.13491902E-07 2.85984027E-06 2.87107694E-01-3.31970955E-03-9.55539819E-04
26  2 3.35518375E-06 7.75383196E-01-8.96925307E-03-2.58061884E-03 1.07362582E-02
26  3-1.07217307E-02-1.45274227E-05 5.34803712E-01 2.89376747E-03-1.81392414E-03
26  4-1.20138065E-08-6.18990627E-07 2.86041724E-01-3.30972472E-03-9.52004950E-04
26  5 3.06464152E-06-4.70179258E-01 5.44169799E-03 1.56485951E-03-1.38060338E-02
26  6 1.37948778E-02 1.11560793E-05-6.88130202E-01-3.72447362E-03 2.33402512E-03
26  7 5.81925017E-01 1.00779841E-01-5.81930815E-01-1.00784512E-01
27  1 0.00000000E+00 1.23708427E-11 4.39433556E-07-6.37926718E-09 2.35991296E-07
27  2 2.36053454E-11 1.38208639E-06-1.60064799E-08-3.09427420E-09-3.33280243E-03
27  3-6.48237047E-05 3.39762614E-03 3.25623882E-03-5.89384898E-01 6.81012481E-03
27  4 0.00000000E+00 0.00000000E+00 4.33218571E-07-5.31334497E-09 5.22465159E-08
27  5-2.73574805E-11-8.37476049E-07 1.01433242E-08-8.14961767E-08 4.98510515E-03
27  6 9.69656121E-05-5.08207076E-03-4.87067183E-03 8.81584418E-01-1.01866462E-02
27  7 9.74275769E-07 2.03678715E-07-9.74303964E-07-2.03680412E-07
28  1 3.99288398E-02 1.93319347E-01-1.92604860E-04-1.61308093E-02-8.78020915E-05
28  2-7.37062434E-01-1.74822498E-04-1.42914354E-02-7.76682062E-05-6.35123166E-01
28  3-2.65027824E-01 9.00150990E-01 4.92049723E-03 5.81483790E-03-7.39718969E-03
28  4-8.24038399E-03-5.90759337E-03 1.51141259E-03 1.30589005E-01 7.11499555E-04
28  5 3.28922250E-01 8.25297081E-04 7.06770404E-02 3.84914533E-04 5.64045793E-01
28  6-9.11363952E-02-4.72909398E-01-8.73876098E-03-3.95712302E-03 2.44686147E-03
28  7 4.11345283E-01 2.52124355E-02 4.11356940E-01 2.52183912E-02
29  1-4.10078443E-02-1.33144712E-01-1.42817268E-03-1.23059368E-01-6.70376945E-04
29  2 7.96986907E-02-4.62917765E-03-3.99247996E-01-2.17500997E-03-7.44743687E-01
29  3 1.04384301E+00-2.99099320E-01 2.39338446E-02 1.81114742E-03 8.42890152E-03
29  4 4.39878070E-02-6.40792669E-01-7.66955401E-03-6.61682693E-01-3.60482340E-03
29  5 2.56745563E-02 3.77352231E-03 3.25439825E-01 1.77291350E-03 4.11124042E-02
29  6 1.23453015E-01-1.64565419E-01 1.10990431E-03-7.69314194E-04 1.82077492E-03
29  7 2.09611432E-01-6.60833533E-03 2.09611379E-01-6.60542489E-03
30  1 1.97037355E-09-1.22908174E-08-8.85860678E-04 1.48849980E-03-2.71342750E-01
30  2 1.64694260E-08-8.77176173E-04 1.47393216E-03-2.68682739E-01 6.26825090E-05
30  3-9.10740924E-03 9.04472673E-03 3.06832252E-03 1.11266507E-02 9.58478549E-01
30  4 3.68386686E-09-6.36294471E-08-2.34832086E-07 3.40506087E-07-7.17433773E-05
30  5 2.68158460E-08 1.51900309E-03-2.55240437E-03 4.65277016E-01 6.80062052E-05
30  6-9.85232227E-03 9.78431607E-03 3.31924807E-03 1.20369405E-02 1.03686415E+00
30  7 1.24434436E-07-7.03995681E-08 1.24421278E-07-7.04050180E-08
31  1-3.41278384E-07-2.02922288E-07-1.27880176E-01 1.48378112E-03 4.25633740E-04
31  2 1.07680278E-06-2.80404561E-01 3.24741007E-03 9.33259291E-04 2.22897533E-02
31  3-2.22509610E-02-3.87922288E-05 1.10980407E+00 6.00400402E-03-3.76413001E-03
31  4-1.49950574E-07 1.33475558E-06 4.47640257E-02-5.16262836E-04-1.48974491E-04
31  5 1.55738247E-06 3.96697789E-01-4.59028947E-03-1.32029183E-03 1.90237108E-02
31  6-1.89945194E-02-2.91914191E-05 9.47596767E-01 5.12670295E-03-3.21397043E-03
31  7 3.58036318E-01-2.86923437E-01-3.58048706E-01 2.86925914E-01
32  1-3.49083810E-02-1.32182338E+00 1.54937842E-02 1.33676581E+00 7.28269302E-03
32  2-1.40626470E+00 8.86147542E-03 7.64477171E-01 4.16487399E-03 3.22634322E-01
32  3-7.22834126E-01 4.00199804E-01-1.39978882E-02 2.15744039E-04-7.06835154E-03
32  4-6.10996212E-02-6.56899039E-01 3.46126783E-03 2.98632053E-01 1.62694866E-03
32  5 2.88654667E+00 2.00420775E-02 1.72918885E+00 9.42060727E-03-7.18690540E-01
32  6 1.45632266E+00-7.37632119E-01 2.91131889E-02 8.80582703E-05 1.38029686E-02
32  7 5.18973777E-02-7.15756646E-03 5.18995487E-02-7.15921561E-03
 1  1 1.35068060E-04-8.20910390E-05 1.50654469E-06 1.29849719E-04 7.07405899E-07
 1  2 4.64437535E-03-3.27118183E-05-2.82189583E-03-1.53737026E-05 3.85282318E-04
 1  3-6.87562724E-04 3.02280406E-04-1.43578750E-05-3.91556240E-07-6.22349212E-06
 1  4 9.95844375E-01 2.23244080E-02 2.41195299E-05 2.08091730E-03 1.13368254E-05
 1  5-9.87589785E-03-3.56353268E-05-3.07457379E-03-1.67502310E-05 1.28733824E-04
 1  6 5.89476304E-05-1.87681454E-04-9.26900678E-07-1.19794384E-06 1.56533986E-06
 1  7-2.53852130E-04 4.48797596E-05-2.53852718E-04 4.48850079E-05
 2  1 9.96197738E-01 2.36127842E-02-1.17530295E-05-1.01449480E-03-5.52679231E-06
 2  2-8.42835131E-03-2.43931686E-05-2.10351591E-03-1.14593054E-05-2.42689843E-04
 2  3 1.05542252E-03-8.12732675E-04 1.73991514E-05-2.05372672E-06 1.17772186E-05
 2  4-3.35332212E-04 2.99277554E-04 7.62528612E-07 6.57259061E-05 3.58050050E-07
 2  5-1.63019962E-03-2.00462873E-05-1.72980574E-03-9.42420577E-06 1.16553630E-04
 2  6-4.79213213E-04 3.62659583E-04-7.97683952E-06 8.84110975E-07-5.30711022E-06
 2  7-3.18020152E-04 2.57312986E-03-3.18033741E-04 2.57316701E-03
 3  1-1.10025649E-01 2.10267556E-01-2.03163442E-03-1.75294344E-01-9.55004062E-04
 3  2 7.10658293E-02 2.24324860E-04 1.93513056E-02 1.05423439E-04-1.57548393E-02
 3  3 3.31036957E-02-1.73488564E-02 6.54042091E-04-2.42685646E-06 3.17464689E-04
 3  4-1.99038900E-01 4.39654259E-01 1.56335476E-03 1.34876671E-01 7.34806722E-04
 3  5 4.05128475E-01 6.04390935E-04 5.21415262E-02 2.84066315E-04-7.14856851E-03
 3  6 1.37144142E-02-6.56584569E-03 2.79260056E-04 3.72647091E-06 1.27557439E-04
 3  7 2.70198337E-02-6.36591708E-03 2.70202026E-02-6.36604857E-03
 4  1-1.63496363E-01 3.45680967E-01 2.10836123E-03 1.81614421E-01 9.89367894E-04
 4  2 3.26182558E-01 1.00410404E-03 8.65887733E-02 4.71712502E-04 2.22307913E-02
 4  3-3.87418572E-03-1.83566056E-02-3.48223614E-04-1.54919370E-04 9.28736210E-05
 4  4 8.67684925E-02-2.00833591E-01 1.72540195E-03 1.48769475E-01 8.10474871E-04
 4  5-2.60892710E-01 8.41676550E-04 7.25679459E-02 3.95342627E-04-5.94168434E-03
 4  6 8.13079464E-03-2.18911031E-03 1.88426772E-04 1.51790426E-05 6.47557030E-05
 4  7 1.75207496E-01 6.34879241E-02 1.75211461E-01 6.34893714E-02
 5  1 1.18335076E-06-2.45663774E-06 4.07791200E-01-4.71474609E-03-1.35719156E-03
 5  2-2.57848587E-06 1.63066138E-01-1.88701198E-03-5.42718382E-04 2.38998844E-04
 5  3-2.38736348E-04-2.62495813E-07 1.18932148E-02 6.43323284E-05-4.03409534E-05
 5  4-1.42681366E-06 3.33144149E-06 3.45185482E-01-4.00255156E-03-1.14889396E-03
 5  5 5.71519745E-06 1.96403844E-01-2.27715539E-03-6.53697180E-04 4.94697553E-04
 5  6-4.94088160E-04-6.09393413E-07 2.46262641E-02 1.33231196E-04-8.35288861E-05
 5  7-1.80472730E-01-1.19901091E-01 1.80473392E-01 1.19901485E-01
 6  1-1.88485117E-02 5.74366985E-02-4.35735324E-03-3.76355155E-01-2.05033668E-03
 6  2-6.14871387E-02-9.45248267E-04-8.17746243E-02-4.45491352E-04-2.26019827E-02
 6  3 2.37003808E-02-1.09839807E-03 6.19259401E-04 8.44591493E-05 1.55071560E-04
 6  4 6.81668276E-02-1.60494106E-01 5.86185250E-03 5.05232826E-01 2.75251359E-03
 6  5-2.93573523E-01 3.35806668E-03 2.89425082E-01 1.57679302E-03-1.45973648E-02
 6  6 2.68311035E-02-1.22337387E-02 5.54856622E-04 1.19499793E-05 2.45655610E-04
 6  7-9.28556919E-02-7.32970606E-02-9.28519576E-02-7.32944302E-02
 7  1-1.72777871E-08 3.37988305E-08 1.05608322E-03-1.77450806E-03 3.23482561E-01
 7  2 5.61349841E-08 6.78077865E-04-1.13937009E-03 2.07698046E-01-2.36237611E-06
 7  3 3.42829143E-04-3.40466767E-04-1.15500964E-04-4.18770443E-04-3.60799329E-02
 7  4 3.46802816E-10-3.72688081E-09 1.61206308E-03-2.70885123E-03 4.93781941E-01
 7  5 1.33575716E-08 1.15852731E-03-1.94673744E-03 3.54861929E-01 2.74193600E-06
 7  6-3.97471876E-04 3.94729940E-04 1.33907873E-04 4.85609280E-04 4.18300444E-02
 7  7 2.19970234E-09 1.20232520E-08 2.21609470E-09 1.20726495E-08
 8  1-8.61948634E-08-2.47794723E-07-2.02623453E-01 2.34534855E-03 6.74376595E-04
 8  2 2.36926237E-06-5.75378554E-02 6.66653616E-04 1.91502587E-04-1.24347964E-03
 8  3 1.24158571E-03 1.89393624E-06-6.19374283E-02-3.35080004E-04 2.10073856E-04
 8  4 2.86798341E-08-7.69829166E-08 5.48413026E-01-6.34724139E-03-1.82523911E-03
 8  5-6.98173605E-08 4.32620151E-01-5.00711844E-03-1.43985522E-03 3.77693624E-04
 8  6-3.77124336E-04-5.69288385E-07 1.88090208E-02 1.01760175E-04-6.37953699E-05
 8  7 1.88284953E-01 2.38183882E-01-1.88283805E-01-2.38182258E-01
 9  1-5.64178420E-08 5.41115058E-08 1.32163458E-03-2.22068070E-03 4.04821926E-01
 9  2 6.28987864E-07 2.32614661E-03-3.90844160E-03 7.12507699E-01 2.12968435E-06
 9  3-3.08921405E-04 3.06791721E-04 1.04074400E-04 3.77572013E-04 3.25109337E-02
 9  4 4.86297717E-09-2.04936359E-08-1.23931585E-03 2.08241862E-03-3.79607562E-01
 9  5 2.31106605E-08-1.71540317E-03 2.88240739E-03-5.25435142E-01-2.07714517E-07
 9  6 2.99512883E-05-2.97435738E-05-1.00911156E-05-3.66018226E-05-3.15226494E-03
 9  7-7.27043286E-08-3.59355066E-07-7.27052179E-08-3.59371733E-07
10  1-1.24194003E-01 1.46727156E-01 2.46748979E-03 2.13313873E-01 1.16196385E-03
10  2 1.91480832E+00 8.15646824E-03 7.04383604E-01 3.83690352E-03-4.24768892E-03
10  3-3.31889587E-04 4.57957851E-03 5.22303431E-05 3.35641966E-05-3.12951897E-05
10  4 5.13521842E-03-1.85874318E-02-7.97223474E-04-6.89591675E-02-3.75573608E-04
10  5 3.42772192E-02-9.99331160E-04-8.65247316E-02-4.71154757E-04-5.16725282E-03
10  6-6.51500660E-04 5.81875348E-03 6.01090852E-05 4.17457972E-05-4.11832654E-05
10  7-5.29497268E-02-1.41259246E+00-5.29487216E-02-1.41258346E+00
11  1 1.02302463E-06-1.37347886E-06-4.48826312E-01 5.19266996E-03 1.49378183E-03
11  2-3.27887907E-05-1.51771488E+00 1.75569919E-02 5.05124054E-03-1.29502338E-04
11  3 1.29152062E-04 3.50275802E-07-6.43770518E-03-3.48307669E-05 2.18345727E-05
11  4-1.45156344E-07 1.14186160E-07 1.44630656E-01-1.67296322E-03-4.81357311E-04
11  5 2.51650404E-06 4.03373327E-01-4.66590781E-03-1.34250048E-03-1.19114448E-04
11  6 1.18997437E-04 1.17011100E-07-5.93249323E-03-3.21013018E-05 2.01222676E-05
11  7 2.01069622E-02-1.68166570E+00-2.01091752E-02 1.68170592E+00
12  1 4.98620726E-02 6.74982512E-03 7.84184066E-04 6.75554920E-02 3.68035306E-04
12  2-1.61348226E+00 2.31806817E-02 1.99953688E+00 1.08933916E-02-4.84894240E-03
12  3-7.95276062E-04 5.64421846E-03 5.41608050E-05 3.98551811E-05-4.09723810E-05
12  4-9.44614968E-02 7.99035394E-02 1.74639277E-03 1.50691856E-01 8.20971621E-04
12  5 2.05252669E+00 1.05167527E-02 9.07424375E-01 4.94366186E-03-2.70871143E-02
12  6 5.60575862E-02-2.89704720E-02 1.11302547E-03-1.00356759E-06 5.34992246E-04
12  7-1.13847563E-03-1.74601279E-01-1.13788515E-03-1.74613006E-01
13  1 1.65768690E-08-2.11113204E-07-3.50084798E-03 5.88250718E-03-1.07232433E+00
13  2 1.66994358E-07 3.61044034E-03-6.06675468E-03 1.10589328E+00 1.08570861E-06
13  3-1.56274637E-04 1.55188928E-04 5.26503311E-05 1.90802210E-04 1.64466727E-02
13  4 1.82562288E-09-7.22443779E-09-3.06868983E-05 5.15814204E-05-9.39958878E-03
13  5-5.69880555E-08-2.93938233E-04 4.93883431E-04-9.00344260E-02-5.76505655E-06
13  6 8.36432753E-04-8.30667696E-04-2.81796995E-04-1.02190326E-03-8.80274518E-02
13  7 2.84274413E-08 4.20562961E-08 2.84560201E-08 4.20465735E-08
14  1-7.93143492E-06-1.14108744E-04-7.63308442E-01 8.76702719E-03 2.54008867E-03
14  2 2.85889777E-04 2.22612957E+00-2.56341362E-02-7.40833156E-03-1.39804489E-03
14  3 1.37456309E-03 2.34817958E-05-6.88183481E-02-3.72100552E-04 2.33244408E-04
14  4 4.98848699E-06-2.87915222E-05-3.18145391E-01 3.67034964E-03 1.05879301E-03
14  5 3.01457820E-06-2.59556927E-01 2.96662502E-03 8.63657121E-04-6.32874356E-04
14  6 6.29703420E-04 3.17093534E-06-3.12904942E-02-1.69243050E-04 1.06129733E-04
14  7 3.59596902E-01 8.15769140E-01-3.59764144E-01-8.15861856E-01
15  1-5.40075485E-02-8.17022780E-01-5.47035247E-03-4.81447621E-01-2.62326461E-03
15  2 1.94710338E+00 9.72181134E-03 8.64876251E-01 4.71244681E-03-1.21458454E-01
15  3-3.44408976E-02 1.55899351E-01 1.16895234E-03 1.05202452E-03-1.20955638E-03
15  4 3.62383447E-02-2.10395689E-01-8.60192769E-04-7.80621578E-02-4.25335769E-04
15  5 1.22849488E-02-3.08805198E-03-2.69318526E-01-1.46728607E-03-3.28379315E-02
15  6 1.69605294E-02 1.58774021E-02 6.70275057E-04 1.87325033E-04 4.65891340E-06
15  7-5.98021121E-01-2.77808141E-01-5.97919002E-01-2.77599860E-01
16  1-4.47879102E-02 9.80553027E-01-1.00575528E-02-8.68002087E-01-4.72888760E-03
16  2-7.91871471E-01 5.47779061E-03 4.73214005E-01 2.57816873E-03 1.26537597E-01
16  3-1.59601481E-01 3.30638840E-02-3.82914040E-03-3.73364060E-04-1.20797457E-03
16  4 4.78900599E-02-1.75384802E-01-3.50613174E-03-3.02460620E-01-1.64782768E-03
16  5 1.82859725E-01-4.89040921E-03-4.21971955E-01-2.29891181E-03-8.79149581E-02
16  6 1.90087591E-01-1.02172633E-01 3.72198781E-03-3.33633973E-05 1.83922850E-03
16  7 1.65660957E-01 6.67984531E-03 1.65653600E-01 6.69661855E-03
17  1-3.74943931E-06 8.41717643E-05-7.66884439E-01 8.90312976E-03 2.55250998E-03
17  2-1.79578543E-04 1.06777550E+00-1.23885661E-02-3.55395787E-03 4.12137907E-03
17  3-4.12232787E-03 9.48800864E-07 2.05453329E-01 1.11147626E-03-6.96907798E-04
17  4-4.44626285E-07-3.39762387E-07 1.42974162E-01-1.66983809E-03-4.75932159E-04