!   fluorosilatrane...at SCRF optimized geometry published 1995
!      "Structural Trends in Silicon Atranes"
!      M.W.Schmidt, T.L.Windus, M.S.Gordon
!      J.Am.Chem.Soc.  117, 7480-7486(1995)
!   There are 208 basis functions in this run, 51 occupied MOs
!
!   FINAL E= -901.7962689484, RMS grad= 0.001887499
!   the induced dipole= (0,0,0.01464)
!
!   This run takes 55 seconds on a 2.6 GHz Cloverton (13 Oct 2015)
!   answers have not changed substantially since at least 2008
!
!   ----------------------------------------------------------
!   in 2005, this geometry optimized in 15 steps healthily,
!      RHF E=  -901.7962686818  GRADIENT =  .0018821
!      RHF E=  -901.7964904500  GRADIENT =  .0008336
!      RHF E=  -901.7965406442  GRADIENT =  .0003438
!      RHF E=  -901.7965539453  GRADIENT =  .0002639
!      RHF E=  -901.7965667993  GRADIENT =  .0001649
!      RHF E=  -901.7965765907  GRADIENT =  .0001316
!      RHF E=  -901.7965802419  GRADIENT =  .0001248
!      RHF E=  -901.7965853327  GRADIENT =  .0001346
!      RHF E=  -901.7965940875  GRADIENT =  .0001697
!      RHF E=  -901.7966060903  GRADIENT =  .0001817
!      RHF E=  -901.7966144454  GRADIENT =  .0001140
!      RHF E=  -901.7966168604  GRADIENT =  .0000316
!      RHF E=  -901.7966170896  GRADIENT =  .0000071
!      RHF E=  -901.7966171011  GRADIENT =  .0000058
!      RHF E=  -901.7966171073  GRADIENT =  .0000042
!      RHF E=  -901.7966171114  GRADIENT =  .0000016
!   so it is a bit of a mystery as to what happened between 1995 
!   and 2004 (binary from April 2004 got the same non-zero grad)
!            published: r(SiF)=1.638   r(SiN)=2.104,  dipole=13.0
!     initial geometry: r(SiF)=1.6383  r(SiN)=2.1038, dipole=12.84
!   optimized geometry: r(SiF)=1.6293  r(SiN)=2.1435, dipole=12.47
!
 $contrl scftyp=rhf runtyp=gradient nzvar=93 $end
 $system timlim=200 mwords=10 $end
 $scf    dirscf=.true. $end
 $guess  guess=huckel $end
 $basis  gbasis=n31 ngauss=6 ndfunc=1 $end
 $scrf   radius=3.67 dielec=45.0 $end
 $data
silatrane FSi[-O-(CH2)2-]3N...6-31G(d) solution phase geometry
Cn 3

NITROGEN    7.0   0.0000000000   0.0000000000  -1.0146061375
CARBON      6.0   0.8023331137  -1.1729460872  -1.3949595725
CARBON      6.0   0.5980643114  -2.2054394755  -0.2933420108
OXYGEN      8.0   0.5642560117  -1.5443107114   0.9428902766
SILICON    14.0   0.0000000000   0.0000000000   1.0891669337
HYDROGEN    1.0   0.5319215094  -1.5435454148  -2.3767955250
HYDROGEN    1.0   1.8422269379  -0.8780147407  -1.4266234952
HYDROGEN    1.0  -0.3261220196  -2.7566155726  -0.4344379766
HYDROGEN    1.0   1.4102706250  -2.9210289334  -0.2905880207
FLUORINE    9.0   0.0000000000   0.0000000000   2.7274717904
 $END      

 $libe   apts(1)=1.0,0.0,0.0 $end
 $zmat   izmat(1)=1,1,2,  1,1,3,  1,1,4,  1,2,5,  1,3,6,  1,4,7,  1,5,8,
    1,6,9,  1,7,10,  1,8,11,  1,9,11,  1,10,11,  1,1,11,
    1,2,12,  1,2,15,  1,3,13,  1,3,16,  1,4,14,  1,4,17,
    1,5,18,  1,5,21,  1,6,19,  1,6,22,  1,7,20,  1,7,23,
    2,11,1,2,  2,1,2,5,  2,2,5,8,  2,5,8,11,  2,8,11,1,
    2,11,1,3,  2,1,3,6,  2,3,6,9,  2,6,9,11,  2,9,11,1,
    2,11,1,4,  2,1,4,7,  2,4,7,10, 2,7,10,11, 2,10,11,1,
    3,11,1,2,5,  3,1,2,5,8,  3,2,5,8,11,  3,5,8,11,1,  3,8,11,1,2,
    3,11,1,3,6,  3,1,3,6,9,  3,3,6,9,11,  3,6,9,11,1,  3,9,11,1,3,
    3,11,1,4,7,  3,1,4,7,10, 3,4,7,10,11, 3,7,10,11,1, 3,10,11,1,4,
    3,2,1,11,9, 3,3,1,11,8, 3,2,1,11,10, 3,4,1,11,8, 3,4,1,11,9, 3,3,1,11,10,
    2,12,2,15,  2,12,2,1,  2,15,2,1,  2,12,2,5,  2,15,2,5,
    2,13,3,16,  2,13,3,1,  2,16,3,1,  2,13,3,6,  2,16,3,6,
    2,14,4,17,  2,14,4,1,  2,17,4,1,  2,14,4,7,  2,17,4,7,
    2,18,5,21,  2,18,5,2,  2,21,5,2,  2,18,5,8,  2,21,5,8,
    2,19,6,22,  2,19,6,3,  2,22,6,3,  2,19,6,9,  2,22,6,9,
    2,20,7,23,  2,20,7,4,  2,23,7,4,  2,20,7,10, 2,23,7,10,
        1,11,24,  5,24,11,1

 ijs(1)=1,1,  2,2,  3,3,  4,4,  5,5,  6,6,  7,7,  8,8,  9,9,  10,10,
     11,11, 12,12, 13,13, 14,14, 15,15, 16,16, 17,17, 18,18, 19,19, 20,20
     21,21, 22,22, 23,23, 24,24, 25,25,
           26,26,  27,26,  28,26,  29,26,  30,26,
                   27,27,  28,27,  29,27,  30,27,
           31,28,  32,28,  33,28,  34,28,  35,28,
                   32,29,  33,29,  34,29,  35,29,
           36,30,  37,30,  38,30,  39,30,  40,30,
                   37,31,  38,31,  39,31,  40,31,
           41,32,  42,32,  43,32,  44,32,  45,32,
           41,33,  42,33,          44,33,  45,33,
           46,34,  47,34,  48,34,  49,34,  50,34,
           46,35,  47,35,          49,35,  50,35,
           51,36,  52,36,  53,36,  54,36,  55,36,
           51,37,  52,37,          54,37,  55,37,
           56,38,  57,38,  58,38,  59,38,  60,38,  61,38
                           58,39,  59,39,  60,39,  61,39
           62,40,  63,40,  64,40,  65,40,  66,40,
                   63,41,  64,41,  65,41,  66,41,
                   63,42,  64,42,  65,42,  66,42,
                   63,43,  64,43,  65,43,  66,43,
           67,44,  68,44,  69,44,  70,44,  71,44,
                   68,45,  69,45,  70,45,  71,45,
                   68,46,  69,46,  70,46,  71,46,
                   68,47,  69,47,  70,47,  71,47,
           72,48,  73,48,  74,48,  75,48,  76,48,
                   73,49,  74,49,  75,49,  76,49,
                   73,50,  74,50,  75,50,  76,50,
                   73,51,  74,51,  75,51,  76,51,
           77,52,  78,52,  79,52,  80,52,  81,52,
                   78,53,  79,53,  80,53,  81,53,
                   78,54,  79,54,  80,54,  81,54,
                   78,55,  79,55,  80,55,  81,55,
           82,56,  83,56,  84,56,  85,56,  86,56,
                   83,57,  84,57,  85,57,  86,57,
                   83,58,  84,58,  85,58,  86,58,
                   83,59,  84,59,  85,59,  86,59,
           87,60,  88,60,  89,60,  90,60,  91,60,
                   88,61,  89,61,  90,61,  91,61,
                   88,62,  89,62,  90,62,  91,62,
                   88,63,  89,63,  90,63,  91,63,
        92,64,  93,65,  94,66

   sij(1)= 1.0, 1.0, 1.0, 1.0, 1.0, 1.0, 1.0, 1.0, 1.0, 1.0,
           1.0, 1.0, 1.0, 1.0, 1.0, 1.0, 1.0, 1.0, 1.0, 1.0,
           1.0, 1.0, 1.0, 1.0, 1.0,
                  1.0, -0.8090, 0.3090,  0.3090, -0.8090,
                       -1.1180, 1.8090, -1.8090, 1.1180,
                  1.0, -0.8090, 0.3090,  0.3090, -0.8090,
                       -1.1180, 1.8090, -1.8090, 1.1180,
                  1.0, -0.8090, 0.3090,  0.3090, -0.8090,
                       -1.1180, 1.8090, -1.8090, 1.1180,
                  0.3090, -0.8090, 1.0, -0.8090, 0.3090,
                  -1.8090, 1.1180,      -1.1180, 1.8090,
                  0.3090, -0.8090, 1.0, -0.8090, 0.3090,
                  -1.8090, 1.1180,      -1.1180, 1.8090,
                  0.3090, -0.8090, 1.0, -0.8090, 0.3090,
                  -1.8090, 1.1180,      -1.1180, 1.8090,
      2.0,-2.0,-1.0,1.0,-1.0,1.0,     1.0,-1.0,-1.0,1.0,
          4.0,-1.0,-1.0,-1.0,-1.0,  1.0,-1.0,1.0,-1.0,
               1.0,1.0,-1.0,-1.0,   1.0,-1.0,-1.0,1.0,
          4.0,-1.0,-1.0,-1.0,-1.0,  1.0,-1.0,1.0,-1.0,
               1.0,1.0,-1.0,-1.0,   1.0,-1.0,-1.0,1.0,
          4.0,-1.0,-1.0,-1.0,-1.0,  1.0,-1.0,1.0,-1.0,
               1.0,1.0,-1.0,-1.0,   1.0,-1.0,-1.0,1.0,
          4.0,-1.0,-1.0,-1.0,-1.0,  1.0,-1.0,1.0,-1.0,
               1.0,1.0,-1.0,-1.0,   1.0,-1.0,-1.0,1.0,
          4.0,-1.0,-1.0,-1.0,-1.0,  1.0,-1.0,1.0,-1.0,
               1.0,1.0,-1.0,-1.0,   1.0,-1.0,-1.0,1.0,
          4.0,-1.0,-1.0,-1.0,-1.0,  1.0,-1.0,1.0,-1.0,
               1.0,1.0,-1.0,-1.0,   1.0,-1.0,-1.0,1.0,
      1.0, 1.0, 1.0   $end

! TRAVIS-CI SMALL

