 $CONTRL RUNTYP=ENERGY SCFTYP=RHF MAXIT=1 $END
 $CONTRL NPRINT=-5 ISPHER=1 $END
 $SYSTEM MODIO=15 $END
 $SYSTEM MWORDS=500 $END
 $SCF DIRSCF=.T. NPUNCH=0 $END
 $BASIS GBASIS=N31 NGAUSS=6 NDFUNC=1 $END
 $INTGRL INTOMP=2 $END
 $GUESS GUESS=HCORE $END
 $DATA
Title
C1
C     6.0     0.00000     0.00000     0.00000
C     6.0    -1.22800     0.70900     0.00000
C     6.0    -1.22800     2.12700     0.00000
C     6.0     0.00000     2.83600     0.00000
C     6.0     2.45600     0.00000     0.00000
C     6.0     1.22800     0.70900     0.00000
C     6.0     1.22800     2.12700     0.00000
C     6.0     2.45600     2.83600     0.00000
C     6.0     4.91200     0.00000     0.00000
C     6.0     3.68400     0.70900     0.00000
C     6.0     3.68400     2.12700     0.00000
C     6.0     4.91200     2.83600     0.00000
C     6.0     7.36800     0.00000     0.00000
C     6.0     6.14000     0.70900     0.00000
C     6.0     6.14000     2.12700     0.00000
C     6.0     7.36800     2.83600     0.00000
C     6.0     9.82400     0.00000     0.00000
C     6.0     8.59600     0.70900     0.00000
C     6.0     8.59600     2.12700     0.00000
C     6.0     9.82400     2.83600     0.00000
C     6.0    12.28000     0.00000     0.00000
C     6.0    11.05200     0.70900     0.00000
C     6.0    11.05200     2.12700     0.00000
C     6.0    12.28000     2.83600     0.00000
C     6.0    14.73600     0.00000     0.00000
C     6.0    13.50800     0.70900     0.00000
C     6.0    13.50800     2.12700     0.00000
C     6.0    14.73600     2.83600     0.00000
C     6.0    17.19200     0.00000     0.00000
C     6.0    15.96400     0.70900     0.00000
C     6.0    15.96400     2.12700     0.00000
C     6.0    17.19200     2.83600     0.00000
C     6.0    18.42000     0.70900     0.00000
C     6.0    18.42000     2.12700     0.00000
C     6.0    19.64800     2.83600     0.00000
C     6.0     0.00000     4.25400     0.00000
C     6.0    -1.22800     4.96300     0.00000
C     6.0    -1.22800     6.38100     0.00000
C     6.0     0.00000     7.09000     0.00000
C     6.0     2.45600     4.25400     0.00000
C     6.0     1.22800     4.96300     0.00000
C     6.0     1.22800     6.38100     0.00000
C     6.0     2.45600     7.09000     0.00000
C     6.0     4.91200     4.25400     0.00000
C     6.0     3.68400     4.96300     0.00000
C     6.0     3.68400     6.38100     0.00000
C     6.0     4.91200     7.09000     0.00000
C     6.0     7.36800     4.25400     0.00000
C     6.0     6.14000     4.96300     0.00000
C     6.0     6.14000     6.38100     0.00000
C     6.0     7.36800     7.09000     0.00000
C     6.0     9.82400     4.25400     0.00000
C     6.0     8.59600     4.96300     0.00000
C     6.0     8.59600     6.38100     0.00000
C     6.0     9.82400     7.09000     0.00000
C     6.0    12.28000     4.25400     0.00000
C     6.0    11.05200     4.96300     0.00000
C     6.0    11.05200     6.38100     0.00000
C     6.0    12.28000     7.09000     0.00000
C     6.0    14.73600     4.25400     0.00000
C     6.0    13.50800     4.96300     0.00000
C     6.0    13.50800     6.38100     0.00000
C     6.0    14.73600     7.09000     0.00000
C     6.0    17.19200     4.25400     0.00000
C     6.0    15.96400     4.96300     0.00000
C     6.0    15.96400     6.38100     0.00000
C     6.0    17.19200     7.09000     0.00000
C     6.0    19.64800     4.25400     0.00000
C     6.0    18.42000     4.96300     0.00000
C     6.0    18.42000     6.38100     0.00000
C     6.0    19.64800     7.09000     0.00000
C     6.0     0.00000     8.50800     0.00000
C     6.0    -1.22800     9.21700     0.00000
C     6.0    -1.22800    10.63500     0.00000
C     6.0     0.00000    11.34400     0.00000
C     6.0     2.45600     8.50800     0.00000
C     6.0     1.22800     9.21700     0.00000
C     6.0     1.22800    10.63500     0.00000
C     6.0     2.45600    11.34400     0.00000
C     6.0     4.91200     8.50800     0.00000
C     6.0     3.68400     9.21700     0.00000
C     6.0     3.68400    10.63500     0.00000
C     6.0     4.91200    11.34400     0.00000
C     6.0     7.36800     8.50800     0.00000
C     6.0     6.14000     9.21700     0.00000
C     6.0     6.14000    10.63500     0.00000
C     6.0     7.36800    11.34400     0.00000
C     6.0     9.82400     8.50800     0.00000
C     6.0     8.59600     9.21700     0.00000
C     6.0     8.59600    10.63500     0.00000
C     6.0     9.82400    11.34400     0.00000
C     6.0    12.28000     8.50800     0.00000
C     6.0    11.05200     9.21700     0.00000
C     6.0    11.05200    10.63500     0.00000
C     6.0    12.28000    11.34400     0.00000
C     6.0    14.73600     8.50800     0.00000
C     6.0    13.50800     9.21700     0.00000
C     6.0    13.50800    10.63500     0.00000
C     6.0    14.73600    11.34400     0.00000
C     6.0    17.19200     8.50800     0.00000
C     6.0    15.96400     9.21700     0.00000
C     6.0    15.96400    10.63500     0.00000
C     6.0    17.19200    11.34400     0.00000
C     6.0    19.64800     8.50800     0.00000
C     6.0    18.42000     9.21700     0.00000
C     6.0    18.42000    10.63500     0.00000
C     6.0    19.64800    11.34400     0.00000
C     6.0     0.00000    12.76200     0.00000
C     6.0    -1.22800    13.47100     0.00000
C     6.0    -1.22800    14.88900     0.00000
C     6.0     0.00000    15.59800     0.00000
C     6.0     2.45600    12.76200     0.00000
C     6.0     1.22800    13.47100     0.00000
C     6.0     1.22800    14.88900     0.00000
C     6.0     2.45600    15.59800     0.00000
C     6.0     4.91200    12.76200     0.00000
C     6.0     3.68400    13.47100     0.00000
C     6.0     3.68400    14.88900     0.00000
C     6.0     4.91200    15.59800     0.00000
C     6.0     7.36800    12.76200     0.00000
C     6.0     6.14000    13.47100     0.00000
C     6.0     6.14000    14.88900     0.00000
C     6.0     7.36800    15.59800     0.00000
C     6.0     9.82400    12.76200     0.00000
C     6.0     8.59600    13.47100     0.00000
C     6.0     8.59600    14.88900     0.00000
C     6.0     9.82400    15.59800     0.00000
C     6.0    12.28000    12.76200     0.00000
C     6.0    11.05200    13.47100     0.00000
C     6.0    11.05200    14.88900     0.00000
C     6.0    12.28000    15.59800     0.00000
C     6.0    14.73600    12.76200     0.00000
C     6.0    13.50800    13.47100     0.00000
C     6.0    13.50800    14.88900     0.00000
C     6.0    14.73600    15.59800     0.00000
C     6.0    17.19200    12.76200     0.00000
C     6.0    15.96400    13.47100     0.00000
C     6.0    15.96400    14.88900     0.00000
C     6.0    17.19200    15.59800     0.00000
C     6.0    19.64800    12.76200     0.00000
C     6.0    18.42000    13.47100     0.00000
C     6.0    18.42000    14.88900     0.00000
C     6.0    19.64800    15.59800     0.00000
C     6.0     0.00000    17.01600     0.00000
C     6.0    -1.22800    17.72500     0.00000
C     6.0    -1.22800    19.14300     0.00000
C     6.0     0.00000    19.85200     0.00000
C     6.0     2.45600    17.01600     0.00000
C     6.0     1.22800    17.72500     0.00000
C     6.0     1.22800    19.14300     0.00000
C     6.0     2.45600    19.85200     0.00000
C     6.0     4.91200    17.01600     0.00000
C     6.0     3.68400    17.72500     0.00000
C     6.0     3.68400    19.14300     0.00000
C     6.0     4.91200    19.85200     0.00000
C     6.0     7.36800    17.01600     0.00000
C     6.0     6.14000    17.72500     0.00000
C     6.0     6.14000    19.14300     0.00000
C     6.0     7.36800    19.85200     0.00000
C     6.0     9.82400    17.01600     0.00000
C     6.0     8.59600    17.72500     0.00000
C     6.0     8.59600    19.14300     0.00000
C     6.0     9.82400    19.85200     0.00000
C     6.0    12.28000    17.01600     0.00000
C     6.0    11.05200    17.72500     0.00000
C     6.0    11.05200    19.14300     0.00000
C     6.0    12.28000    19.85200     0.00000
C     6.0    14.73600    17.01600     0.00000
C     6.0    13.50800    17.72500     0.00000
C     6.0    13.50800    19.14300     0.00000
C     6.0    14.73600    19.85200     0.00000
C     6.0    17.19200    17.01600     0.00000
C     6.0    15.96400    17.72500     0.00000
C     6.0    15.96400    19.14300     0.00000
C     6.0    17.19200    19.85200     0.00000
C     6.0    19.64800    17.01600     0.00000
C     6.0    18.42000    17.72500     0.00000
C     6.0    18.42000    19.14300     0.00000
C     6.0     0.00000     1.41800     3.35000
C     6.0    -1.22800     2.12700     3.35000
C     6.0    -1.22800     3.54500     3.35000
C     6.0     0.00000     4.25400     3.35000
C     6.0     2.45600     1.41800     3.35000
C     6.0     1.22800     2.12700     3.35000
C     6.0     1.22800     3.54500     3.35000
C     6.0     2.45600     4.25400     3.35000
C     6.0     4.91200     1.41800     3.35000
C     6.0     3.68400     2.12700     3.35000
C     6.0     3.68400     3.54500     3.35000
C     6.0     4.91200     4.25400     3.35000
C     6.0     7.36800     1.41800     3.35000
C     6.0     6.14000     2.12700     3.35000
C     6.0     6.14000     3.54500     3.35000
C     6.0     7.36800     4.25400     3.35000
C     6.0     9.82400     1.41800     3.35000
C     6.0     8.59600     2.12700     3.35000
C     6.0     8.59600     3.54500     3.35000
C     6.0     9.82400     4.25400     3.35000
C     6.0    12.28000     1.41800     3.35000
C     6.0    11.05200     2.12700     3.35000
C     6.0    11.05200     3.54500     3.35000
C     6.0    12.28000     4.25400     3.35000
C     6.0    14.73600     1.41800     3.35000
C     6.0    13.50800     2.12700     3.35000
C     6.0    13.50800     3.54500     3.35000
C     6.0    14.73600     4.25400     3.35000
C     6.0    17.19200     1.41800     3.35000
C     6.0    15.96400     2.12700     3.35000
C     6.0    15.96400     3.54500     3.35000
C     6.0    17.19200     4.25400     3.35000
C     6.0    18.42000     2.12700     3.35000
C     6.0    18.42000     3.54500     3.35000
C     6.0    19.64800     4.25400     3.35000
C     6.0     0.00000     5.67200     3.35000
C     6.0    -1.22800     6.38100     3.35000
C     6.0    -1.22800     7.79900     3.35000
C     6.0     0.00000     8.50800     3.35000
C     6.0     2.45600     5.67200     3.35000
C     6.0     1.22800     6.38100     3.35000
C     6.0     1.22800     7.79900     3.35000
C     6.0     2.45600     8.50800     3.35000
C     6.0     4.91200     5.67200     3.35000
C     6.0     3.68400     6.38100     3.35000
C     6.0     3.68400     7.79900     3.35000
C     6.0     4.91200     8.50800     3.35000
C     6.0     7.36800     5.67200     3.35000
C     6.0     6.14000     6.38100     3.35000
C     6.0     6.14000     7.79900     3.35000
C     6.0     7.36800     8.50800     3.35000
C     6.0     9.82400     5.67200     3.35000
C     6.0     8.59600     6.38100     3.35000
C     6.0     8.59600     7.79900     3.35000
C     6.0     9.82400     8.50800     3.35000
C     6.0    12.28000     5.67200     3.35000
C     6.0    11.05200     6.38100     3.35000
C     6.0    11.05200     7.79900     3.35000
C     6.0    12.28000     8.50800     3.35000
C     6.0    14.73600     5.67200     3.35000
C     6.0    13.50800     6.38100     3.35000
C     6.0    13.50800     7.79900     3.35000
C     6.0    14.73600     8.50800     3.35000
C     6.0    17.19200     5.67200     3.35000
C     6.0    15.96400     6.38100     3.35000
C     6.0    15.96400     7.79900     3.35000
C     6.0    17.19200     8.50800     3.35000
C     6.0    19.64800     5.67200     3.35000
C     6.0    18.42000     6.38100     3.35000
C     6.0    18.42000     7.79900     3.35000
C     6.0    19.64800     8.50800     3.35000
C     6.0     0.00000     9.92600     3.35000
C     6.0    -1.22800    10.63500     3.35000
C     6.0    -1.22800    12.05300     3.35000
C     6.0     0.00000    12.76200     3.35000
C     6.0     2.45600     9.92600     3.35000
C     6.0     1.22800    10.63500     3.35000
C     6.0     1.22800    12.05300     3.35000
C     6.0     2.45600    12.76200     3.35000
C     6.0     4.91200     9.92600     3.35000
C     6.0     3.68400    10.63500     3.35000
C     6.0     3.68400    12.05300     3.35000
C     6.0     4.91200    12.76200     3.35000
C     6.0     7.36800     9.92600     3.35000
C     6.0     6.14000    10.63500     3.35000
C     6.0     6.14000    12.05300     3.35000
C     6.0     7.36800    12.76200     3.35000
C     6.0     9.82400     9.92600     3.35000
C     6.0     8.59600    10.63500     3.35000
C     6.0     8.59600    12.05300     3.35000
C     6.0     9.82400    12.76200     3.35000
C     6.0    12.28000     9.92600     3.35000
C     6.0    11.05200    10.63500     3.35000
C     6.0    11.05200    12.05300     3.35000
C     6.0    12.28000    12.76200     3.35000
C     6.0    14.73600     9.92600     3.35000
C     6.0    13.50800    10.63500     3.35000
C     6.0    13.50800    12.05300     3.35000
C     6.0    14.73600    12.76200     3.35000
C     6.0    17.19200     9.92600     3.35000
C     6.0    15.96400    10.63500     3.35000
C     6.0    15.96400    12.05300     3.35000
C     6.0    17.19200    12.76200     3.35000
C     6.0    19.64800     9.92600     3.35000
C     6.0    18.42000    10.63500     3.35000
C     6.0    18.42000    12.05300     3.35000
C     6.0    19.64800    12.76200     3.35000
C     6.0     0.00000    14.18000     3.35000
C     6.0    -1.22800    14.88900     3.35000
C     6.0    -1.22800    16.30700     3.35000
C     6.0     0.00000    17.01600     3.35000
C     6.0     2.45600    14.18000     3.35000
C     6.0     1.22800    14.88900     3.35000
C     6.0     1.22800    16.30700     3.35000
C     6.0     2.45600    17.01600     3.35000
C     6.0     4.91200    14.18000     3.35000
C     6.0     3.68400    14.88900     3.35000
C     6.0     3.68400    16.30700     3.35000
C     6.0     4.91200    17.01600     3.35000
C     6.0     7.36800    14.18000     3.35000
C     6.0     6.14000    14.88900     3.35000
C     6.0     6.14000    16.30700     3.35000
C     6.0     7.36800    17.01600     3.35000
C     6.0     9.82400    14.18000     3.35000
C     6.0     8.59600    14.88900     3.35000
C     6.0     8.59600    16.30700     3.35000
C     6.0     9.82400    17.01600     3.35000
C     6.0    12.28000    14.18000     3.35000
C     6.0    11.05200    14.88900     3.35000
C     6.0    11.05200    16.30700     3.35000
C     6.0    12.28000    17.01600     3.35000
C     6.0    14.73600    14.18000     3.35000
C     6.0    13.50800    14.88900     3.35000
C     6.0    13.50800    16.30700     3.35000
C     6.0    14.73600    17.01600     3.35000
C     6.0    17.19200    14.18000     3.35000
C     6.0    15.96400    14.88900     3.35000
C     6.0    15.96400    16.30700     3.35000
C     6.0    17.19200    17.01600     3.35000
C     6.0    19.64800    14.18000     3.35000
C     6.0    18.42000    14.88900     3.35000
C     6.0    18.42000    16.30700     3.35000
C     6.0    19.64800    17.01600     3.35000
C     6.0     0.00000    18.43400     3.35000
C     6.0    -1.22800    19.14300     3.35000
C     6.0    -1.22800    20.56100     3.35000
C     6.0     0.00000    21.27000     3.35000
C     6.0     2.45600    18.43400     3.35000
C     6.0     1.22800    19.14300     3.35000
C     6.0     1.22800    20.56100     3.35000
C     6.0     2.45600    21.27000     3.35000
C     6.0     4.91200    18.43400     3.35000
C     6.0     3.68400    19.14300     3.35000
C     6.0     3.68400    20.56100     3.35000
C     6.0     4.91200    21.27000     3.35000
C     6.0     7.36800    18.43400     3.35000
C     6.0     6.14000    19.14300     3.35000
C     6.0     6.14000    20.56100     3.35000
C     6.0     7.36800    21.27000     3.35000
C     6.0     9.82400    18.43400     3.35000
C     6.0     8.59600    19.14300     3.35000
C     6.0     8.59600    20.56100     3.35000
C     6.0     9.82400    21.27000     3.35000
C     6.0    12.28000    18.43400     3.35000
C     6.0    11.05200    19.14300     3.35000
C     6.0    11.05200    20.56100     3.35000
C     6.0    12.28000    21.27000     3.35000
C     6.0    14.73600    18.43400     3.35000
C     6.0    13.50800    19.14300     3.35000
C     6.0    13.50800    20.56100     3.35000
C     6.0    14.73600    21.27000     3.35000
C     6.0    17.19200    18.43400     3.35000
C     6.0    15.96400    19.14300     3.35000
C     6.0    15.96400    20.56100     3.35000
C     6.0    17.19200    21.27000     3.35000
C     6.0    19.64800    18.43400     3.35000
C     6.0    18.42000    19.14300     3.35000
C     6.0    18.42000    20.56100     3.35000
 $END
