!   O2- ... treated w/o symmetry by UDFT (B3LYP to be precise)
!   CMIRS 1.0 model,
!   which means self-consistent SS(V)PE plus non-iterative DEFESR corrections.
!   test case provided by Dan Chipman in October 2013
!
!         SS(V)PE results are
!   FINAL U-B3LYP E= -150.4000854865, 10 iters, <S**2>= 0.756
!
!   EGAS = INTERNAL ENERGY OF SOLUTE IN GAS PHASE       -150.28575619
!   EINT = INTERNAL ENERGY OF SOLUTE IN SOLUTION        -150.28542589
!   DINT = EINT-EGAS PORTION OF G OF SOLVATION             0.00033030
!   SS(V)PE  PORTION OF G OF SOLVATION=ERXNFIELD/2        -0.11465960
!
!         DEFESR results are
!   DISPERSION ENERGY                                     -0.00729334
!   EXCHANGE ENERGY                                        0.01287025
!   FIELD EXTREMUM (NEGATIVE FIELD) ENERGY                -0.02517360
!   FIELD EXTREMUM (POSITIVE FIELD) ENERGY                 0.00000000
!   NET DEFESR PORTION  OF G OF SOLVATION                 -0.01959669
!
!         CMIRS 1.0 results are
!   EINT + SS(V)PE  + DEFESR G IN SOLUTION              -150.41968217
!   DINT + SS(V)PE  + DEFESR G OF SOLVATION               -0.13392599
!
!         cavity info
!   CAVITY SURFACE AREA                =     220.08390
!   CAVITY VOLUME                      =     295.02111
!   TOTAL SURFACE  POLARIZATION CHARGE =    0.96873480
!   CHARGE PENETRATION FROM GAUSS LAW  =   -0.14578256
!
!   This run takes 143 seconds on 2.66 GHz Cloverton (25 Oct 2013)
!
 $contrl runtyp=energy scftyp=uhf dfttyp=b3lyp icharg=-1 mult=2 $end
 $system mwords=4 $end
 $basis  gbasis=n31 ngauss=6 ndfunc=1 npfunc=1 diffsp=.t. $end
 $guess  guess=moread norb=38 $end
 $dft    method=grid nrad=96 nleb=1202 nrad0=96 nleb0=1202 $end
 $scf    nconv=6 $end
 $svp    nvlpl=0 rhoiso=0.001 dielst=78.304 nptleb=1202 idef=1
         egas=-150.2857561869 $end
 $data
superoxide anion
C1
O           8.0      0.00000      0.00000      0.66682
O           8.0      0.00000      0.00000     -0.66682
 $end
 - gas vectors -
--- OPEN SHELL ORBITALS --- GENERATED AT Fri Oct 25 10:24:42 2013
superoxide anion
E(U-B3LYP)=     -150.2857561869, E(NUC)=   25.3946671901,   16 ITERS
 $VEC
 1  1 7.07199279E-01 1.87113926E-02 0.00000000E+00 0.00000000E+00-9.58891244E-04
 1  2 8.25047462E-03 0.00000000E+00 0.00000000E+00 4.13107304E-04-1.42877916E-03
 1  3 0.00000000E+00 0.00000000E+00 3.87056165E-05-5.87232955E-03-5.77685767E-03
 1  4-5.85959713E-03 6.86697605E-07 0.00000000E+00 0.00000000E+00 6.96604557E-01
 1  5 1.84414801E-02 0.00000000E+00 0.00000000E+00 9.52688042E-04 8.08384388E-03
 1  6 0.00000000E+00 0.00000000E+00-4.17605213E-04-1.28972014E-03 0.00000000E+00
 1  7 0.00000000E+00 7.52960585E-08-5.77989857E-03-5.68603579E-03-5.76538323E-03
 1  8 6.75096587E-07 0.00000000E+00 0.00000000E+00
 2  1-6.96524903E-01-1.77041947E-02 0.00000000E+00 0.00000000E+00 4.01409357E-04
 2  2-1.11978702E-02 0.00000000E+00 0.00000000E+00 3.49393454E-04 9.87386237E-03
 2  3 0.00000000E+00 0.00000000E+00-2.81528688E-03 6.11643057E-03 6.01053065E-03
 2  4 6.22297823E-03-7.61699899E-07 0.00000000E+00 0.00000000E+00 7.07120721E-01
 2  5 1.79847804E-02 0.00000000E+00 0.00000000E+00 4.15897297E-04 1.13204289E-02
 2  6 0.00000000E+00 0.00000000E+00 3.43074258E-04-9.89420611E-03 0.00000000E+00
 2  7 0.00000000E+00-2.81553605E-03-6.20411067E-03-6.09678104E-03-6.31056214E-03
 2  8 7.72006333E-07 0.00000000E+00 0.00000000E+00
 3  1-1.53995609E-01 3.49476960E-01 0.00000000E+00 0.00000000E+00-1.40187041E-01
 3  2 2.80926907E-01 0.00000000E+00 0.00000000E+00-4.38502596E-02-1.18510077E-03
 3  3 0.00000000E+00 0.00000000E+00 1.14347812E-02-1.16583494E-02-2.54752959E-03
 3  4 2.38735961E-02 6.55518237E-05 0.00000000E+00 0.00000000E+00-1.53995156E-01
 3  5 3.49480401E-01 0.00000000E+00 0.00000000E+00 1.40187618E-01 2.80908601E-01
 3  6 0.00000000E+00 0.00000000E+00 4.38498529E-02-1.01289490E-03 0.00000000E+00
 3  7 0.00000000E+00-1.13687550E-02-1.16568867E-02-2.54601231E-03 2.38756921E-02
 3  8 6.55487735E-05 0.00000000E+00 0.00000000E+00
 4  1 1.68107933E-01-3.82071673E-01 0.00000000E+00 0.00000000E+00-9.98541102E-02
 4  2-4.84195551E-01 0.00000000E+00 0.00000000E+00-2.14480882E-02 1.18809704E-01
 4  3 0.00000000E+00 0.00000000E+00-6.18073235E-02 8.21620726E-03-3.10199606E-03
 4  4 1.69782627E-02-8.14348187E-05 0.00000000E+00 0.00000000E+00-1.68108279E-01
 4  5 3.82069741E-01 0.00000000E+00 0.00000000E+00-9.98540368E-02 4.84203090E-01
 4  6 0.00000000E+00 0.00000000E+00-2.14482288E-02-1.18813086E-01 0.00000000E+00
 4  7 0.00000000E+00-6.18083418E-02-8.21783515E-03 3.10040464E-03-1.69798553E-02
 4  8 8.14386950E-05 0.00000000E+00 0.00000000E+00
 5  1 4.70457461E-02-1.00824289E-01 0.00000000E+00 0.00000000E+00-4.55502893E-01
 5  2-1.80699779E-01 0.00000000E+00 0.00000000E+00-2.34267746E-01-8.35932862E-02
 5  3 0.00000000E+00 0.00000000E+00-4.54421987E-02-5.57238888E-03-1.01060109E-02
 5  4 2.76288649E-02-3.26221901E-05 0.00000000E+00 0.00000000E+00 4.70468604E-02
 5  5-1.00819195E-01 0.00000000E+00 0.00000000E+00 4.55504750E-01-1.80728991E-01
 5  6 0.00000000E+00 0.00000000E+00 2.34262026E-01-8.34414231E-02 0.00000000E+00
 5  7 0.00000000E+00 4.54999369E-02-5.56885776E-03-1.01024932E-02 2.76315498E-02
 5  8-3.26252419E-05 0.00000000E+00 0.00000000E+00
 6  1 0.00000000E+00 0.00000000E+00 2.81936837E-03 4.52503235E-01 0.00000000E+00
 6  2 0.00000000E+00 1.58126766E-03 2.53790876E-01 0.00000000E+00 0.00000000E+00
 6  3 3.35512263E-04 5.38454665E-02 0.00000000E+00 0.00000000E+00 0.00000000E+00
 6  4 0.00000000E+00 0.00000000E+00-1.43265434E-04-2.29943506E-02 0.00000000E+00
 6  5 0.00000000E+00 2.81937296E-03 4.52502934E-01 0.00000000E+00 0.00000000E+00
 6  6 1.58128510E-03 2.53790615E-01 0.00000000E+00 0.00000000E+00 3.35429860E-04
 6  7 5.38466892E-02 0.00000000E+00 0.00000000E+00 0.00000000E+00 0.00000000E+00
 6  8 0.00000000E+00 1.43265717E-04 2.29943406E-02
 7  1 0.00000000E+00 0.00000000E+00 4.43454840E-01-2.76298146E-03 0.00000000E+00
 7  2 0.00000000E+00 2.53369661E-01-1.57863698E-03 0.00000000E+00 0.00000000E+00
 7  3 6.55015488E-02-4.08102133E-04 0.00000000E+00 0.00000000E+00 0.00000000E+00
 7  4 0.00000000E+00 0.00000000E+00-2.37141355E-02 1.47755466E-04 0.00000000E+00
 7  5 0.00000000E+00 4.43454090E-01-2.76296741E-03 0.00000000E+00 0.00000000E+00
 7  6 2.53369126E-01-1.57861281E-03 0.00000000E+00 0.00000000E+00 6.55027899E-02
 7  7-4.08204120E-04 0.00000000E+00 0.00000000E+00 0.00000000E+00 0.00000000E+00
 7  8 0.00000000E+00 2.37141252E-02-1.47755711E-04
 8  1 0.00000000E+00 0.00000000E+00-3.17749732E-03-5.09952489E-01 0.00000000E+00
 8  2 0.00000000E+00-2.07856430E-03-3.33582032E-01 0.00000000E+00 0.00000000E+00
 8  3-1.22591631E-03-1.96763454E-01 0.00000000E+00 0.00000000E+00 0.00000000E+00
 8  4 0.00000000E+00 0.00000000E+00-4.57168042E-05-7.33738171E-03 0.00000000E+00
 8  5 0.00000000E+00 3.17748774E-03 5.09952758E-01 0.00000000E+00 0.00000000E+00
 8  6 2.07855354E-03 3.33582339E-01 0.00000000E+00 0.00000000E+00 1.22594304E-03
 8  7 1.96762866E-01 0.00000000E+00 0.00000000E+00 0.00000000E+00 0.00000000E+00
 8  8 0.00000000E+00-4.57152828E-05-7.33726168E-03
 9  1 0.00000000E+00 0.00000000E+00-4.98776563E-01 3.10783427E-03 0.00000000E+00
 9  2 0.00000000E+00-3.29698117E-01 2.05426726E-03 0.00000000E+00 0.00000000E+00
 9  3-2.50746823E-01 1.56260131E-03 0.00000000E+00 0.00000000E+00 0.00000000E+00
 9  4 0.00000000E+00 0.00000000E+00-7.71915965E-03 4.81003428E-05 0.00000000E+00
 9  5 0.00000000E+00 4.98777111E-01-3.10784753E-03 0.00000000E+00 0.00000000E+00
 9  6 3.29698672E-01-2.05428437E-03 0.00000000E+00 0.00000000E+00 2.50746303E-01
 9  7-1.56256132E-03 0.00000000E+00 0.00000000E+00 0.00000000E+00 0.00000000E+00
 9  8 0.00000000E+00-7.71900935E-03 4.81011020E-05
10  1 5.21458164E-02-1.44255076E-01 0.00000000E+00 0.00000000E+00 1.37468991E-01
10  2-1.97510638E-01 0.00000000E+00 0.00000000E+00-9.62244784E-02-4.34696466E+00
10  3 0.00000000E+00 0.00000000E+00 2.40827193E+00-3.62416354E-03-6.90621542E-03
10  4 4.95627859E-02-2.35756559E-05 0.00000000E+00 0.00000000E+00-5.21321384E-02
10  5 1.44263415E-01 0.00000000E+00 0.00000000E+00 1.37473137E-01 1.97333179E-01
10  6 0.00000000E+00 0.00000000E+00-9.62130461E-02 4.34709541E+00 0.00000000E+00
10  7 0.00000000E+00 2.40829382E+00 3.64862411E-03 6.93061357E-03-4.95442573E-02
10  8 2.36177928E-05 0.00000000E+00 0.00000000E+00
11  1 6.55209293E-02-3.57908563E-02 0.00000000E+00 0.00000000E+00-1.09437647E-01
11  2-7.86725266E-01 0.00000000E+00 0.00000000E+00-1.88177559E-01 9.57173271E-01
11  3 0.00000000E+00 0.00000000E+00 4.88223881E-01 5.46276827E-02 5.27498891E-02
11  4 4.86184966E-02-1.35133364E-05 0.00000000E+00 0.00000000E+00 6.55335026E-02
11  5-3.57882796E-02 0.00000000E+00 0.00000000E+00 1.09416650E-01-7.86907617E-01
11  6 0.00000000E+00 0.00000000E+00 1.88153702E-01 9.57732030E-01 0.00000000E+00
11  7 0.00000000E+00-4.88101163E-01 5.46415565E-02 5.27633292E-02 4.86330009E-02
11  8-1.35162754E-05 0.00000000E+00 0.00000000E+00
12  1 0.00000000E+00 0.00000000E+00-1.02327540E-03-1.64105389E-01 0.00000000E+00
12  2 0.00000000E+00-2.04414217E-03-3.27809526E-01 0.00000000E+00 0.00000000E+00
12  3 4.21144400E-03 6.75402355E-01 0.00000000E+00 0.00000000E+00 0.00000000E+00
12  4 0.00000000E+00 0.00000000E+00 5.43078482E-05 8.70979318E-03 0.00000000E+00
12  5 0.00000000E+00-1.02335054E-03-1.64104532E-01 0.00000000E+00 0.00000000E+00
12  6-2.04426027E-03-3.27809610E-01 0.00000000E+00 0.00000000E+00 4.21188378E-03
12  7 6.75401983E-01 0.00000000E+00 0.00000000E+00 0.00000000E+00 0.00000000E+00
12  8 0.00000000E+00-5.43088660E-05-8.70985759E-03
13  1 0.00000000E+00 0.00000000E+00-1.68142823E-01 1.04852947E-03 0.00000000E+00
13  2 0.00000000E+00-3.40334351E-01 2.12222042E-03 0.00000000E+00 0.00000000E+00
13  3 6.77118331E-01-4.22249988E-03 0.00000000E+00 0.00000000E+00 0.00000000E+00
13  4 0.00000000E+00 0.00000000E+00 9.24757667E-03-5.76676040E-05 0.00000000E+00
13  5 0.00000000E+00-1.68142227E-01 1.04846094E-03 0.00000000E+00 0.00000000E+00
13  6-3.40335260E-01 2.12214973E-03 0.00000000E+00 0.00000000E+00 6.77120957E-01
13  7-4.22218996E-03 0.00000000E+00 0.00000000E+00 0.00000000E+00 0.00000000E+00
13  8 0.00000000E+00-9.24766670E-03 5.76694256E-05
14  1 0.00000000E+00 0.00000000E+00 1.03277362E-03 1.65564492E-01 0.00000000E+00
14  2 0.00000000E+00 2.28038768E-03 3.65569483E-01 0.00000000E+00 0.00000000E+00
14  3-1.04691800E-02-1.67841079E+00 0.00000000E+00 0.00000000E+00 0.00000000E+00
14  4 0.00000000E+00 0.00000000E+00-6.40217921E-05-1.02632852E-02 0.00000000E+00
14  5 0.00000000E+00-1.03270876E-03-1.65564844E-01 0.00000000E+00 0.00000000E+00
14  6-2.28031816E-03-3.65570040E-01 0.00000000E+00 0.00000000E+00 1.04690519E-02
14  7 1.67841120E+00 0.00000000E+00 0.00000000E+00 0.00000000E+00 0.00000000E+00
14  8 0.00000000E+00-6.40133300E-05-1.02631730E-02
15  1 0.00000000E+00 0.00000000E+00-1.78886724E-01 1.11571250E-03 0.00000000E+00
15  2 0.00000000E+00-3.86828585E-01 2.41266564E-03 0.00000000E+00 0.00000000E+00
15  3 1.67663029E+00-1.04578953E-02 0.00000000E+00 0.00000000E+00 0.00000000E+00
15  4 0.00000000E+00 0.00000000E+00 9.63733847E-03-6.01107432E-05 0.00000000E+00
15  5 0.00000000E+00 1.78886749E-01-1.11579036E-03 0.00000000E+00 0.00000000E+00
15  6 3.86828738E-01-2.41275760E-03 0.00000000E+00 0.00000000E+00-1.67662958E+00
15  7 1.04580682E-02 0.00000000E+00 0.00000000E+00 0.00000000E+00 0.00000000E+00
15  8 0.00000000E+00 9.63721024E-03-6.01173172E-05
16  1 3.75204024E-02 1.18309024E-02 0.00000000E+00 0.00000000E+00 4.88132078E-02
16  2-6.47713593E-01 0.00000000E+00 0.00000000E+00 1.74644925E-01 2.37990059E-01
16  3 0.00000000E+00 0.00000000E+00-1.16558380E+00 4.82048088E-02 4.95870190E-02
16  4 2.36731529E-02 9.94806386E-06 0.00000000E+00 0.00000000E+00 3.75480684E-02
16  5 1.18422247E-02 0.00000000E+00 0.00000000E+00-4.88613282E-02-6.48193929E-01
16  6 0.00000000E+00 0.00000000E+00-1.74705343E-01 2.41758678E-01 0.00000000E+00
16  7 0.00000000E+00 1.16694073E+00 4.82361526E-02 4.96176905E-02 2.37055663E-02
16  8 9.94366353E-06 0.00000000E+00 0.00000000E+00
17  1 6.73563291E-02-1.34302290E-01 0.00000000E+00 0.00000000E+00 5.38668382E-01
17  2-7.68841405E-01 0.00000000E+00 0.00000000E+00 8.45910695E-01 3.74589121E+00
17  3 0.00000000E+00 0.00000000E+00-1.79201160E+00 9.64389002E-03 4.88798548E-03
17  4 1.80244344E-02-3.42370519E-05 0.00000000E+00 0.00000000E+00-6.73543508E-02
17  5 1.34288592E-01 0.00000000E+00 0.00000000E+00 5.38669927E-01 7.68807968E-01
17  6 0.00000000E+00 0.00000000E+00 8.45889635E-01-3.74585883E+00 0.00000000E+00
17  7 0.00000000E+00-1.79189608E+00-9.65162327E-03-4.89564360E-03-1.80324331E-02
17  8 3.42236792E-05 0.00000000E+00 0.00000000E+00
18  1 6.03402662E-02 5.89529233E-02 0.00000000E+00 0.00000000E+00-8.83165569E-02
18  2-1.29563030E+00 0.00000000E+00 0.00000000E+00-1.52931330E-01 1.49400207E+01
18  3 0.00000000E+00 0.00000000E+00-5.42510479E+00 7.85321728E-02 7.86080545E-02
18  4 6.36898811E-02 4.10982715E-07 0.00000000E+00 0.00000000E+00-6.03430146E-02
18  5-5.90129894E-02 0.00000000E+00 0.00000000E+00-8.83045237E-02 1.29566033E+00
18  6 0.00000000E+00 0.00000000E+00-1.52979391E-01-1.49399719E+01 0.00000000E+00
18  7 0.00000000E+00-5.42485860E+00-7.85778140E-02-7.86536844E-02-6.37303234E-02
18  8-5.46501367E-07 0.00000000E+00 0.00000000E+00
19  1 1.77970293E-02-1.19049980E-01 0.00000000E+00 0.00000000E+00-5.92347345E-01
19  2-9.08499867E-01 0.00000000E+00 0.00000000E+00 2.15342258E+00-5.14914028E-01
19  3 0.00000000E+00 0.00000000E+00-3.36412870E-01-5.08867246E-03-8.22643236E-03
19  4-2.47174292E-01-2.25107806E-05 0.00000000E+00 0.00000000E+00-1.77955437E-02
19  5 1.19057552E-01 0.00000000E+00 0.00000000E+00-5.92364789E-01 9.08468614E-01
19  6 0.00000000E+00 0.00000000E+00 2.15345128E+00 5.14925287E-01 0.00000000E+00
19  7 0.00000000E+00-3.36436268E-01 5.09854044E-03 8.23663318E-03 2.47177006E-01
19  8 2.25918649E-05 0.00000000E+00 0.00000000E+00
20  1 0.00000000E+00 0.00000000E+00-4.36593444E-03-7.00641512E-01 0.00000000E+00
20  2 0.00000000E+00 5.60623963E-03 8.99686217E-01 0.00000000E+00 0.00000000E+00
20  3-2.37771305E-03-3.81574263E-01 0.00000000E+00 0.00000000E+00 0.00000000E+00
20  4 0.00000000E+00 0.00000000E+00-1.48412590E-05-2.38311159E-03 0.00000000E+00
20  5 0.00000000E+00-4.36601369E-03-7.00650183E-01 0.00000000E+00 0.00000000E+00
20  6 5.60638025E-03 8.99703025E-01 0.00000000E+00 0.00000000E+00-2.37778912E-03
20  7-3.81585357E-01 0.00000000E+00 0.00000000E+00 0.00000000E+00 0.00000000E+00
20  8 0.00000000E+00 1.48445983E-05 2.38282269E-03
21  1 0.00000000E+00 0.00000000E+00-7.05393291E-01 4.39564634E-03 0.00000000E+00
21  2 0.00000000E+00 8.95846303E-01-5.58251753E-03 0.00000000E+00 0.00000000E+00
21  3-3.77057576E-01 2.34970042E-03 0.00000000E+00 0.00000000E+00 0.00000000E+00
21  4 0.00000000E+00 0.00000000E+00 6.51699422E-04-4.06372665E-06 0.00000000E+00
21  5 0.00000000E+00-7.05403071E-01 4.39551504E-03 0.00000000E+00 0.00000000E+00
21  6 8.95864843E-01-5.58227272E-03 0.00000000E+00 0.00000000E+00-3.77069556E-01
21  7 2.34954615E-03 0.00000000E+00 0.00000000E+00 0.00000000E+00 0.00000000E+00
21  8 0.00000000E+00-6.52011660E-04 4.05790726E-06
22  1-1.53294937E-02-7.67297156E-01 0.00000000E+00 0.00000000E+00-4.98273858E-01
22  2 1.66634427E+00 0.00000000E+00 0.00000000E+00 7.74603198E-01-6.00496388E-01
22  3 0.00000000E+00 0.00000000E+00-3.74344631E-01-2.49391076E-01-2.56016096E-01
22  4-1.28439894E-01-4.76774838E-05 0.00000000E+00 0.00000000E+00-1.53389190E-02
22  5-7.67427168E-01 0.00000000E+00 0.00000000E+00 4.98250892E-01 1.66678557E+00
22  6 0.00000000E+00 0.00000000E+00-7.74398011E-01-6.00434218E-01 0.00000000E+00
22  7 0.00000000E+00 3.74378538E-01-2.49435628E-01-2.56060083E-01-1.28472193E-01
22  8-4.76750243E-05 0.00000000E+00 0.00000000E+00
23  1 0.00000000E+00 0.00000000E+00-4.11547509E-03-6.60505173E-01 0.00000000E+00
23  2 0.00000000E+00 7.96160927E-03 1.27779693E+00 0.00000000E+00 0.00000000E+00
23  3-5.38509729E-03-8.64286361E-01 0.00000000E+00 0.00000000E+00 0.00000000E+00
23  4 0.00000000E+00 0.00000000E+00 2.64201404E-04 4.24044045E-02 0.00000000E+00
23  5 0.00000000E+00 4.11521645E-03 6.60496115E-01 0.00000000E+00 0.00000000E+00
23  6-7.96128577E-03-1.27778510E+00 0.00000000E+00 0.00000000E+00 5.38496498E-03
23  7 8.64281127E-01 0.00000000E+00 0.00000000E+00 0.00000000E+00 0.00000000E+00
23  8 0.00000000E+00 2.64209884E-04 4.24047658E-02
24  1 0.00000000E+00 0.00000000E+00-6.65585488E-01 4.14700972E-03 0.00000000E+00
24  2 0.00000000E+00 1.27292744E+00-7.93113825E-03 0.00000000E+00 0.00000000E+00
24  3-8.53784316E-01 5.31961731E-03 0.00000000E+00 0.00000000E+00 0.00000000E+00
24  4 0.00000000E+00 0.00000000E+00 4.17596020E-02-2.60182558E-04 0.00000000E+00
24  5 0.00000000E+00 6.65575374E-01-4.14696851E-03 0.00000000E+00 0.00000000E+00
24  6-1.27291429E+00 7.93108360E-03 0.00000000E+00 0.00000000E+00 8.53778515E-01
24  7-5.31959013E-03 0.00000000E+00 0.00000000E+00 0.00000000E+00 0.00000000E+00
24  8 0.00000000E+00 4.17599326E-02-2.60189658E-04
25  1-5.03423611E-02-9.32961601E-01 0.00000000E+00 0.00000000E+00 3.44336471E-01
25  2 1.83911611E+00 0.00000000E+00 0.00000000E+00-5.58308603E-01-4.92109529E-01
25  3 0.00000000E+00 0.00000000E+00 5.63792685E-01-1.63771195E-01-1.44646535E-01
25  4-5.10361542E-01 1.37607626E-04 0.00000000E+00 0.00000000E+00-5.03520516E-02
25  5-9.33102880E-01 0.00000000E+00 0.00000000E+00-3.44335126E-01 1.83956525E+00
25  6 0.00000000E+00 0.00000000E+00 5.58437230E-01-4.92514852E-01 0.00000000E+00
25  7 0.00000000E+00-5.63916118E-01-1.63815260E-01-1.44689907E-01-5.10403458E-01
25  8 1.37621888E-04 0.00000000E+00 0.00000000E+00
26  1 0.00000000E+00 0.00000000E+00 5.71739232E-05 9.17691601E-03 0.00000000E+00
26  2 0.00000000E+00 1.10060680E-03 1.76649160E-01 0.00000000E+00 0.00000000E+00
26  3-5.20821957E-04-8.35926060E-02 0.00000000E+00 0.00000000E+00 0.00000000E+00
26  4 0.00000000E+00 0.00000000E+00 3.89869594E-03 6.25744731E-01 0.00000000E+00
26  5 0.00000000E+00 5.71718073E-05 9.17728016E-03 0.00000000E+00 0.00000000E+00
26  6 1.10060979E-03 1.76648660E-01 0.00000000E+00 0.00000000E+00-5.20812071E-04
26  7-8.35918164E-02 0.00000000E+00 0.00000000E+00 0.00000000E+00 0.00000000E+00
26  8 0.00000000E+00-3.89869961E-03-6.25744370E-01
27  1 0.00000000E+00 0.00000000E+00 1.29588803E-02-8.07435608E-05 0.00000000E+00
27  2 0.00000000E+00 1.73040880E-01-1.07813054E-03 0.00000000E+00 0.00000000E+00
27  3-8.18528344E-02 5.09980346E-04 0.00000000E+00 0.00000000E+00 0.00000000E+00
27  4 0.00000000E+00 0.00000000E+00 6.25714403E-01-3.89851191E-03 0.00000000E+00
27  5 0.00000000E+00 1.29592493E-02-8.07387643E-05 0.00000000E+00 0.00000000E+00
27  6 1.73040425E-01-1.07814570E-03 0.00000000E+00 0.00000000E+00-8.18520323E-02
27  7 5.09997679E-04 0.00000000E+00 0.00000000E+00 0.00000000E+00 0.00000000E+00
27  8 0.00000000E+00-6.25713932E-01 3.89850425E-03
28  1 7.64446993E-02 1.44982414E+00 0.00000000E+00 0.00000000E+00-8.25528319E-02
28  2-4.53666372E+00 0.00000000E+00 0.00000000E+00 1.36756610E+00 8.08494132E+00
28  3 0.00000000E+00 0.00000000E+00-2.81741110E+00 2.93543392E-01 2.68843613E-01
28  4 4.37156336E-01-1.78190879E-04 0.00000000E+00 0.00000000E+00-7.64493289E-02
28  5-1.44968142E+00 0.00000000E+00 0.00000000E+00-8.25716238E-02 4.53643573E+00
28  6 0.00000000E+00 0.00000000E+00 1.36759259E+00-8.08485115E+00 0.00000000E+00
28  7 0.00000000E+00-2.81738974E+00-2.93545433E-01-2.68860708E-01-4.37120356E-01
28  8 1.77308764E-04 0.00000000E+00 0.00000000E+00
29  1-7.11986418E-08 2.84944284E-07 0.00000000E+00 0.00000000E+00 5.86270936E-07
29  2-1.24905840E-06 0.00000000E+00 0.00000000E+00 4.23933883E-08 6.01940051E-06
29  3 0.00000000E+00 0.00000000E+00-1.82458105E-06 7.36621954E-03-7.36680586E-03
29  4 1.82824149E-07 6.80733170E-01 0.00000000E+00 0.00000000E+00-1.59747218E-07
29  5-1.43533235E-06 0.00000000E+00 0.00000000E+00-6.05252174E-07 4.16973512E-06
29  6 0.00000000E+00 0.00000000E+00 1.39942717E-06-6.58933605E-06 0.00000000E+00
29  7 0.00000000E+00-2.63931186E-06 7.36585041E-03-7.36712563E-03-2.27059150E-07
29  8 6.80732368E-01 0.00000000E+00 0.00000000E+00
30  1 3.49165982E-03 1.78641530E-02 0.00000000E+00 0.00000000E+00-1.88906164E-02
30  2-4.44367544E-02 0.00000000E+00 0.00000000E+00 2.13526590E-02 8.64903664E-03
30  3 0.00000000E+00 0.00000000E+00-1.25975887E-02-5.74883047E-01 6.03702417E-01
30  4 2.63320708E-04 8.50266943E-03 0.00000000E+00 0.00000000E+00 3.49080991E-03
30  5 1.78465437E-02 0.00000000E+00 0.00000000E+00 1.88894999E-02-4.43823901E-02
30  6 0.00000000E+00 0.00000000E+00-2.13366139E-02 8.54163127E-03 0.00000000E+00
30  7 0.00000000E+00 1.25598334E-02-5.74885502E-01 6.03698949E-01 2.57891955E-04
30  8 8.50266161E-03 0.00000000E+00 0.00000000E+00
31  1-6.18445144E-08-4.64432012E-07 0.00000000E+00 0.00000000E+00-3.25657540E-08
31  2 2.01520213E-06 0.00000000E+00 0.00000000E+00-7.00300363E-07-4.29798091E-06
31  3 0.00000000E+00 0.00000000E+00 1.55963513E-06-7.94572356E-03 7.94531564E-03
31  4 4.59476973E-09-7.36679857E-01 0.00000000E+00 0.00000000E+00 6.03632649E-08
31  5 4.82085499E-07 0.00000000E+00 0.00000000E+00-1.91743430E-08-2.02742817E-06
31  6 0.00000000E+00 0.00000000E+00-7.12561690E-07 4.30049751E-06 0.00000000E+00
31  7 0.00000000E+00 1.56810613E-06 7.94573236E-03-7.94532252E-03-9.08095708E-09
31  8 7.36680597E-01 0.00000000E+00 0.00000000E+00
32  1-5.75487641E-03-3.15617777E-02 0.00000000E+00 0.00000000E+00-3.42995404E-04
32  2 1.53382571E-01 0.00000000E+00 0.00000000E+00-6.11763955E-02-2.09714246E-01
32  3 0.00000000E+00 0.00000000E+00 7.56642315E-02 6.20349536E-01-6.55244429E-01
32  4-1.43903618E-03-9.17200939E-03 0.00000000E+00 0.00000000E+00 5.75513163E-03
32  5 3.15600595E-02 0.00000000E+00 0.00000000E+00-3.42187192E-04-1.53380874E-01
32  6 0.00000000E+00 0.00000000E+00-6.11773728E-02 2.09713080E-01 0.00000000E+00
32  7 0.00000000E+00 7.56641331E-02-6.20348984E-01 6.55246174E-01 1.43851362E-03
32  8 9.17201593E-03 0.00000000E+00 0.00000000E+00
33  1 1.49604340E-03-5.07873553E-01 0.00000000E+00 0.00000000E+00 4.63199163E-01
33  2 4.69698107E-01 0.00000000E+00 0.00000000E+00-4.22491473E-01-4.83754634E-02
33  3 0.00000000E+00 0.00000000E+00 1.31159282E-01-4.20585630E-01-3.96337768E-01
33  4 5.46374731E-01 1.74485273E-04 0.00000000E+00 0.00000000E+00 1.49602230E-03
33  5-5.07852675E-01 0.00000000E+00 0.00000000E+00-4.63195446E-01 4.69646323E-01
33  6 0.00000000E+00 0.00000000E+00 4.22481498E-01-4.81623650E-02 0.00000000E+00
33  7 0.00000000E+00-1.31081642E-01-4.20589235E-01-3.96340188E-01 5.46385588E-01
33  8 1.74502619E-04 0.00000000E+00 0.00000000E+00
34  1 0.00000000E+00 0.00000000E+00 4.94846353E-04 7.94141968E-02 0.00000000E+00
34  2 0.00000000E+00-3.10187460E-03-4.97803057E-01 0.00000000E+00 0.00000000E+00
34  3 9.38806758E-04 1.50664379E-01 0.00000000E+00 0.00000000E+00 0.00000000E+00
34  4 0.00000000E+00 0.00000000E+00 5.73546142E-03 9.20453975E-01 0.00000000E+00
34  5 0.00000000E+00-4.94840729E-04-7.94140113E-02 0.00000000E+00 0.00000000E+00
34  6 3.10187058E-03 4.97802701E-01 0.00000000E+00 0.00000000E+00-9.38806626E-04
34  7-1.50664178E-01 0.00000000E+00 0.00000000E+00 0.00000000E+00 0.00000000E+00
34  8 0.00000000E+00 5.73545947E-03 9.20454206E-01
35  1 0.00000000E+00 0.00000000E+00 7.90882230E-02-4.92805260E-04 0.00000000E+00
35  2 0.00000000E+00-4.96800912E-01 3.09562965E-03 0.00000000E+00 0.00000000E+00
35  3 1.50202773E-01-9.35940121E-04 0.00000000E+00 0.00000000E+00 0.00000000E+00
35  4 0.00000000E+00 0.00000000E+00 9.20487061E-01-5.73566411E-03 0.00000000E+00
35  5 0.00000000E+00-7.90880171E-02 4.92809389E-04 0.00000000E+00 0.00000000E+00
35  6 4.96800503E-01-3.09563171E-03 0.00000000E+00 0.00000000E+00-1.50202541E-01
35  7 9.35939556E-04 0.00000000E+00 0.00000000E+00 0.00000000E+00 0.00000000E+00
35  8 0.00000000E+00 9.20487368E-01-5.73566976E-03
36  1 7.81819746E-02 7.11485365E-01 0.00000000E+00 0.00000000E+00 2.59990746E-01
36  2-3.66101265E+00 0.00000000E+00 0.00000000E+00 2.46213799E+00 2.90364875E+00
36  3 0.00000000E+00 0.00000000E+00-1.25277479E+00 6.70128315E-01 6.58175739E-01
36  4-1.31578734E+00-8.60623478E-05 0.00000000E+00 0.00000000E+00-7.81913877E-02
36  5-7.11464325E-01 0.00000000E+00 0.00000000E+00 2.59991671E-01 3.66105184E+00
36  6 0.00000000E+00 0.00000000E+00 2.46214040E+00-2.90364979E+00 0.00000000E+00
36  7 0.00000000E+00-1.25277581E+00-6.70157202E-01-6.58204407E-01 1.31576168E+00
36  8 8.60176585E-05 0.00000000E+00 0.00000000E+00
37  1-3.54437068E-01 6.47892114E-02 0.00000000E+00 0.00000000E+00 1.79770468E-02
37  2 2.73013555E+00 0.00000000E+00 0.00000000E+00-7.63496376E-02-5.15032316E-01
37  3 0.00000000E+00 0.00000000E+00 1.27548472E-01-1.22124303E+00-1.21653594E+00
37  4-9.93855417E-01 3.38703256E-05 0.00000000E+00 0.00000000E+00-3.54484104E-01
37  5 6.48138991E-02 0.00000000E+00 0.00000000E+00-1.80014952E-02 2.73052849E+00
37  6 0.00000000E+00 0.00000000E+00 7.63586730E-02-5.14897475E-01 0.00000000E+00
37  7 0.00000000E+00-1.27457367E-01-1.22139726E+00-1.21668933E+00-9.94055182E-01
37  8 3.38732278E-05 0.00000000E+00 0.00000000E+00
38  1 4.07069529E-01 3.36081090E-01 0.00000000E+00 0.00000000E+00-1.25585853E-01
38  2-5.18001781E+00 0.00000000E+00 0.00000000E+00 8.72654584E-01 5.87837155E+00
38  3 0.00000000E+00 0.00000000E+00-1.89713104E+00 1.39623968E+00 1.39096169E+00
38  4 1.34678800E+00-3.79591753E-05 0.00000000E+00 0.00000000E+00-4.07021574E-01
38  5-3.36068829E-01 0.00000000E+00 0.00000000E+00-1.25584039E-01 5.17960759E+00
38  6 0.00000000E+00 0.00000000E+00 8.72647466E-01-5.87828568E+00 0.00000000E+00
38  7 0.00000000E+00-1.89710798E+00-1.39607116E+00-1.39079367E+00-1.34665090E+00
38  8 3.79736351E-05 0.00000000E+00 0.00000000E+00
 1  1 7.06151953E-01 1.81873301E-02 0.00000000E+00 0.00000000E+00-9.35064214E-04
 1  2 7.60143983E-03 0.00000000E+00 0.00000000E+00 3.99730184E-04-1.27433352E-03
 1  3 0.00000000E+00 0.00000000E+00-1.75065288E-06-5.48590561E-03-5.60736831E-03
 1  4-5.47155270E-03-8.71625217E-07 0.00000000E+00 0.00000000E+00 6.98043137E-01
 1  5 1.79856727E-02 0.00000000E+00 0.00000000E+00 9.29824523E-04 7.48516542E-03
 1  6 0.00000000E+00 0.00000000E+00-4.03556179E-04-1.18524185E-03 0.00000000E+00
 1  7 0.00000000E+00 2.60647062E-05-5.42015126E-03-5.53986751E-03-5.40568896E-03
 1  8-8.58838181E-07 0.00000000E+00 0.00000000E+00
 2  1-6.97977750E-01-1.73069148E-02 0.00000000E+00 0.00000000E+00 4.45264493E-04
 2  2-1.03178577E-02 0.00000000E+00 0.00000000E+00 3.97393740E-04 8.61835240E-03
 2  3 0.00000000E+00 0.00000000E+00-2.43979350E-03 5.71072672E-03 5.86129623E-03
 2  4 5.70511876E-03 1.08073644E-06 0.00000000E+00 0.00000000E+00 7.06087219E-01
 2  5 1.75159754E-02 0.00000000E+00 0.00000000E+00 4.56093179E-04 1.04042507E-02
 2  6 0.00000000E+00 0.00000000E+00 3.92706120E-04-8.63238047E-03 0.00000000E+00
 2  7 0.00000000E+00-2.43958872E-03-5.77343963E-03-5.92540276E-03-5.76777417E-03
 2  8-1.09093985E-06 0.00000000E+00 0.00000000E+00
 3  1-1.52170637E-01 3.39168543E-01 0.00000000E+00 0.00000000E+00-1.45760468E-01
 3  2 2.82006913E-01 0.00000000E+00 0.00000000E+00-4.88030657E-02 1.00429247E-03
 3  3 0.00000000E+00 0.00000000E+00 1.21297684E-02-8.77351110E-03-9.97436484E-03
 3  4 2.84739226E-02-8.62521800E-06 0.00000000E+00 0.00000000E+00-1.52170030E-01
 3  5 3.39171730E-01 0.00000000E+00 0.00000000E+00 1.45761035E-01 2.81987677E-01
 3  6 0.00000000E+00 0.00000000E+00 4.88026768E-02 1.18337722E-03 0.00000000E+00
 3  7 0.00000000E+00-1.20610840E-02-8.77196529E-03-9.97284737E-03 2.84761237E-02
 3  8-8.60749575E-06 0.00000000E+00 0.00000000E+00
 4  1 1.66213250E-01-3.72543715E-01 0.00000000E+00 0.00000000E+00-1.04278651E-01
 4  2-4.86896436E-01 0.00000000E+00 0.00000000E+00-2.37758853E-02 1.18332824E-01
 4  3 0.00000000E+00 0.00000000E+00-6.72799667E-02 3.00535926E-03 6.98131281E-03
 4  4 1.01450125E-02 2.85904886E-05 0.00000000E+00 0.00000000E+00-1.66213708E-01
 4  5 3.72541837E-01 0.00000000E+00 0.00000000E+00-1.04278371E-01 4.86904573E-01
 4  6 0.00000000E+00 0.00000000E+00-2.37759366E-02-1.18336392E-01 0.00000000E+00
 4  7 0.00000000E+00-6.72810774E-02-3.00704140E-03-6.98302175E-03-1.01466163E-02
 4  8-2.86062723E-05 0.00000000E+00 0.00000000E+00
 5  1 4.86023880E-02-1.01877915E-01 0.00000000E+00 0.00000000E+00-4.49772274E-01
 5  2-1.84402247E-01 0.00000000E+00 0.00000000E+00-2.34600794E-01-9.22206242E-02
 5  3 0.00000000E+00 0.00000000E+00-5.21208796E-02-7.32690815E-03-5.00064853E-03
 5  4 2.62343626E-02 1.67376505E-05 0.00000000E+00 0.00000000E+00 4.86036081E-02
 5  5-1.01872688E-01 0.00000000E+00 0.00000000E+00 4.49773940E-01-1.84433335E-01
 5  6 0.00000000E+00 0.00000000E+00 2.34594724E-01-9.20533624E-02 0.00000000E+00
 5  7 0.00000000E+00 5.21847214E-02-7.32325029E-03-4.99698633E-03 2.62371166E-02
 5  8 1.67486286E-05 0.00000000E+00 0.00000000E+00
 6  1 0.00000000E+00 0.00000000E+00 4.37166830E-01-2.72212927E-03 0.00000000E+00
 6  2 0.00000000E+00 2.54637238E-01-1.58558885E-03 0.00000000E+00 0.00000000E+00
 6  3 7.11497358E-02-4.43044601E-04 0.00000000E+00 0.00000000E+00 0.00000000E+00
 6  4 0.00000000E+00 0.00000000E+00-2.43625995E-02 1.51677425E-04 0.00000000E+00
 6  5 0.00000000E+00 4.37165825E-01-2.72215964E-03 0.00000000E+00 0.00000000E+00
 6  6 2.54636545E-01-1.58567683E-03 0.00000000E+00 0.00000000E+00 7.11509972E-02
 6  7-4.42424158E-04 0.00000000E+00 0.00000000E+00 0.00000000E+00 0.00000000E+00
 6  8 0.00000000E+00 2.43625863E-02-1.51667451E-04
 7  1 0.00000000E+00 0.00000000E+00 2.60572499E-03 4.18501917E-01 0.00000000E+00
 7  2 0.00000000E+00 1.62022797E-03 2.60219442E-01 0.00000000E+00 0.00000000E+00
 7  3 5.22586142E-04 8.39551737E-02 0.00000000E+00 0.00000000E+00 0.00000000E+00
 7  4 0.00000000E+00 0.00000000E+00-1.78726765E-04-2.87002831E-02 0.00000000E+00
 7  5 0.00000000E+00 2.60569613E-03 4.18500314E-01 0.00000000E+00 0.00000000E+00
 7  6 1.62009014E-03 2.60218327E-01 0.00000000E+00 0.00000000E+00 5.23434078E-04
 7  7 8.39563885E-02 0.00000000E+00 0.00000000E+00 0.00000000E+00 0.00000000E+00
 7  8 0.00000000E+00 1.78731891E-04 2.87002639E-02