!    acetamide...CH3(C=O)NH2... full CMIRS 1.0 model is used.
!    Note that this runs the DFT code, using HF exchange/no correlation = RHF.
!    Test case provided by Dan Chipman in October 2013.
!
!    FINAL R-HFX E= -208.0062076533, 15 iters, dipole= 5.160728 Debye
!
!         SS(V)PE results are
!    EGAS = INTERNAL ENERGY OF SOLUTE IN GAS PHASE       -207.98897518
!    EINT = INTERNAL ENERGY OF SOLUTE IN SOLUTION        -207.98570938
!    DINT = EINT-EGAS PORTION OF G OF SOLVATION             0.00326580
!    SS(V)PE  PORTION OF G OF SOLVATION=ERXNFIELD/2        -0.02049827
!    CAVITY SURFACE AREA                =     351.83295
!    CAVITY VOLUME                      =     545.25819
!    TOTAL SURFACE  POLARIZATION CHARGE =   -0.01036952
!    CHARGE PENETRATION FROM GAUSS LAW  =   -0.15498916
!
!         CMIRS1.0 results (SS(V)PE plus DEFESR corrections) are
!    EINT + SS(V)PE  + DEFESR G IN SOLUTION              -208.01351681
!    DINT + SS(V)PE  + DEFESR G OF SOLVATION               -0.02454163 
!
!    This run takes 585 seconds on 2.66 GHz Cloverton (25 Oct 2013)
!
 $contrl scftyp=rhf dfttyp=hfx  runtyp=energy $end
 $system mwords=6 $end
 $basis  gbasis=n31  ngauss=6  ndfunc=1  npfunc=1  $end
 $guess  guess=moread  norb=16  $end
 $scf    nconv=8  $end
 $dft    method=grid nrad=96 nleb=1202 nrad0=96 nleb0=1202 $end
 $svp   nvlpl=0 rhoiso=0.001 dielst=78.304 nptleb=1202 idef=1
        egas=-207.9889751769 $end
 $data
CH3CONH2 cgz geometry RHF/6-31G(d,p)
C1
C          6.0         1.361261   -0.309588   -0.000262
C          6.0        -0.079357    0.152773   -0.005665
H          1.0         1.602076   -0.751515    0.962042
H          1.0         1.537200   -1.056768   -0.767127
H          1.0         2.002415    0.542830   -0.168045
O          8.0        -0.387955    1.310027    0.002284
N          7.0        -1.002151   -0.840834   -0.011928
H          1.0        -1.961646   -0.589397    0.038911
H          1.0        -0.752774   -1.798630    0.035006
 $end
gas phase vectors, E(RHF)=     -207.9889751769
 $VEC   
 1  1 1.18951669E-06 1.74015995E-05 1.63457408E-05-1.97532149E-05-1.11068342E-06
 1  2-2.46070142E-04 2.04100332E-04 2.77801792E-05-7.83849447E-06 1.50517436E-05
 1  3-3.49464473E-05-1.85244606E-05 6.20521678E-05-2.74096373E-07-1.12393968E-07
 1  4-6.74591137E-06 4.16509953E-04 2.82679633E-05-1.50027050E-04-1.55624494E-06
 1  5-3.89245485E-04 3.89812684E-04-7.59634693E-04-3.46296083E-07-6.92552154E-05
 1  6-8.50505204E-04-2.52426884E-05 2.37539688E-04 3.11133384E-06-6.54247608E-06
 1  7 1.96759010E-05-2.36159655E-05 5.29772396E-06-6.88306669E-07-6.64072228E-06
 1  8 1.86235655E-05-2.67206711E-05 1.45555367E-05-1.27490053E-07 8.43103624E-06
 1  9 9.30179236E-07-7.80520046E-05-3.30710118E-06 2.18785068E-05-5.34003712E-06
 1 10 9.94654364E-01 2.10507434E-02 3.94870826E-04-1.59414344E-03-9.24341291E-06
 1 11 4.94767183E-03 1.44441464E-05-1.15106417E-04-2.92537994E-06-3.95894262E-03
 1 12-3.60671072E-03-4.20021046E-03-1.22165671E-04-3.83666557E-06 4.11900253E-06
 1 13-3.08393668E-06-2.45692785E-05-1.13150084E-05-2.28827687E-05 2.39499180E-07
 1 14-8.95062529E-06-1.33218723E-04 1.33017708E-04 1.03646119E-06 1.33801792E-04
 1 15-1.14130628E-04-4.05996493E-05 5.01598811E-06-3.10346508E-06 2.32336818E-06
 1 16-7.98015217E-05-7.02862383E-05-4.73369190E-05 2.64268423E-05 5.27558526E-06
 1 17 6.76031528E-05 2.27258894E-05-4.04191898E-05 1.77751365E-05-3.05944336E-06
 2  1-1.29320165E-05-6.04825200E-05 3.65861290E-05 1.05748978E-05-4.61290221E-06
 2  2 3.26133118E-04-6.07872413E-05 2.65829776E-04 2.74388149E-05-4.62882127E-05
 2  3 1.08721940E-05-4.16760382E-05-4.05284770E-05 6.38833545E-07-5.10796151E-07
 2  4 1.97816535E-05 1.89457980E-04-1.29342469E-04-1.59431514E-04-2.51670427E-07
 2  5 1.21657688E-03-1.02792536E-03-1.08207082E-03 1.41360065E-05-9.81113715E-05
 2  6-1.30272500E-04-6.43720725E-05-2.66747634E-05-3.73634915E-06-1.06637856E-06
 2  7-4.98533614E-06-4.08676552E-05 1.79987039E-05-1.10444442E-05-8.09429134E-06
 2  8-3.93837923E-06 1.75473275E-05 2.08992341E-05-7.84957900E-06 6.71423462E-06
 2  9-2.66302033E-05-8.37304284E-06-2.29518546E-05-2.89505350E-06-3.12967569E-06
 2 10-9.64805274E-06-8.66888621E-05-8.64135115E-06 1.55665223E-05 5.63013371E-07
 2 11 4.18453051E-04 3.25316212E-04-2.31624614E-05-8.35664595E-06-5.02889469E-06
 2 12-4.39041760E-05-8.79875332E-05-6.05827205E-05-2.24304569E-06 1.73384443E-06
 2 13 9.94900199E-01 2.53073837E-02 4.10389153E-05-6.52035377E-05 1.42029901E-04
 2 14-2.39236885E-03-5.61325728E-04-5.85780277E-04-7.73993864E-05-3.47528870E-03
 2 15-3.43388292E-03-3.48858141E-03-5.90926945E-05-4.82853668E-06-5.49928431E-06
 2 16 1.88419995E-04 2.19008355E-04-1.14490755E-04 5.72634639E-05 8.26565523E-06
 2 17 1.32590591E-04 2.47120433E-04 8.05890632E-05-1.53119823E-04 1.02352633E-05
 3  1 2.58393996E-03 9.15617115E-05-2.42308531E-06-2.48472085E-05 1.25049894E-05
 3  2 4.82874072E-03-2.58309758E-03 3.02130353E-04-1.36987208E-04-4.59575993E-04
 3  3-3.10522580E-04-1.94571046E-04 1.26565633E-04 1.18347616E-06 6.08054546E-06
 3  4 9.95793489E-01 2.65877131E-02-4.80832055E-04-6.74755369E-05-1.47500795E-06
 3  5-7.17623391E-03-4.04294448E-03 4.29225643E-03 2.77334621E-05-1.46199343E-03
 3  6-6.92492244E-04-2.43011997E-03-4.70610355E-05 4.73897135E-06 1.02014142E-05
 3  7-1.78742169E-04 3.93936080E-04-7.85493739E-05 6.72797924E-05-5.74730620E-05
 3  8-1.85077259E-04 1.78784325E-04-7.08208119E-05 7.39323301E-05 3.94124101E-05
 3  9-8.06340882E-05 2.06208285E-04-2.61891694E-05-6.03769807E-05 2.49922452E-05
 3 10-2.80543203E-04 8.79396567E-04 5.76559798E-05-3.78778300E-04-2.60166150E-06
 3 11-4.79502142E-03 1.83194277E-05 2.11676123E-03 1.95305742E-05 3.28875349E-04
 3 12 2.36359637E-04 5.14648716E-04-9.29446021E-05 1.96603280E-06-4.49020208E-06
 3 13-3.35121736E-04 1.26616944E-04-8.35529940E-05 4.52712242E-05-1.01472905E-05
 3 14 1.43793416E-03 1.18699076E-03-1.65003435E-03-6.34377858E-06-6.17286834E-04
 3 15-6.50641120E-04 2.90233600E-05-1.93813085E-04 1.74204887E-05-9.71038187E-06
 3 16 4.38410443E-04 4.35173012E-04 2.65182042E-04 4.74048587E-05-2.04542493E-05
 3 17-1.65727307E-04-6.89967558E-04 7.01962596E-05 2.11491494E-04 5.25940793E-07
 4  1 9.95741172E-01 2.86600980E-02-1.38912132E-04-1.69581563E-04 5.19883891E-05
 4  2-1.59542073E-02 1.23324234E-03-4.17041215E-04-1.05428296E-04-1.78043536E-03
 4  3-1.65742228E-03-1.61172195E-03 6.08965298E-05-4.44147632E-07 6.34114760E-06
 4  4-2.92776715E-03 1.59627859E-05 7.25209571E-05-4.40457979E-05 3.04536342E-06
 4  5 3.09605465E-03 3.06563347E-03 8.47652968E-05-7.52795430E-06-5.62992392E-04
 4  6-2.96199251E-04-1.38354354E-04 8.86472205E-05 1.92708492E-06-2.36454535E-06
 4  7 6.61732920E-05 2.59382578E-03-9.99018289E-06-7.12152273E-05 2.15359498E-04
 4  8 6.06052455E-05 2.47482876E-03-2.65685360E-05-1.42360687E-04-1.75057032E-04
 4  9 1.23647826E-04 2.44728217E-03 7.45897920E-05 1.35715012E-04-2.06280296E-05
 4 10-1.48817563E-05-1.35066338E-04-1.75290780E-05 1.00130042E-05-5.39332402E-06
 4 11 2.50760897E-04-3.75850990E-04-3.01894992E-04 2.20914991E-05-4.47964062E-05
 4 12 8.17759667E-05-1.59094930E-04 1.86258145E-05 8.36858886E-06-1.19358836E-06
 4 13-4.29562613E-05-3.00028449E-04-1.04590125E-04-2.24687816E-05-2.09861811E-06
 4 14 1.35406924E-03 7.99821218E-04 6.43603470E-04 1.23259765E-05 6.51521340E-06
 4 15 2.61724775E-05-2.10192591E-04 5.51816087E-05 1.14642960E-05-2.03317582E-06
 4 16 1.64079306E-05 3.76633075E-04 1.37725170E-05-1.10090822E-05-4.37562279E-07
 4 17-1.19447260E-04 2.15783114E-04-2.88983456E-05-1.27522357E-05 2.81322015E-06
 5  1-1.90929524E-02 3.72024958E-02-2.60304445E-02 1.20466455E-02 2.72805165E-06
 5  2-6.33796566E-04 7.95553678E-03 5.11604192E-03-8.86149407E-05 6.42799059E-03
 5  3 3.30697712E-04-7.82747721E-04-4.16048610E-03 1.22479530E-05-6.40501719E-05
 5  4-1.27564031E-01 2.46388955E-01-6.22290049E-02 1.40418101E-01 1.28066640E-03
 5  5 6.56546706E-02 2.60986630E-02-2.96677149E-02 1.24359085E-04-1.15743250E-02
 5  6 2.68332933E-02-2.01048137E-02-1.00342600E-02-7.67618370E-05 3.23628444E-04
 5  7 7.22064454E-03 6.69170488E-04-2.19620905E-04 7.69783132E-05-6.18603878E-04
 5  8 7.07923037E-03 5.82758342E-04-9.17421275E-05 2.08561315E-04 5.47729112E-04
 5  9 9.05225366E-03-1.16652676E-03-1.23430021E-03-5.62173932E-04 1.59682990E-04
 5 10-1.81463220E-01 3.93574642E-01 3.17805515E-02-1.32299624E-01-7.87809940E-04
 5 11 3.70366121E-01 8.87339220E-03-5.27065221E-02-3.40191289E-04-2.85510293E-03
 5 12 1.60993981E-02-3.26914102E-03-5.08383592E-03-3.72475777E-05 1.38044114E-04
 5 13-5.35241904E-02 1.11757406E-01 2.34231916E-02 3.80134057E-02 1.56252615E-03
 5 14 9.04878918E-02 2.63744263E-03 2.06994961E-02 6.83988957E-04 2.19620430E-03
 5 15 6.54666642E-03-2.34712770E-03 6.23036004E-03 3.34893821E-05 1.21060564E-04
 5 16 2.77138087E-02 1.09234464E-03 4.54156503E-03-1.44997320E-04-1.61024433E-04
 5 17 2.36050656E-02 2.24050101E-03-4.27745398E-04 2.92445596E-03-1.17818979E-04
 6  1-1.91944379E-02 3.75580367E-02-2.17432118E-02-8.30325588E-03-1.78224479E-05
 6  2 1.50552859E-02 5.04501717E-04-1.00040664E-02-3.46520051E-04 3.53252736E-03
 6  3-1.73772703E-03-3.56045486E-04 5.92350392E-04 6.23428253E-05 2.01934545E-04
 6  4-3.94139021E-02 8.18889199E-02-5.78107520E-02-1.94411349E-01-2.90677065E-04
 6  5 1.38906707E-02 2.49923863E-02 5.48450488E-03 2.00720531E-04 1.33642634E-02
 6  6-2.86674183E-03-3.62703450E-03 2.29007956E-02 1.66393144E-05-2.27426724E-04
 6  7 1.14143504E-02 1.75305804E-03-9.01582764E-04 5.18337021E-04-9.34852007E-04
 6  8 1.29680202E-02 1.59370167E-03-1.00222956E-03 9.25352702E-04 8.21229538E-04
 6  9 4.76006464E-03-9.11821145E-04 1.15808317E-04-6.45949359E-04 1.01502017E-04
 6 10 8.08046839E-02-1.76198250E-01-2.51624623E-02 2.51372011E-02 3.33579347E-04
 6 11-1.77926439E-01-1.45447868E-02 7.09944268E-03 2.74542911E-05-1.36309970E-03
 6 12-2.50568757E-03 1.79643829E-03 3.87982087E-03 4.69036086E-05-5.18615693E-05
 6 13-1.86785943E-01 3.81308575E-01 3.00325627E-02 1.52680004E-02 6.67353466E-03
 6 14 4.08295506E-01 2.22833938E-02 1.46306535E-02 3.32830975E-03 5.04792734E-03
 6 15 3.07874032E-03-1.02255340E-02 4.19720455E-03-1.34215570E-04-2.00263225E-04
 6 16 1.15034113E-01 9.44040265E-03 1.53561459E-02-4.28172438E-03-6.44931367E-04
 6 17 1.25248224E-01 1.20011859E-02-3.91811399E-03 1.66687670E-02-6.67256572E-04
 7  1-1.80456670E-01 3.37106260E-01-3.60671034E-02 6.75538270E-03 1.27587724E-03
 7  2 3.21429476E-01-1.07863257E-02-8.62979494E-04 8.06680627E-04 5.09535323E-03
 7  3-1.35540961E-03-1.54780625E-03-2.33888737E-03-6.35891967E-07-3.20584005E-05
 7  4-5.61428352E-02 1.18143183E-01 1.66235614E-01-7.26008522E-02-5.43467592E-07
 7  5 7.87179118E-02 1.91588510E-02-3.41559624E-02 5.50219208E-04 1.52503684E-02
 7  6-6.13331479E-03-4.11689395E-03-7.87371421E-03 1.57408279E-04-2.85014954E-05
 7  7 1.20063402E-01 3.07773007E-02-3.17326680E-03 4.75657328E-03-1.02565300E-02
 7  8 1.19589951E-01 3.09253532E-02-2.38089788E-03 7.93665681E-03 8.23949445E-03
 7  9 1.15994549E-01 2.88010984E-02-7.10946967E-03-9.12937356E-03 1.75000120E-03
 7 10 3.59193767E-02-8.24997898E-02 4.15354197E-02-5.77343006E-06 2.06277467E-04
 7 11-7.97444425E-02 2.00143437E-02-3.84526718E-03-3.18754870E-04 4.84539046E-04
 7 12-2.90874071E-03-2.74745295E-04-4.23030356E-03-2.85745902E-05 1.23490453E-06
 7 13 4.55166171E-02-9.24219139E-02 7.19441756E-02 1.17992946E-02-2.86868590E-03
 7 14-1.30360917E-01 1.81582255E-02 1.67881961E-03-1.76256166E-03 1.98418693E-03
 7 15-1.68741281E-03 2.74947069E-03 2.92703195E-03 4.16140243E-04 8.34819407E-05
 7 16-6.61890452E-02-1.60505977E-02-7.00732388E-03 2.38854349E-03 4.23881087E-04
 7 17-3.10895251E-02-5.93803057E-03 2.53613006E-03-3.43132629E-03 1.40763874E-04
 8  1 5.33057362E-02-9.58595237E-02-1.26661117E-01 8.58877751E-03-1.16862982E-03
 8  2-1.45913191E-01-2.15957568E-02 3.48293693E-03-2.71603168E-03 1.23300754E-02
 8  3-5.12451139E-03-3.43595925E-03-4.76006757E-03 3.15959858E-04 4.86836286E-04
 8  4-1.14229577E-01 2.51640672E-01-1.04151891E-01-1.48308919E-01-3.10810582E-03
 8  5 1.75112598E-01 2.40325071E-02-5.70429324E-02 1.07963809E-03 3.85404198E-03
 8  6 1.19039021E-03-1.12116124E-02 1.09489432E-02 3.71383916E-04 3.25962556E-04
 8  7-6.02857752E-02-3.01893320E-02-6.88245331E-04-1.96478964E-03 4.73502452E-03
 8  8-5.73818605E-02-3.06931416E-02-9.52834945E-04-3.25174401E-03-3.67050776E-03
 8  9-7.90981645E-02-4.60970427E-02 2.73114421E-03 5.39821868E-03-1.07951861E-03
 8 10 5.67163575E-02-1.31049785E-01-2.49110647E-02-1.25192028E-01-1.90656627E-03
 8 11-1.63972913E-01-1.65975983E-02-7.15193818E-02-1.70372174E-03-6.15756292E-03
 8 12 9.36567272E-03-2.20959309E-03 1.35804813E-03-4.48687283E-05 2.95504492E-04
 8 13 3.34152878E-02-6.75561227E-02 2.49275549E-01 2.77102126E-01-1.10771370E-02
 8 14-9.74235921E-02 1.14921811E-01 1.44188648E-01-6.47679657E-03 1.34655867E-03
 8 15-5.20792984E-04 2.12227303E-03 1.93820850E-02 1.13596098E-03 1.31503651E-03
 8 16-1.26625621E-01-5.03043979E-02-8.15161317E-03 9.33007230E-03 5.52536140E-04
 8 17-1.46207469E-01-5.60535209E-02 8.42569366E-03-9.39919336E-03 5.15887600E-04
 9  1-3.36059444E-02 6.23818477E-02 1.23642436E-01-8.04478821E-03 3.84285973E-03
 9  2 7.61197445E-02 5.30174927E-02-5.12896749E-04 3.10497995E-04-8.73426885E-03
 9  3 3.85185259E-03 3.98160382E-03 5.04300791E-03-2.68724046E-04-7.88788505E-04
 9  4 1.00970882E-02-1.90398860E-02-1.40195489E-01 4.61150801E-02 8.29819200E-04
 9  5-3.06668464E-02-2.54670134E-02-2.72057914E-03 5.69914286E-04 1.41294297E-02
 9  6-1.51045652E-02 6.12390453E-05 1.03674848E-03-6.95161299E-05-1.13372825E-05
 9  7 4.84079301E-02 2.63807406E-02 1.28032994E-03 1.55189232E-03-3.35724643E-03
 9  8 4.02969260E-02 2.01991820E-02 1.71157324E-03 2.33415999E-03 2.46842917E-03
 9  9 6.57014478E-02 3.18195933E-02-9.64865869E-04-4.31078619E-03 8.13296869E-04
 9 10 2.15583875E-02-4.80302603E-02-8.18426257E-02-7.99690339E-02 2.02931634E-04
 9 11-7.34462387E-02-4.76198344E-02-4.17013747E-02 1.70213974E-04-2.89586404E-03
 9 12 7.23653518E-03-1.05897871E-03 3.60766193E-03-1.58920391E-06 2.23183753E-05
 9 13-1.97803924E-03 7.27196610E-03-2.81551354E-01 3.21703055E-01 1.09670760E-03
 9 14 4.10262715E-03-1.71381981E-01 1.79416808E-01 8.53240317E-04 1.06883428E-02
 9 15-1.10518824E-02 8.88965892E-04 2.02582726E-03-2.25070854E-03 2.35105798E-03
 9 16 2.05431738E-01 8.00524892E-02 1.54360599E-02 4.81626704E-04-1.06650351E-03
 9 17-2.23373164E-01-1.00202216E-01 2.25718667E-04-1.56424071E-02 1.10521601E-03
10  1 1.65999831E-02-2.53307295E-02-1.29244742E-01 2.01513271E-01 4.34133642E-03
10  2-6.55964214E-02-2.76160144E-02 1.01086055E-01 1.65660229E-04 1.48593147E-02
10  3-1.13441494E-04-1.12414062E-02-5.15725716E-03-9.81228941E-04-4.06729124E-03
10  4-6.09909852E-02 1.39131587E-01 2.07686998E-01 2.09706478E-01 6.05570210E-03
10  5 1.30707345E-01 8.47427026E-02-1.79245058E-02 1.66897938E-03-1.17759608E-03
10  6-8.32368322E-04-4.72818660E-03-5.44278349E-03-2.54977066E-04-2.68640141E-04
10  7-7.97538083E-02-5.48587724E-02-3.85456078E-04 4.34242259E-04 5.40861656E-03
10  8-1.14143613E-01-8.02579734E-02 1.60980804E-04-2.94653519E-03-5.87703020E-03
10  9 3.25053716E-02 1.00722475E-02-3.97511051E-03 1.74814822E-03 2.45271471E-04
10 10 6.77675100E-02-1.57311956E-01 2.60881124E-01-2.39501450E-01 1.16914620E-03
10 11-2.45625566E-01 1.54738939E-01-1.36199918E-01 6.59144500E-04 6.36826419E-04
10 12 1.26484314E-02-5.47722934E-03-2.04682498E-02 2.67491018E-05-2.15245092E-04
10 13 2.99724527E-03-6.74611502E-03-1.83719502E-01-7.94445928E-02 9.81708545E-03
10 14-1.84170884E-02-1.26071606E-01-3.85080005E-02 7.00710718E-03 3.65307446E-03
10 15-1.28838984E-03-7.39103645E-05-6.72479678E-03-9.29713805E-04-5.95644243E-05
10 16 9.18022890E-02 3.12235647E-02 4.14545992E-03-5.20255350E-03-1.89760930E-04
10 17 1.38978209E-02 8.56717533E-03-4.40405323E-03-8.64157613E-04 1.62703851E-04
11  1 8.79108237E-04-2.29826710E-03-6.43777025E-03-5.73467732E-03 3.26328524E-01
11  2-2.70023061E-03-4.05275324E-03-5.65883064E-03 1.59667771E-01-1.04831879E-03
11  3-7.60827356E-03 8.45537565E-03-2.39044493E-03-8.64091177E-04-1.64329297E-02
11  4 2.15997528E-04-1.95166535E-03-2.09601454E-03-8.34028065E-03 2.35973588E-01
11  5 8.51246916E-03-2.32436604E-03-2.69642790E-03 1.03988227E-01-8.65213787E-05
11  6-5.09641730E-04 4.77059500E-04-2.35726951E-04-1.93924896E-03 2.93334203E-03
11  7 1.86928598E-01 1.47038104E-01-4.36019993E-03 5.12642624E-03-6.44726613E-03
11  8-1.49436529E-01-1.20263032E-01 2.78388748E-03-7.09286391E-03-2.38339145E-03
11  9-3.83190505E-02-2.61921527E-02 1.59027507E-03 1.94567470E-03 4.45260786E-03
11 10-1.42159249E-03 4.33354817E-03-8.44915024E-03 4.67061290E-03 2.14445230E-01
11 11 2.51409526E-03-5.70648827E-03 4.27334135E-03 1.39409017E-01 3.86839050E-04
11 12 1.36036946E-04 4.09082394E-04 5.41658552E-04 5.41000602E-03-1.98072024E-02
11 13 2.36693596E-03-4.57725474E-03 6.91967108E-03 1.77204003E-03 1.88528874E-01
11 14-1.27447870E-02 8.12107408E-04 2.87273018E-04 1.33996212E-01-1.63017240E-04
11 15-2.78720905E-04 1.14356213E-03 5.64311033E-05 7.53389372E-03 6.45024456E-03
11 16-7.70292443E-04-1.74860454E-03 3.00933718E-04 1.51890661E-04 5.44742313E-03
11 17 2.96975187E-03 1.07336423E-03 2.03537670E-04 6.63935803E-04 5.84650889E-03
12  1 1.04982853E-03 1.27911698E-03-2.00534027E-01 1.20195035E-01-2.15455719E-03
12  2-2.27477111E-03-1.00817318E-01 5.00461283E-02-4.88174153E-04 1.70795870E-02
12  3-6.90444811E-03-9.81795869E-03-2.37897237E-03-1.71180866E-04-1.65750933E-03
12  4 7.48648001E-03-2.66617378E-02 2.36517528E-01-2.63874471E-01-4.48917343E-03
12  5 5.27363406E-02 7.20980490E-02-2.82897573E-02-1.54275392E-03 2.10743434E-02
12  6-1.47158571E-02 4.78789496E-03 1.42278921E-02 2.01870274E-04-2.92092386E-04
12  7-6.65915131E-02-5.69389591E-02-1.89241196E-03 6.41581424E-04 4.05656271E-03
12  8-8.07323552E-02-6.99479759E-02-1.90160125E-03-1.12643401E-03-4.07435900E-03
12  9-1.46176019E-02 4.38405056E-03-2.84919727E-03 2.91228977E-03-1.34632624E-04
12 10-4.80753699E-02 1.09320774E-01 6.15432928E-02 4.24711262E-01-4.07792442E-04
12 11 2.16203992E-01 4.48644127E-02 2.58782742E-01-4.18478119E-04 1.09042498E-02
12 12-3.10120479E-02 6.19733810E-03-1.05915823E-03-8.66916117E-05-1.68574153E-05
12 13-5.70109295E-03 1.14316569E-02-9.56219088E-02 1.39352453E-01-2.94984153E-03
12 14 2.72082622E-02-5.34300788E-02 7.67099877E-02-2.07155306E-03 1.30714765E-02
12 15-1.55975679E-02-9.10233896E-05 8.39759809E-04-9.88444201E-04 8.95730746E-04
12 16 9.36326255E-02 6.33405728E-02 5.63265898E-03-1.75019461E-04-5.16296148E-04
12 17-1.10398842E-01-8.01670004E-02-1.42324602E-05-5.59250426E-03 3.88994974E-04
13  1-2.15341004E-03 6.40495366E-03 2.25355921E-01 3.51197997E-01 1.10133893E-02
13  2 1.35621636E-02 1.22413343E-01 1.92610857E-01 1.26796854E-03 2.25960309E-03
13  3 9.64574261E-03-1.25084424E-02 2.23221258E-02-2.73875441E-03-1.12715426E-02
13  4 1.44709971E-02-3.00440113E-02-1.24650032E-01-5.80118945E-02-4.17947532E-03
13  5-5.33018643E-02-4.98190356E-02 3.41442304E-03-1.24952162E-03 3.77853510E-03
13  6-1.23738173E-03-1.32387987E-04 1.99973960E-02 4.04398680E-04-9.32595519E-04
13  7-5.43116483E-02-4.22148497E-02 4.03463251E-03 4.25603724E-03 3.33736757E-03
13  8-1.44742312E-01-1.23483725E-01 4.91923893E-03-8.58623909E-04-6.69513653E-03
13  9 2.77366964E-01 2.10822715E-01-6.63551664E-03-9.79828184E-03 2.99002600E-03
13 10-4.49241573E-03 1.03098933E-02-7.11756819E-02 5.15017435E-02-5.10464105E-03
13 11 2.23523804E-02-4.35389034E-02 3.06646545E-02-4.00830518E-03-1.05802890E-03
13 12-1.02038711E-03 6.01078579E-04 6.80976470E-03-9.26031188E-05 3.81544948E-04
13 13-1.58787213E-02 3.46229853E-02 1.59141043E-01 2.28907432E-02-6.02754512E-03
13 14 6.73496865E-02 1.10969990E-01 9.22405405E-03-3.39138873E-03-7.95232575E-03
13 15 4.24291639E-03-2.35903850E-04 4.89641111E-03 1.00974059E-03-4.05665887E-04
13 16-8.42936996E-02-5.00449249E-02-3.21382778E-03 3.02151021E-03 1.49203880E-04
13 17 2.48374579E-02 7.47824478E-03 1.67166609E-03 3.15970684E-03-2.85353260E-04
14  1-6.71027700E-04 1.25767496E-03 6.20536385E-03 9.93642683E-03-2.84063639E-01
14  2 5.16172847E-03 5.10411284E-03 8.99550493E-03-1.55480677E-01 1.33108255E-03
14  3 7.32468281E-03-8.64358324E-03 2.77478070E-03-1.01634738E-02 1.94634400E-02
14  4-5.36090526E-04 1.79261352E-03-2.83517027E-03-7.54178706E-03 2.19678086E-01
14  5-7.91668028E-03 1.32396160E-04-9.33592425E-05 1.28802504E-01 6.26976943E-04
14  6-1.64584348E-04-2.62245872E-04 8.37425978E-04-2.21863079E-02 1.34394525E-02
14  7-1.84602183E-01-1.65433981E-01 2.50856862E-03-4.37164559E-03 5.74545164E-03
14  8 1.43251876E-01 1.30378805E-01-1.36083462E-03 6.19000451E-03 1.86794304E-03
14  9 3.98643848E-02 2.98185558E-02-1.08912697E-03-1.92887808E-03-3.90689720E-03
14 10-1.02863730E-04-8.16941477E-04-3.95996752E-03 1.52754625E-03 2.97148011E-01
14 11 3.88441714E-03-1.99732300E-03-6.90898709E-04 2.08593782E-01-3.98772180E-04
14 12-2.09582170E-04-6.31327602E-04 1.51855709E-04 5.85777971E-03-2.40021755E-02
14 13 2.44620392E-03-7.13726665E-03 7.82092862E-03 8.19246848E-03 2.66045959E-01
14 14-4.70851390E-03 1.10160388E-02 7.37007748E-03 2.00573078E-01-8.45970787E-04
14 15-9.83353414E-04 5.62528148E-04 3.15413354E-04 6.49762171E-03 7.93928573E-03
14 16 1.97022064E-03 2.87904315E-03 8.50485933E-04 4.55193650E-05 8.26429133E-03
14 17 5.72249202E-04-6.31827940E-05-6.02385592E-05 5.80373546E-04 8.09081063E-03
15  1 2.75854682E-02-5.26471512E-02 2.03253071E-01-1.15556622E-01 5.64229233E-03
15  2-1.80975895E-01 1.27419590E-01-8.09658317E-02 1.44057992E-02-1.32699758E-02
15  3 5.69876411E-03 6.55745951E-03 2.69377847E-03 3.06989403E-04 1.88782449E-03
15  4 1.41428625E-02-2.71563504E-02-1.37575481E-01 1.86706803E-02 1.40595662E-02
15  5-9.93170370E-02 5.36289013E-02 6.34728485E-02 1.05626919E-02-2.71070920E-02
15  6 2.56179486E-02-1.38037435E-03 4.95692668E-02 1.62808710E-03 7.25494414E-03
15  7 4.50425011E-02 5.63565063E-02 3.14434563E-03-9.92554412E-04-3.09241995E-03
15  8 5.73276771E-02 8.40982721E-02 2.59409547E-03 6.63488066E-04 3.20402751E-03
15  9-8.66473844E-04 4.54719918E-02 1.01460664E-03-7.38625406E-04 2.95470345E-04
15 10-1.21803142E-03 7.47451468E-03 5.46542206E-01 1.10232114E-01 5.79993109E-02
15 11-1.03442472E-02 4.18257086E-01 8.88134723E-02 4.68828526E-02 9.68184694E-03
15 12-6.06131318E-03 1.13201721E-03-2.11655350E-02 1.10211660E-03-3.97001764E-03
15 13-3.37987028E-02 6.71315164E-02 1.07250798E-01 1.35746334E-01-6.71351915E-02
15 14 2.51853256E-01 9.40159987E-02 1.16034572E-01-5.98865986E-02-5.73139619E-03
15 15-1.56709377E-03-1.08431244E-03 5.05545856E-03-2.99508522E-04 4.66302413E-04
15 16-2.73549959E-02-6.69179708E-02-1.13959729E-04 6.23542979E-04-1.96118999E-03
15 17-4.75797237E-02-4.56521396E-02 3.71278145E-03-1.34181409E-03-1.96566463E-03
16  1 4.24122640E-03-7.64202715E-03 2.96372890E-02-2.03048777E-02-1.56107793E-03
16  2-3.01551506E-02 1.52701996E-02-3.49562772E-02-1.39536553E-02-1.99441935E-03
16  3 6.17992125E-04 1.30638319E-03 3.41169838E-04 1.94374079E-04-2.38433335E-03
16  4 9.91610222E-04-8.08117506E-04-2.42571715E-02-1.38530661E-03-6.51830845E-02
16  5-1.72519816E-02 1.65064867E-02 2.06681440E-02-6.24773199E-02-4.00696043E-03
16  6 4.36062008E-03-7.95988225E-04 7.32021184E-03-9.01845344E-03-4.69448865E-02
16  7 9.93254724E-03 3.30916134E-02-6.06105848E-04 1.35940272E-04-6.03363630E-04
16  8 6.08881259E-03-2.52326560E-02 1.84355546E-03-2.56514604E-04 2.06502853E-04
16  9-8.31363269E-04 1.88788434E-02-3.20965995E-04-5.78942204E-05-2.22289016E-04
16 10-6.27023586E-05 2.08712403E-03 7.95086152E-02 2.01876385E-02-3.83701594E-01
16 11-7.45308552E-03 5.90978458E-02 1.70393940E-02-3.08061958E-01 1.64699948E-03
16 12-7.18769703E-04 8.90012438E-04-2.65960879E-03-7.30966918E-03 2.46772019E-02
16 13-3.18951062E-04-2.62257192E-03 2.46680099E-02 2.79189752E-02 4.66479304E-01
16 14 2.81086611E-02 2.34793156E-02 3.07217299E-02 4.33217000E-01-1.61404459E-03
16 15-1.33094364E-03 1.24143760E-03 8.29271892E-04 5.88288419E-03 1.88964439E-03
16 16 1.55843048E-03-8.64901660E-03 1.00938602E-03-5.95054967E-05 1.41406613E-02
16 17-7.82441516E-04 3.94349640E-04 6.19046599E-04 1.05243356E-03 1.51812091E-02
17  1-7.07940217E-04-2.01987202E-03 8.31605575E-03-7.96893232E-03-7.73999604E-02
17  2 2.50277719E-02 3.43033162E-02-1.23056789E-02-4.69492356E-01-1.23613529E-03
17  3-4.67617964E-03 4.68256755E-03-1.40436689E-03 3.10010551E-02-1.78742926E-02
17  4-1.86706370E-03-4.70351336E-04-2.22845163E-04 1.09073740E-03-4.42795310E-01
17  5 4.81292027E-02-2.33182067E-04 8.78537104E-03-6.06518485E-01-1.38215738E-03
17  6-4.80139448E-04 1.04392494E-03 7.43040650E-05-1.91372781E-02 2.04514310E-02
17  7 1.03392332E-01 7.05906943E-01 5.22053616E-03-1.32495008E-03-4.10146161E-03
17  8-8.40983487E-02-6.04538579E-01-3.49319275E-03-7.48164405E-07-2.66765470E-03
17  9-2.16424657E-02-1.51742151E-01-1.72495189E-04 9.09921872E-04-1.25476911E-04
17 10-4.65494771E-05 3.55132445E-03 5.36325421E-03 2.51716049E-04 3.12042183E-01
17 11-1.60283528E-02 3.71127759E-03 4.00244593E-03 4.37427476E-01 3.39667168E-04
17 12 9.19765662E-04 1.68033349E-03-4.39730486E-04-4.43927328E-03 3.43309947E-03
17 13-6.57662420E-04-4.77684663E-04 6.73162540E-03-8.18707087E-03 1.73149584E-01
17 14 1.93875395E-02 1.50857096E-02-3.73132261E-02 3.25941710E-01-1.50338480E-03
17 15 3.43870867E-04 2.88683861E-04 3.57875042E-04-2.05321138E-02-1.92788151E-02
17 16 3.12253717E-03 1.26889449E-02 6.12260569E-04-2.22560931E-04 8.71155246E-03
17 17 5.52130090E-03-6.25941479E-02-1.03135377E-03-2.92632208E-04 1.05473282E-02
18  1-7.90358747E-02 5.05621497E-02 4.51299090E-02-5.38371478E-02-3.37091473E-03
18  2 1.38030020E+00 2.55300268E-01-6.31124671E-02-1.05602410E-02-5.08268927E-03
18  3-7.83531861E-03-2.91294017E-03-9.86464762E-03-1.05383552E-03 2.48013913E-03
18  4 1.24822891E-02 8.13035022E-03 4.99554791E-02 2.90609390E-02 2.37752866E-02
18  5-1.65760386E-01-8.51873643E-02-1.09337850E-01 2.79587357E-02 6.58824517E-03
18  6 3.26665948E-03-2.05301245E-03 3.85247241E-03 3.60518573E-04-1.16449754E-03
18  7 1.43411904E-02-6.08763218E-01 3.47460967E-03 1.45832055E-04 1.36161834E-03
18  8 2.54402215E-02-6.17619920E-01 5.20489366E-03 9.37390220E-04-1.65878997E-03
18  9-3.53277868E-02-6.15051030E-01 1.40715605E-03 4.62356355E-04-7.02433935E-04
18 10-1.59849016E-02 2.56601726E-02-3.18637502E-02-2.68236391E-02-1.54605920E-02
18 11 1.83856299E-01 6.60834803E-04-9.11877671E-02-2.27594543E-02-6.31816997E-03
18 12 5.05758779E-03-6.25783762E-03-6.62729751E-03 1.49239240E-04-1.12206608E-04
18 13-9.51098687E-02 1.20811880E-01-3.99769300E-02-1.33180085E-01 4.33254152E-03
18 14 1.37029892E+00-1.99741322E-01-4.80995221E-01 2.80757436E-02-2.01047306E-02
18 15-1.55868413E-02-2.77228519E-02-3.84663581E-03 9.39574774E-04-3.06236193E-04
18 16-4.06384096E-02-7.79445702E-01-3.46095086E-04 8.36339390E-04-3.75411728E-04
18 17-2.64935580E-02-1.31209441E+00-1.35490116E-03-3.90421744E-03-5.40964606E-05
19  1-8.10623347E-02 3.19300614E-02 9.97349645E-02-1.37959898E-01 2.38963270E-02
19  2 1.68795917E+00 2.30349716E-01-6.58048811E-01 1.27240133E-01 1.72192376E-03
19  3-4.81452755E-03-1.30594439E-02 9.18408266E-03 6.41047866E-04-2.50390623E-03
19  4 1.92555119E-03 6.04980198E-02-2.80725834E-02-5.65783472E-02-1.17729787E-02
19  5-2.99379233E-01-3.83017483E-02 1.02816201E-01-3.63622003E-02-6.51226311E-03
19  6 2.04895935E-02-1.29841343E-03-8.90776546E-03 3.20638103E-04 4.27746910E-04
19  7-2.24728958E-02-1.16140302E+00 3.26783379E-03-3.85343811E-03 1.25668730E-03
19  8-2.94088059E-02-1.15437668E+00 8.94499143E-04-4.09215386E-03 2.73241180E-05
19  9 4.03601959E-02-8.04808502E-02 2.54242887E-03-2.06277223E-03 5.95173283E-04
19 10-7.84415465E-03 1.76186002E-02 7.86531496E-02-2.93451129E-02 9.70824989E-03
19 11 5.32304688E-02 8.40598980E-02-5.60005675E-02 1.49944309E-02 1.25192780E-03
19 12 1.72537879E-04-2.68528548E-03-1.25911930E-03-1.92618919E-04-3.06917650E-05
19 13 5.81678100E-02-6.72821205E-02 1.58979793E-01-2.24655532E-02-1.05444237E-02
19 14-8.18563079E-01 5.99648399E-01-1.17198764E-01-2.26394363E-02 2.09488798E-02
19 15 1.86713565E-02 1.16323823E-02 1.95030986E-03 1.58905142E-03-1.75639186E-03
19 16 4.70763011E-02 1.33074197E+00 1.28023934E-03-1.39908065E-03-3.77072287E-04
19 17 1.51183062E-02 3.09600229E-02 1.39809345E-03-6.81994217E-03 8.90721489E-04
20  1-8.73617126E-02 7.42580146E-02 2.79340938E-02 3.40936867E-02 3.90711985E-02
20  2 1.45477531E+00 7.10530850E-02 5.17365183E-02 2.09572423E-01-1.06759747E-02
20  3 2.53245737E-03-3.76364701E-03-1.36346766E-03 2.84593138E-03-1.98555350E-03
20  4 1.44924064E-02 2.39688937E-02-8.98319800E-02 1.84639220E-02-4.12982940E-02
20  5-5.86193966E-01 2.53667744E-02-3.66089482E-02-1.07239161E-01 1.89439897E-02
20  6-2.16111275E-02 1.57014494E-03 6.63805525E-03 8.29371584E-04 1.37529017E-03
20  7 7.72259152E-04-8.03185752E-01 7.10354718E-04-2.18453049E-03 6.89456136E-04
20  8-8.51982923E-04-3.91240491E-01-1.76020388E-03-1.88267903E-03 1.61094069E-03
20  9 1.12037615E-02-6.94019541E-01-2.44806282E-03 1.00653759E-03 6.93345976E-04
20 10-4.38072309E-03-1.98078055E-02 3.16641787E-02 5.28681503E-02 2.61144906E-02
20 11 2.07749942E-01 5.64682287E-02-3.15438608E-02 4.75575307E-02-1.11256478E-02
20 12 2.16553283E-03-1.19358563E-02 7.08657703E-04 1.12294479E-03 6.54663417E-04
20 13 9.13683739E-03-2.97472171E-03-1.43129653E-01 2.15989682E-01 1.87942817E-02
20 14-1.23746872E-01-6.09639810E-01 8.86495022E-01 3.37852364E-02 2.98384466E-03
20 15 1.30624863E-02 1.29546058E-03 3.45789205E-03-3.48563480E-03-8.56833280E-04
20 16-4.21515028E-02-1.14290565E+00-7.82256611E-03 3.00676889E-03 1.08960492E-03
20 17 6.10387212E-02 1.56445294E+00-4.00656210E-03 5.00550447E-03 1.25022280E-03
21  1 1.82684954E-02-1.14630872E-02-1.69101661E-01-2.39362286E-01-3.74398928E-02
21  2-4.84008543E-01-7.36359120E-01-1.29982009E+00-1.48807488E-01 1.11108386E-03
21  3 7.05495025E-03-3.12777403E-03 1.02265463E-02-2.99704667E-03-3.50950417E-03
21  4 2.13205796E-02-7.14276818E-03-3.32686991E-02-3.31760564E-03 2.12952070E-02
21  5-5.14198217E-01 1.68204134E-01 1.65365946E-01 5.85162593E-02-5.15867208E-03