!    acetone 1-A-2 excited state, using SS(V)PE,
!    by MCSCF state-specific optimization
!    test case from Dan Chipman, May 2009
!
!    SS(V)PE FINAL E= -191.7523474881, in 6 iters,
!        ERXNFIELD/2 = -0.00615526   cavity volume= 597.15348
!        SURFACE  POLARIZATION CHARGE = -0.01224526
!
!    This run requires 28 seconds on 2.66 GHz Cloverton (24 Oct 2013)
!    results haven't changed since 2009
!
 $contrl scftyp=mcscf mult=1 runtyp=energy coord=zmt $end
 $system mwords=5 $end
 $basis  gbasis=n31 ngauss=6 $end
 $guess  guess=moread  norb=48  $end
 $scf    dirscf=.t. $end
 $trans  dirtrf=.t. $end
 $svp    rhoiso=0.001  dielst=78.39 dielop=1.776 nptleb=1202
         ivert=1 irdrf=1 egas=-191.7498763456  $end
 $data
   acetone at hilderbrand 1970 exptl geom
Cnv      2

 C
 O  1 1.210
 C  1 1.507  2 121.7
 H  3 1.076  1 111.7  2    0.0
 H  3 1.076  1 111.7  2  120.0
 H  3 1.076  1 111.7  2 -120.0
 C  1 1.507  2 121.7  3  180.0
 H  7 1.076  1 111.7  2    0.0
 H  7 1.076  1 111.7  2 -120.0
 H  7 1.076  1 111.7  2  120.0
 $end
- do cas(4e,3o) singlet gnd state -
 $mcscf fullnr=.t. cistep=ormas $end
- nstate sees both triplet and singlet but iroot sees only singlet -
 $det ncore=14 nact=3 nels=4 stsym=a2 sz=0.0
      nstate=2 wstate(1)=1.0 nflgdm(1)=1 iroot=1 $end

--- converged gas phase MCSCF MO-S --- GENERATED AT Mon May  4 16:32:48 2009
E(MCSCF)=     -191.7498763456, E(NUC)=      119.9519221934
 $VEC
 1  1 1.62842550E-04 2.95882660E-04 0.00000000E+00 0.00000000E+00-7.74915452E-05
 1  2 6.12722193E-03 0.00000000E+00 0.00000000E+00 7.15000862E-03 9.95861980E-01
 1  3 2.34020937E-02 0.00000000E+00 0.00000000E+00-2.30676607E-03-1.46805142E-02
 1  4 0.00000000E+00 0.00000000E+00 4.77342528E-03-3.05343556E-06-1.52939768E-04
 1  5-5.20510213E-05 0.00000000E+00-6.89558007E-05 1.00897805E-03 1.15369351E-03
 1  6 0.00000000E+00-1.15210616E-03-3.05343556E-06-1.52939768E-04 5.20510213E-05
 1  7 0.00000000E+00-6.89558007E-05 1.00897805E-03-1.15369351E-03 0.00000000E+00
 1  8-1.15210616E-03 8.61809241E-05 5.76402043E-04 8.61809241E-05 5.76402043E-04
 1  9-4.33731708E-05-3.45340567E-04-4.33731708E-05-3.45340567E-04-4.33731708E-05
 1 10-3.45340567E-04-4.33731708E-05-3.45340567E-04
 2  1 9.95851416E-01 2.54924389E-02 0.00000000E+00 0.00000000E+00 1.73121595E-03
 2  2-1.24805303E-02 0.00000000E+00 0.00000000E+00 3.18948333E-03-3.32877101E-04
 2  3 4.06852374E-04 0.00000000E+00 0.00000000E+00-2.44395706E-04-1.49073719E-03
 2  4 0.00000000E+00 0.00000000E+00 1.65669822E-03 1.29851283E-02-1.12328383E-04
 2  5-1.10467812E-04 0.00000000E+00-1.99300131E-04 3.33069788E-03 2.18371639E-03
 2  6 0.00000000E+00 8.98187940E-04 1.29851283E-02-1.12328383E-04 1.10467812E-04
 2  7 0.00000000E+00-1.99300131E-04 3.33069788E-03-2.18371639E-03 0.00000000E+00
 2  8 8.98187940E-04-7.23181169E-05 3.56924645E-04-7.23181169E-05 3.56924645E-04
 2  9-1.67913197E-04 3.40459064E-04-1.67913197E-04 3.40459064E-04-1.67913197E-04
 2 10 3.40459064E-04-1.67913197E-04 3.40459064E-04
 3  1 0.00000000E+00 0.00000000E+00 2.39384495E-04 0.00000000E+00 0.00000000E+00
 3  2 0.00000000E+00-4.44202044E-03 0.00000000E+00 0.00000000E+00 0.00000000E+00
 3  3 0.00000000E+00-5.54216953E-05 0.00000000E+00 0.00000000E+00 0.00000000E+00
 3  4 4.38593095E-04 0.00000000E+00 0.00000000E+00 7.04463681E-01 1.88719225E-02
 3  5 1.58043144E-04 0.00000000E+00-5.05082005E-05-1.50390394E-02-1.27232323E-03
 3  6 0.00000000E+00-3.15838049E-04-7.04463681E-01-1.88719225E-02 1.58043144E-04
 3  7 0.00000000E+00 5.05082005E-05 1.50390394E-02-1.27232323E-03 0.00000000E+00
 3  8 3.15838049E-04 7.45215656E-05 1.96870281E-03-7.45215656E-05-1.96870281E-03
 3  9 1.43516812E-04 2.58489888E-03-1.43516812E-04-2.58489888E-03 1.43516812E-04
 3 10 2.58489888E-03-1.43516812E-04-2.58489888E-03
 4  1-1.85697871E-02-1.06373930E-03 0.00000000E+00 0.00000000E+00 2.71189430E-05
 4  2 5.53977649E-03 0.00000000E+00 0.00000000E+00-8.76137590E-04 7.17317799E-06
 4  3-1.66299237E-04 0.00000000E+00 0.00000000E+00 8.61018311E-05-2.66272649E-04
 4  4 0.00000000E+00 0.00000000E+00-4.49092791E-05 7.04271301E-01 1.81252957E-02
 4  5-3.71809892E-05 0.00000000E+00 6.37494451E-05-1.23929885E-02 7.75811892E-05
 4  6 0.00000000E+00-4.94259000E-04 7.04271301E-01 1.81252957E-02 3.71809892E-05
 4  7 0.00000000E+00 6.37494451E-05-1.23929885E-02-7.75811892E-05 0.00000000E+00
 4  8-4.94259000E-04 3.70428647E-05 2.60772620E-03 3.70428647E-05 2.60772620E-03
 4  9-5.26545489E-05 2.11612903E-03-5.26545489E-05 2.11612903E-03-5.26545489E-05
 4 10 2.11612903E-03-5.26545489E-05 2.11612903E-03
 5  1-1.07236923E-01 2.09694358E-01 0.00000000E+00 0.00000000E+00 1.72974418E-01
 5  2 6.31382412E-03 0.00000000E+00 0.00000000E+00-8.70141953E-02-2.00932679E-01
 5  3 4.46328591E-01 0.00000000E+00 0.00000000E+00-1.62178049E-01 4.70973318E-01
 5  4 0.00000000E+00 0.00000000E+00-7.47311673E-02-1.49368063E-02 2.87617305E-02
 5  5 1.59083177E-02 0.00000000E+00 1.66756408E-02 6.22825650E-03-1.33508810E-02
 5  6 0.00000000E+00 1.45421367E-02-1.49368063E-02 2.87617305E-02-1.59083177E-02
 5  7 0.00000000E+00 1.66756408E-02 6.22825650E-03 1.33508810E-02 0.00000000E+00
 5  8 1.45421367E-02 4.95301485E-03-5.34849880E-03 4.95301485E-03-5.34849880E-03
 5  9 3.96547470E-03 3.90616441E-04 3.96547470E-03 3.90616441E-04 3.96547470E-03
 5 10 3.90616441E-04 3.96547470E-03 3.90616441E-04
 6  1-8.83698177E-02 1.83593836E-01 0.00000000E+00 0.00000000E+00-1.35941296E-01
 6  2 1.18751913E-01 0.00000000E+00 0.00000000E+00-9.38977368E-03 5.99778122E-02
 6  3-1.37593114E-01 0.00000000E+00 0.00000000E+00-2.75024305E-02-1.76013550E-01
 6  4 0.00000000E+00 0.00000000E+00-8.11796995E-03-1.26969362E-01 2.40959639E-01
 6  5 3.69524777E-02 0.00000000E+00 5.71643220E-03 2.34963958E-01 6.15508444E-03
 6  6 0.00000000E+00 4.25827141E-04-1.26969362E-01 2.40959639E-01-3.69524777E-02
 6  7 0.00000000E+00 5.71643220E-03 2.34963958E-01-6.15508444E-03 0.00000000E+00
 6  8 4.25827141E-04 7.10113541E-02 6.92905146E-03 7.10113541E-02 6.92905146E-03
 6  9 7.95340565E-02 1.31322776E-02 7.95340565E-02 1.31322776E-02 7.95340565E-02
 6 10 1.31322776E-02 7.95340565E-02 1.31322776E-02
 7  1 0.00000000E+00 0.00000000E+00-1.66021835E-01 0.00000000E+00 0.00000000E+00
 7  2 0.00000000E+00-2.69660657E-02 0.00000000E+00 0.00000000E+00 0.00000000E+00
 7  3 0.00000000E+00-3.33825793E-02 0.00000000E+00 0.00000000E+00 0.00000000E+00
 7  4-8.49889684E-03 0.00000000E+00 0.00000000E+00-1.40641743E-01 2.66438521E-01
 7  5-1.90447977E-02 0.00000000E+00 6.34407739E-03 2.81382370E-01-2.47881304E-03
 7  6 0.00000000E+00 5.45507946E-04 1.40641743E-01-2.66438521E-01-1.90447977E-02
 7  7 0.00000000E+00-6.34407739E-03-2.81382370E-01-2.47881304E-03 0.00000000E+00
 7  8-5.45507946E-04 1.04124107E-01 2.50529115E-02-1.04124107E-01-2.50529115E-02
 7  9 9.42632565E-02 1.79116329E-02-9.42632565E-02-1.79116329E-02 9.42632565E-02
 7 10 1.79116329E-02-9.42632565E-02-1.79116329E-02
 8  1 1.30270399E-01-2.86747275E-01 0.00000000E+00 0.00000000E+00-6.33726274E-02
 8  2-2.63400113E-01 0.00000000E+00 0.00000000E+00 6.26856229E-02-8.80618459E-02
 8  3 2.03005458E-01 0.00000000E+00 0.00000000E+00 3.55139718E-01 3.12791571E-01
 8  4 0.00000000E+00 0.00000000E+00 1.79211327E-01-4.41918384E-02 8.18320089E-02
 8  5-1.39927558E-01 0.00000000E+00-8.94794660E-02 1.31671644E-01-2.52582713E-02
 8  6 0.00000000E+00-3.53752084E-02-4.41918384E-02 8.18320089E-02 1.39927558E-01
 8  7 0.00000000E+00-8.94794660E-02 1.31671644E-01 2.52582713E-02 0.00000000E+00
 8  8-3.53752084E-02 7.05815548E-02 4.49565219E-02 7.05815548E-02 4.49565219E-02
 8  9 6.96760593E-02 3.33134236E-02 6.96760593E-02 3.33134236E-02 6.96760593E-02
 8 10 3.33134236E-02 6.96760593E-02 3.33134236E-02
 9  1-3.54247542E-02 4.68570652E-02 0.00000000E+00 0.00000000E+00-3.14091335E-01
 9  2 1.78304364E-01 0.00000000E+00 0.00000000E+00-4.65908759E-02-3.79737923E-02
 9  3 8.66354291E-02 0.00000000E+00 0.00000000E+00 3.33294089E-01 1.46093345E-01
 9  4 0.00000000E+00 0.00000000E+00 1.91264284E-01 1.41945264E-02-2.37322207E-02
 9  5 2.39963520E-01 0.00000000E+00-4.82316065E-02-5.71496459E-02 1.07063813E-01
 9  6 0.00000000E+00-3.55018360E-02 1.41945264E-02-2.37322207E-02-2.39963520E-01
 9  7 0.00000000E+00-4.82316065E-02-5.71496459E-02-1.07063813E-01 0.00000000E+00
 9  8-3.55018360E-02-1.46810429E-01-8.67252242E-02-1.46810429E-01-8.67252242E-02
 9  9-4.46541568E-03-4.28837457E-04-4.46541568E-03-4.28837457E-04-4.46541568E-03
 9 10-4.28837457E-04-4.46541568E-03-4.28837457E-04
10  1 0.00000000E+00 0.00000000E+00 0.00000000E+00 1.48182830E-01 0.00000000E+00
10  2 0.00000000E+00 0.00000000E+00 2.62625159E-02 0.00000000E+00 0.00000000E+00
10  3 0.00000000E+00 0.00000000E+00 2.43271493E-01 0.00000000E+00 0.00000000E+00
10  4 0.00000000E+00 1.60137152E-01 0.00000000E+00 0.00000000E+00 0.00000000E+00
10  5 0.00000000E+00 2.72375243E-01 0.00000000E+00 0.00000000E+00 0.00000000E+00
10  6 1.32681203E-01 0.00000000E+00 0.00000000E+00 0.00000000E+00 0.00000000E+00
10  7 2.72375243E-01 0.00000000E+00 0.00000000E+00 0.00000000E+00 1.32681203E-01
10  8 0.00000000E+00 0.00000000E+00 0.00000000E+00 0.00000000E+00 0.00000000E+00
10  9 1.46865288E-01 1.16481169E-01 1.46865288E-01 1.16481169E-01-1.46865288E-01
10 10-1.16481169E-01-1.46865288E-01-1.16481169E-01
11  1 0.00000000E+00 0.00000000E+00 3.20494355E-01 0.00000000E+00 0.00000000E+00
11  2 0.00000000E+00 1.83812293E-01 0.00000000E+00 0.00000000E+00 0.00000000E+00
11  3 0.00000000E+00 1.08997808E-01 0.00000000E+00 0.00000000E+00 0.00000000E+00
11  4 3.16209179E-02 0.00000000E+00 0.00000000E+00-5.96080900E-03 3.07127084E-03
11  5-9.03474316E-02 0.00000000E+00-2.85154374E-01 6.13505823E-02-2.35937566E-02
11  6 0.00000000E+00-1.24059643E-01 5.96080900E-03-3.07127084E-03-9.03474316E-02
11  7 0.00000000E+00 2.85154374E-01-6.13505823E-02-2.35937566E-02 0.00000000E+00
11  8 1.24059643E-01-6.06295356E-02-4.04192839E-02 6.06295356E-02 4.04192839E-02
11  9 1.14164842E-01 8.08192535E-02-1.14164842E-01-8.08192535E-02 1.14164842E-01
11 10 8.08192535E-02-1.14164842E-01-8.08192535E-02
12  1-2.44719322E-02 3.66190900E-02 0.00000000E+00 0.00000000E+00-1.96700420E-01
12  2 1.23091350E-01 0.00000000E+00 0.00000000E+00-9.26495614E-03-4.41520813E-03
12  3 4.66529082E-03 0.00000000E+00 0.00000000E+00 2.50345224E-01 1.01686139E-02
12  4 0.00000000E+00 0.00000000E+00 1.57848117E-01-4.65380058E-03 7.30383333E-03
12  5-3.07260592E-02 0.00000000E+00 2.90312303E-01 2.33711712E-02-1.46708985E-02
12  6 0.00000000E+00 1.47999451E-01-4.65380058E-03 7.30383333E-03 3.07260592E-02
12  7 0.00000000E+00 2.90312303E-01 2.33711712E-02 1.46708985E-02 0.00000000E+00
12  8 1.47999451E-01 1.43639969E-01 1.15294610E-01 1.43639969E-01 1.15294610E-01
12  9-1.13113190E-01-9.23102038E-02-1.13113190E-01-9.23102038E-02-1.13113190E-01
12 10-9.23102038E-02-1.13113190E-01-9.23102038E-02
13  1 0.00000000E+00 0.00000000E+00 0.00000000E+00 0.00000000E+00 0.00000000E+00
13  2 0.00000000E+00 0.00000000E+00 0.00000000E+00 0.00000000E+00 0.00000000E+00
13  3 0.00000000E+00 0.00000000E+00 0.00000000E+00 0.00000000E+00 0.00000000E+00
13  4 0.00000000E+00 0.00000000E+00 0.00000000E+00 0.00000000E+00 0.00000000E+00
13  5 0.00000000E+00 3.20372797E-01 0.00000000E+00 0.00000000E+00 0.00000000E+00
13  6 1.68541711E-01 0.00000000E+00 0.00000000E+00 0.00000000E+00 0.00000000E+00
13  7-3.20372797E-01 0.00000000E+00 0.00000000E+00 0.00000000E+00-1.68541711E-01
13  8 0.00000000E+00 0.00000000E+00 0.00000000E+00 0.00000000E+00 0.00000000E+00
13  9 1.76336502E-01 1.35189692E-01-1.76336502E-01-1.35189692E-01-1.76336502E-01
13 10-1.35189692E-01 1.76336502E-01 1.35189692E-01
14  1 0.00000000E+00 0.00000000E+00-2.58543632E-01 0.00000000E+00 0.00000000E+00
14  2 0.00000000E+00-1.66270721E-01 0.00000000E+00 0.00000000E+00 0.00000000E+00
14  3 0.00000000E+00-6.96776592E-02 0.00000000E+00 0.00000000E+00 0.00000000E+00
14  4-1.16253523E-02 0.00000000E+00 0.00000000E+00-1.34449625E-02 3.08558654E-02
14  5 3.03270239E-01 0.00000000E+00-1.07491255E-01 1.25477674E-02 1.54476881E-01
14  6 0.00000000E+00-8.05377191E-02 1.34449625E-02-3.08558654E-02 3.03270239E-01
14  7 0.00000000E+00 1.07491255E-01-1.25477674E-02 1.54476881E-01 0.00000000E+00
14  8 8.05377191E-02-2.08143178E-01-1.72856602E-01 2.08143178E-01 1.72856602E-01
14  9 4.73845145E-02 3.05061762E-02-4.73845145E-02-3.05061762E-02 4.73845145E-02
14 10 3.05061762E-02-4.73845145E-02-3.05061762E-02
15  1 0.00000000E+00 0.00000000E+00 0.00000000E+00 1.55331623E-01 0.00000000E+00
15  2 0.00000000E+00 0.00000000E+00 8.09054597E-02 0.00000000E+00 0.00000000E+00
15  3 0.00000000E+00 0.00000000E+00 5.66286312E-01 0.00000000E+00 0.00000000E+00
15  4 0.00000000E+00 3.88572435E-01 0.00000000E+00 0.00000000E+00 0.00000000E+00
15  5 0.00000000E+00-1.40732037E-01 0.00000000E+00 0.00000000E+00 0.00000000E+00
15  6-7.82654275E-02 0.00000000E+00 0.00000000E+00 0.00000000E+00 0.00000000E+00
15  7-1.40732037E-01 0.00000000E+00 0.00000000E+00 0.00000000E+00-7.82654275E-02
15  8 0.00000000E+00 0.00000000E+00 0.00000000E+00 0.00000000E+00 0.00000000E+00
15  9-8.54577165E-02-7.50942451E-02-8.54577165E-02-7.50942451E-02 8.54577165E-02
15 10 7.50942451E-02 8.54577165E-02 7.50942451E-02
16  1 0.00000000E+00 0.00000000E+00-7.35483295E-02 0.00000000E+00 0.00000000E+00
16  2 0.00000000E+00 1.45101793E-02 0.00000000E+00 0.00000000E+00 0.00000000E+00
16  3 0.00000000E+00 6.77562093E-01 0.00000000E+00 0.00000000E+00 0.00000000E+00
16  4 4.50020141E-01 0.00000000E+00 0.00000000E+00-2.71184207E-02 4.73441849E-02
16  5 9.84355250E-02 0.00000000E+00 9.46172122E-02 1.56982048E-01 7.63405532E-02
16  6 0.00000000E+00 7.19740890E-02 2.71184207E-02-4.73441849E-02 9.84355250E-02
16  7 0.00000000E+00-9.46172122E-02-1.56982048E-01 7.63405532E-02 0.00000000E+00
16  8-7.19740890E-02 1.83620190E-03-3.09447282E-02-1.83620190E-03 3.09447282E-02
16  9-1.99150776E-02-3.27411980E-02 1.99150776E-02 3.27411980E-02-1.99150776E-02
16 10-3.27411980E-02 1.99150776E-02 3.27411980E-02
17  1 0.00000000E+00 0.00000000E+00 0.00000000E+00 6.39566834E-01 0.00000000E+00
17  2 0.00000000E+00 0.00000000E+00 5.84750884E-01 0.00000000E+00 0.00000000E+00
17  3 0.00000000E+00 0.00000000E+00-2.95952579E-01 0.00000000E+00 0.00000000E+00
17  4 0.00000000E+00-3.64489941E-01 0.00000000E+00 0.00000000E+00 0.00000000E+00
17  5 0.00000000E+00-2.69847675E-02 0.00000000E+00 0.00000000E+00 0.00000000E+00
17  6-1.27917811E-02 0.00000000E+00 0.00000000E+00 0.00000000E+00 0.00000000E+00
17  7-2.69847675E-02 0.00000000E+00 0.00000000E+00 0.00000000E+00-1.27917811E-02
17  8 0.00000000E+00 0.00000000E+00 0.00000000E+00 0.00000000E+00 0.00000000E+00
17  9-7.59626088E-02-1.50685546E-01-7.59626088E-02-1.50685546E-01 7.59626088E-02
17 10 1.50685546E-01 7.59626088E-02 1.50685546E-01
18  1 4.71393156E-03 5.66954799E-02 0.00000000E+00 0.00000000E+00-1.58932382E-02
18  2-2.40155965E-01 0.00000000E+00 0.00000000E+00-2.48727338E-01-1.91925292E-02
18  3 3.09407593E-02 0.00000000E+00 0.00000000E+00-2.19492733E-02 3.11414963E-01
18  4 0.00000000E+00 0.00000000E+00-1.34244198E-01-9.43607099E-02 6.45437184E-02
18  5-4.41632989E-02 0.00000000E+00-8.23271182E-02 1.67403562E+00-3.81638140E-01
18  6 0.00000000E+00-3.18327389E-01-9.43607099E-02 6.45437184E-02 4.41632989E-02
18  7 0.00000000E+00-8.23271182E-02 1.67403562E+00 3.81638140E-01 0.00000000E+00
18  8-3.18327389E-01-7.21979461E-03-6.77126586E-01-7.21979461E-03-6.77126586E-01
18  9 6.10275023E-03-9.09828117E-01 6.10275023E-03-9.09828117E-01 6.10275023E-03
18 10-9.09828117E-01 6.10275023E-03-9.09828117E-01
19  1 1.20595304E-02 2.27939562E-02 0.00000000E+00 0.00000000E+00-6.63398848E-02
19  2-3.22678020E-01 0.00000000E+00 0.00000000E+00 4.41648251E-02-1.61678662E-02
19  3 3.69286544E-02 0.00000000E+00 0.00000000E+00-1.01870795E-01 1.57542154E-01
19  4 0.00000000E+00 0.00000000E+00-1.47679707E-01 2.11117380E-02-3.20594313E-02
19  5 1.05393831E-01 0.00000000E+00-1.54519721E-01-2.32109146E-01 5.84699891E-01
19  6 0.00000000E+00-7.81938480E-01 2.11117380E-02-3.20594313E-02-1.05393831E-01
19  7 0.00000000E+00-1.54519721E-01-2.32109146E-01-5.84699891E-01 0.00000000E+00
19  8-7.81938480E-01 7.83338038E-02 1.40601420E+00 7.83338038E-02 1.40601420E+00
19  9-4.23240800E-02-4.90572680E-01-4.23240800E-02-4.90572680E-01-4.23240800E-02
19 10-4.90572680E-01-4.23240800E-02-4.90572680E-01
20  1 0.00000000E+00 0.00000000E+00 4.30546298E-02 0.00000000E+00 0.00000000E+00
20  2 0.00000000E+00 3.78187495E-01 0.00000000E+00 0.00000000E+00 0.00000000E+00
20  3 0.00000000E+00-7.00058925E-02 0.00000000E+00 0.00000000E+00 0.00000000E+00
20  4-1.21997230E-01 0.00000000E+00 0.00000000E+00-9.93299559E-02 3.79671192E-02
20  5-1.31163202E-01 0.00000000E+00-5.58883030E-02 2.07514355E+00-2.94435953E-01
20  6 0.00000000E+00-1.74511643E-01 9.93299559E-02-3.79671192E-02-1.31163202E-01
20  7 0.00000000E+00 5.58883030E-02-2.07514355E+00-2.94435953E-01 0.00000000E+00
20  8 1.74511643E-01 2.64722675E-02-8.95211063E-01-2.64722675E-02 8.95211063E-01
20  9-1.47428652E-02-9.33938929E-01 1.47428652E-02 9.33938929E-01-1.47428652E-02
20 10-9.33938929E-01 1.47428652E-02 9.33938929E-01
21  1 0.00000000E+00 0.00000000E+00 0.00000000E+00 9.30277769E-02 0.00000000E+00
21  2 0.00000000E+00 0.00000000E+00 5.96789137E-01 0.00000000E+00 0.00000000E+00
21  3 0.00000000E+00 0.00000000E+00-2.26018282E-02 0.00000000E+00 0.00000000E+00
21  4 0.00000000E+00-1.49023179E-01 0.00000000E+00 0.00000000E+00 0.00000000E+00
21  5 0.00000000E+00-2.57676618E-01 0.00000000E+00 0.00000000E+00 0.00000000E+00
21  6-1.16917526E+00 0.00000000E+00 0.00000000E+00 0.00000000E+00 0.00000000E+00
21  7-2.57676618E-01 0.00000000E+00 0.00000000E+00 0.00000000E+00-1.16917526E+00
21  8 0.00000000E+00 0.00000000E+00 0.00000000E+00 0.00000000E+00 0.00000000E+00
21  9-9.58887311E-03 1.19878984E+00-9.58887311E-03 1.19878984E+00 9.58887311E-03
21 10-1.19878984E+00 9.58887311E-03-1.19878984E+00
22  1 0.00000000E+00 0.00000000E+00 0.00000000E+00 0.00000000E+00 0.00000000E+00
22  2 0.00000000E+00 0.00000000E+00 0.00000000E+00 0.00000000E+00 0.00000000E+00
22  3 0.00000000E+00 0.00000000E+00 0.00000000E+00 0.00000000E+00 0.00000000E+00
22  4 0.00000000E+00 0.00000000E+00 0.00000000E+00 0.00000000E+00 0.00000000E+00
22  5 0.00000000E+00-2.18304828E-01 0.00000000E+00 0.00000000E+00 0.00000000E+00
22  6-1.11158923E+00 0.00000000E+00 0.00000000E+00 0.00000000E+00 0.00000000E+00
22  7 2.18304828E-01 0.00000000E+00 0.00000000E+00 0.00000000E+00 1.11158923E+00
22  8 0.00000000E+00 0.00000000E+00 0.00000000E+00 0.00000000E+00 0.00000000E+00
22  9 6.66023841E-02 1.22702439E+00-6.66023841E-02-1.22702439E+00-6.66023841E-02
22 10-1.22702439E+00 6.66023841E-02 1.22702439E+00
23  1 0.00000000E+00 0.00000000E+00 6.75534083E-02 0.00000000E+00 0.00000000E+00
23  2 0.00000000E+00 3.91886937E-02 0.00000000E+00 0.00000000E+00 0.00000000E+00
23  3 0.00000000E+00 1.62338841E-03 0.00000000E+00 0.00000000E+00 0.00000000E+00
23  4-4.81563218E-02 0.00000000E+00 0.00000000E+00-1.32909004E-02 2.81773113E-02
23  5 1.78948959E-01 0.00000000E+00-1.90675301E-01 3.86072937E-02 7.57418734E-01
23  6 0.00000000E+00-8.50292741E-01 1.32909004E-02-2.81773113E-02 1.78948959E-01
23  7 0.00000000E+00 1.90675301E-01-3.86072937E-02 7.57418734E-01 0.00000000E+00
23  8 8.50292741E-01 3.52146620E-02 1.48022653E+00-3.52146620E-02-1.48022653E+00
23  9-8.82896290E-03-6.70226047E-01 8.82896290E-03 6.70226047E-01-8.82896290E-03
23 10-6.70226047E-01 8.82896290E-03 6.70226047E-01
24  1-1.51296247E-01 1.07092276E-01 0.00000000E+00 0.00000000E+00-1.90034713E-01
24  2 3.32709825E+00 0.00000000E+00 0.00000000E+00-1.46301249E+00 2.79805055E-03
24  3-2.25038868E-02 0.00000000E+00 0.00000000E+00 8.74538305E-02 1.61797183E-01
24  4 0.00000000E+00 0.00000000E+00 1.11145861E-01 6.91948783E-02-2.62642419E-03
24  5-7.55876492E-02 0.00000000E+00-8.45849712E-02-1.56019850E+00-1.40639134E+00
24  6 0.00000000E+00-5.08163602E-01 6.91948783E-02-2.62642419E-03 7.55876492E-02
24  7 0.00000000E+00-8.45849712E-02-1.56019850E+00 1.40639134E+00 0.00000000E+00
24  8-5.08163602E-01-4.37696889E-02-7.21702106E-02-4.37696889E-02-7.21702106E-02
24  9-3.12464720E-02 4.18604038E-02-3.12464720E-02 4.18604038E-02-3.12464720E-02
24 10 4.18604038E-02-3.12464720E-02 4.18604038E-02
25  1 0.00000000E+00 0.00000000E+00 4.80966231E-01 0.00000000E+00 0.00000000E+00
25  2 0.00000000E+00 2.85487280E+00 0.00000000E+00 0.00000000E+00 0.00000000E+00
25  3 0.00000000E+00-8.04310861E-02 0.00000000E+00 0.00000000E+00 0.00000000E+00
25  4-5.51863015E-01 0.00000000E+00 0.00000000E+00-5.18786804E-02-4.39748866E-02
25  5 2.97299415E-02 0.00000000E+00 1.46437273E-02 1.60697511E+00 1.29280383E+00
25  6 0.00000000E+00 1.52009897E+00 5.18786804E-02 4.39748866E-02 2.97299415E-02
25  7 0.00000000E+00-1.46437273E-02-1.60697511E+00 1.29280383E+00 0.00000000E+00
25  8-1.52009897E+00 4.89086572E-02-1.60383083E-01-4.89086572E-02 1.60383083E-01
25  9 7.52706872E-02 4.08705458E-01-7.52706872E-02-4.08705458E-01 7.52706872E-02
25 10 4.08705458E-01-7.52706872E-02-4.08705458E-01
26  1-5.59574236E-02-4.61857501E-02 0.00000000E+00 0.00000000E+00 1.08348488E-01
26  2 1.74661733E+00 0.00000000E+00 0.00000000E+00 2.74917842E+00 1.08249952E-01
26  3-1.48750183E-01 0.00000000E+00 0.00000000E+00 1.15630176E-01-2.47673387E+00
26  4 0.00000000E+00 0.00000000E+00 1.03304971E+00 1.63830447E-03-7.01412003E-02
26  5-4.53814276E-02 0.00000000E+00-1.52431420E-01 7.08921620E-01 4.88096185E-01
26  6 0.00000000E+00-6.64671294E-01 1.63830447E-03-7.01412003E-02 4.53814276E-02
26  7 0.00000000E+00-1.52431420E-01 7.08921620E-01-4.88096185E-01 0.00000000E+00
26  8-6.64671294E-01-1.04115340E-01 4.20728523E-01-1.04115340E-01 4.20728523E-01
26  9 2.76060514E-02-4.14165004E-01 2.76060514E-02-4.14165004E-01 2.76060514E-02
26 10-4.14165004E-01 2.76060514E-02-4.14165004E-01
27  1-3.54479897E-02 1.19960305E-01 0.00000000E+00 0.00000000E+00-2.02687719E-02
27  2 1.39106959E-01 0.00000000E+00 0.00000000E+00 1.16224667E+00 1.97105786E-02
27  3 9.33960958E-03 0.00000000E+00 0.00000000E+00 3.81499802E-03-7.92128654E-01
27  4 0.00000000E+00 0.00000000E+00 2.84553796E-01 9.13856286E-03-1.74678611E-01
27  5-4.82846460E-01 0.00000000E+00 2.86461748E-01 6.33947885E-01 7.61135024E-01
27  6 0.00000000E+00-8.91991420E-01 9.13856286E-03-1.74678611E-01 4.82846460E-01
27  7 0.00000000E+00 2.86461748E-01 6.33947885E-01-7.61135024E-01 0.00000000E+00
27  8-8.91991420E-01 3.37994484E-01 4.54617536E-02 3.37994484E-01 4.54617536E-02
27  9-2.02140877E-01-2.11207380E-01-2.02140877E-01-2.11207380E-01-2.02140877E-01
27 10-2.11207380E-01-2.02140877E-01-2.11207380E-01
28  1 0.00000000E+00 0.00000000E+00 0.00000000E+00 7.93370482E-01 0.00000000E+00
28  2 0.00000000E+00 0.00000000E+00-5.19497755E-01 0.00000000E+00 0.00000000E+00
28  3 0.00000000E+00 0.00000000E+00 9.70945633E-02 0.00000000E+00 0.00000000E+00
28  4 0.00000000E+00-9.67103262E-03 0.00000000E+00 0.00000000E+00 0.00000000E+00
28  5 0.00000000E+00 3.25996793E-01 0.00000000E+00 0.00000000E+00 0.00000000E+00
28  6-7.63227660E-01 0.00000000E+00 0.00000000E+00 0.00000000E+00 0.00000000E+00
28  7 3.25996793E-01 0.00000000E+00 0.00000000E+00 0.00000000E+00-7.63227660E-01
28  8 0.00000000E+00 0.00000000E+00 0.00000000E+00 0.00000000E+00 0.00000000E+00
28  9 2.32927462E-01 2.60269742E-01 2.32927462E-01 2.60269742E-01-2.32927462E-01
28 10-2.60269742E-01-2.32927462E-01-2.60269742E-01
29  1 0.00000000E+00 0.00000000E+00 0.00000000E+00 0.00000000E+00 0.00000000E+00
29  2 0.00000000E+00 0.00000000E+00 0.00000000E+00 0.00000000E+00 0.00000000E+00
29  3 0.00000000E+00 0.00000000E+00 0.00000000E+00 0.00000000E+00 0.00000000E+00
29  4 0.00000000E+00 0.00000000E+00 0.00000000E+00 0.00000000E+00 0.00000000E+00
29  5 0.00000000E+00-5.77556430E-01 0.00000000E+00 0.00000000E+00 0.00000000E+00
29  6 1.15657362E+00 0.00000000E+00 0.00000000E+00 0.00000000E+00 0.00000000E+00
29  7 5.77556430E-01 0.00000000E+00 0.00000000E+00 0.00000000E+00-1.15657362E+00
29  8 0.00000000E+00 0.00000000E+00 0.00000000E+00 0.00000000E+00 0.00000000E+00
29  9-3.11761477E-01-1.34922495E-01 3.11761477E-01 1.34922495E-01 3.11761477E-01
29 10 1.34922495E-01-3.11761477E-01-1.34922495E-01
30  1 0.00000000E+00 0.00000000E+00-2.11628135E-02 0.00000000E+00 0.00000000E+00
30  2 0.00000000E+00 7.78566481E-01 0.00000000E+00 0.00000000E+00 0.00000000E+00
30  3 0.00000000E+00-3.28273500E-01 0.00000000E+00 0.00000000E+00 0.00000000E+00
30  4-8.16779104E-02 0.00000000E+00 0.00000000E+00-2.06745367E-02 2.03221069E-01
30  5 3.60520824E-01 0.00000000E+00 5.19978866E-01 2.71763936E-01-4.98565075E-02
30  6 0.00000000E+00-5.95239193E-01 2.06745367E-02-2.03221069E-01 3.60520824E-01
30  7 0.00000000E+00-5.19978866E-01-2.71763936E-01-4.98565075E-02 0.00000000E+00
30  8 5.95239193E-01 2.39156167E-01 2.16561515E-02-2.39156167E-01-2.16561515E-02
30  9-1.63691805E-01-6.30736591E-03 1.63691805E-01 6.30736591E-03-1.63691805E-01
30 10-6.30736591E-03 1.63691805E-01 6.30736591E-03
31  1 6.91717621E-02 1.58045392E-01 0.00000000E+00 0.00000000E+00 4.12669860E-02
31  2 4.51810599E-01 0.00000000E+00 0.00000000E+00 1.31738333E+00 9.39089056E-03
31  3 6.18520941E-02 0.00000000E+00 0.00000000E+00-8.05503436E-02-8.84536089E-01
31  4 0.00000000E+00 0.00000000E+00 2.90348421E-01-3.31038628E-02 1.68467176E-01
31  5 4.87028810E-01 0.00000000E+00 6.01446926E-01 5.24078995E-01-1.64067515E-01
31  6 0.00000000E+00-1.11074984E+00-3.31038628E-02 1.68467176E-01-4.87028810E-01
31  7 0.00000000E+00 6.01446926E-01 5.24078995E-01 1.64067515E-01 0.00000000E+00
31  8-1.11074984E+00-7.74314596E-02 2.45332180E-01-7.74314596E-02 2.45332180E-01
31  9-1.04552507E-01-3.03728693E-01-1.04552507E-01-3.03728693E-01-1.04552507E-01
31 10-3.03728693E-01-1.04552507E-01-3.03728693E-01
32  1 0.00000000E+00 0.00000000E+00 0.00000000E+00-6.61799544E-01 0.00000000E+00
32  2 0.00000000E+00 0.00000000E+00 1.83767163E+00 0.00000000E+00 0.00000000E+00
32  3 0.00000000E+00 0.00000000E+00-1.51025707E-01 0.00000000E+00 0.00000000E+00
32  4 0.00000000E+00-2.29095548E-01 0.00000000E+00 0.00000000E+00 0.00000000E+00
32  5 0.00000000E+00 5.04243181E-01 0.00000000E+00 0.00000000E+00 0.00000000E+00
32  6-1.69148138E+00 0.00000000E+00 0.00000000E+00 0.00000000E+00 0.00000000E+00
32  7 5.04243181E-01 0.00000000E+00 0.00000000E+00 0.00000000E+00-1.69148138E+00
32  8 0.00000000E+00 0.00000000E+00 0.00000000E+00 0.00000000E+00 0.00000000E+00
32  9 1.94983134E-01 5.09874684E-01 1.94983134E-01 5.09874684E-01-1.94983134E-01
32 10-5.09874684E-01-1.94983134E-01-5.09874684E-01
33  1 0.00000000E+00 0.00000000E+00-8.69851770E-01 0.00000000E+00 0.00000000E+00
33  2 0.00000000E+00 1.58139962E+00 0.00000000E+00 0.00000000E+00 0.00000000E+00
33  3 0.00000000E+00-1.10842179E-01 0.00000000E+00 0.00000000E+00 0.00000000E+00
33  4-6.73771665E-02 0.00000000E+00 0.00000000E+00 4.55581974E-02-4.15902604E-02
33  5-4.96260110E-01 0.00000000E+00-2.78099447E-02 7.82021438E-02 1.32670147E+00
33  6 0.00000000E+00 1.23195923E-01-4.55581974E-02 4.15902604E-02-4.96260110E-01
33  7 0.00000000E+00 2.78099447E-02-7.82021438E-02 1.32670147E+00 0.00000000E+00
33  8-1.23195923E-01 3.28707317E-01 5.73546887E-01-3.28707317E-01-5.73546887E-01
33  9 1.01592725E-01 1.78160390E-01-1.01592725E-01-1.78160390E-01 1.01592725E-01
33 10 1.78160390E-01-1.01592725E-01-1.78160390E-01
34  1-3.86416368E-02 9.09402545E-01 0.00000000E+00 0.00000000E+00 1.12812013E+00
34  2 4.55170892E-02 0.00000000E+00 0.00000000E+00-9.34043868E-01 5.77561613E-02
34  3-1.66739790E-01 0.00000000E+00 0.00000000E+00 1.94924566E-01 4.56105972E-03
34  4 0.00000000E+00 0.00000000E+00 8.21934310E-01 5.17048092E-03 1.72626494E-01
34  5 5.38637536E-02 0.00000000E+00-1.76896100E-03-6.68809681E-01-5.10553091E-02
34  6 0.00000000E+00 1.44238865E-01 5.17048092E-03 1.72626494E-01-5.38637536E-02
34  7 0.00000000E+00-1.76896100E-03-6.68809681E-01 5.10553091E-02 0.00000000E+00
34  8 1.44238865E-01 7.95144573E-02 1.37524693E-01 7.95144573E-02 1.37524693E-01
34  9 8.20473354E-02 7.43653291E-02 8.20473354E-02 7.43653291E-02 8.20473354E-02
34 10 7.43653291E-02 8.20473354E-02 7.43653291E-02
35  1 0.00000000E+00 0.00000000E+00-6.28882642E-01 0.00000000E+00 0.00000000E+00
35  2 0.00000000E+00 2.99077083E+00 0.00000000E+00 0.00000000E+00 0.00000000E+00
35  3 0.00000000E+00-2.27872504E-01 0.00000000E+00 0.00000000E+00 0.00000000E+00
35  4-2.05145723E-01 0.00000000E+00 0.00000000E+00-4.93754027E-03-1.49956651E-01
35  5 4.60306504E-01 0.00000000E+00-4.69786180E-01 1.82748551E+00-6.45389944E-01
35  6 0.00000000E+00 1.95607784E+00 4.93754027E-03 1.49956651E-01 4.60306504E-01
35  7 0.00000000E+00 4.69786180E-01-1.82748551E+00-6.45389944E-01 0.00000000E+00
35  8-1.95607784E+00-1.01735050E-01-1.04435411E+00 1.01735050E-01 1.04435411E+00
35  9-7.12349418E-03 3.87723974E-01 7.12349418E-03-3.87723974E-01-7.12349418E-03
35 10 3.87723974E-01 7.12349418E-03-3.87723974E-01
36  1 1.51836850E-02-1.54732498E+00 0.00000000E+00 0.00000000E+00 5.68088646E-01
36  2 3.46983163E+00 0.00000000E+00 0.00000000E+00-1.42411075E+00 4.77615810E-03
36  3-2.10537065E-02 0.00000000E+00 0.00000000E+00-1.20766462E-01-5.20951971E-02
36  4 0.00000000E+00 0.00000000E+00 3.10972712E-01-4.12144205E-02-4.16071913E-02
36  5 1.27975174E-01 0.00000000E+00-1.58202685E-01-5.73485210E-01-9.79395251E-01
36  6 0.00000000E+00-7.85227264E-02-4.12144205E-02-4.16071913E-02-1.27975174E-01
36  7 0.00000000E+00-1.58202685E-01-5.73485210E-01 9.79395251E-01 0.00000000E+00
36  8-7.85227264E-02 2.30661496E-03-4.67129577E-01 2.30661496E-03-4.67129577E-01
36  9-3.18369856E-01 3.22733782E-02-3.18369856E-01 3.22733782E-02-3.18369856E-01
36 10 3.22733782E-02-3.18369856E-01 3.22733782E-02
37  1 0.00000000E+00 0.00000000E+00 0.00000000E+00-1.70369215E-02 0.00000000E+00
37  2 0.00000000E+00 0.00000000E+00 2.56848923E-01 0.00000000E+00 0.00000000E+00
37  3 0.00000000E+00 0.00000000E+00 5.08284543E-01 0.00000000E+00 0.00000000E+00
37  4 0.00000000E+00-6.21258763E-01 0.00000000E+00 0.00000000E+00 0.00000000E+00
37  5 0.00000000E+00 5.25150471E-01 0.00000000E+00 0.00000000E+00 0.00000000E+00
37  6-5.84017462E-01 0.00000000E+00 0.00000000E+00 0.00000000E+00 0.00000000E+00