!    acetone ground state using SS(V)PE
!    test case from Dan Chipman, May 2009
!
!    SS(V)PE FINAL E= -191.9193116909, in 13 iters,
!        ERXNFIELD/2 = -0.01081035   cavity volume= 597.15405
!        SURFACE  POLARIZATION CHARGE = -0.01203552
!
!    This run requires 58 seconds on 2.66 GHz Cloverton ( 3 Oct 2015)
!    results have not changed except last digits since May 2009.
!
 $contrl scftyp=mcscf mult=1 runtyp=energy coord=zmt units=angs $end
 $system mwords=5 $end
 $basis  gbasis=n31 ngauss=6 $end
 $guess  guess=moread  norb=48  $end
 $svp    rhoiso=0.001  dielst=78.39 nptleb=1202
         ipnrf=1 egas=-191.9103911087 $end
 $data
   acetone at hilderbrand 1970 exptl geom
Cnv      2

 C
 O  1 1.210
 C  1 1.507  2 121.7
 H  3 1.076  1 111.7  2    0.0
 H  3 1.076  1 111.7  2  120.0
 H  3 1.076  1 111.7  2 -120.0
 C  1 1.507  2 121.7  3  180.0
 H  7 1.076  1 111.7  2    0.0
 H  7 1.076  1 111.7  2 -120.0
 H  7 1.076  1 111.7  2  120.0
 $end
- do cas(4e,3o) singlet gnd state -
 $mcscf fullnr=.t. cistep=ormas $end
 $det ncore=14 nact=3 nels=4 istsym=1 sz=0.0 
      nstate=1 wstate(1)=1.0 nflgdm(1)=1 iroot=1 $end
- mc4e3o_gnd_gas vecs -
--- OPTIMIZED MCSCF MO-S --- GENERATED AT Mon May  4 16:31:18 2009
   acetone at hilderbrand 1970 exptl geom                                       
E(MCSCF)=     -191.9103911087, E(NUC)=      119.9519221934
 $VEC   
 1  1 1.65479320E-04 3.00415740E-04 0.00000000E+00 0.00000000E+00-8.82487377E-05
 1  2 6.00211849E-03 0.00000000E+00 0.00000000E+00 7.11728821E-03 9.95864219E-01
 1  3 2.33039504E-02 0.00000000E+00 0.00000000E+00-2.33421362E-03-1.45069811E-02
 1  4 0.00000000E+00 0.00000000E+00 4.70717820E-03-3.51302406E-06-1.78153031E-04
 1  5-5.97337644E-05 0.00000000E+00-8.47276386E-05 1.05549507E-03 1.16609446E-03
 1  6 0.00000000E+00-1.11060336E-03-3.51302406E-06-1.78153031E-04 5.97337644E-05
 1  7 0.00000000E+00-8.47276386E-05 1.05549507E-03-1.16609446E-03 0.00000000E+00
 1  8-1.11060336E-03 7.62305708E-05 5.69836055E-04 7.62305708E-05 5.69836055E-04
 1  9-4.53484171E-05-3.39335846E-04-4.53484171E-05-3.39335846E-04-4.53484171E-05
 1 10-3.39335846E-04-4.53484171E-05-3.39335846E-04
 2  1 9.96159533E-01 2.47322279E-02 0.00000000E+00 0.00000000E+00 1.10516605E-03
 2  2-1.30467077E-02 0.00000000E+00 0.00000000E+00 3.26223572E-03-3.75195535E-04
 2  3 3.59287563E-04 0.00000000E+00 0.00000000E+00-3.39367870E-04-8.79384186E-04
 2  4 0.00000000E+00 0.00000000E+00 1.25304888E-03 3.13739568E-03-3.31600465E-04
 2  5-7.25341114E-05 0.00000000E+00-1.66212038E-04 3.62315629E-03 2.21268667E-03
 2  6 0.00000000E+00 9.20243821E-04 3.13739568E-03-3.31600465E-04 7.25341114E-05
 2  7 0.00000000E+00-1.66212038E-04 3.62315629E-03-2.21268667E-03 0.00000000E+00
 2  8 9.20243821E-04-7.29310036E-05 2.94058255E-04-7.29310036E-05 2.94058255E-04
 2  9-1.68997634E-04 3.15747733E-04-1.68997634E-04 3.15747733E-04-1.68997634E-04
 2 10 3.15747733E-04-1.68997634E-04 3.15747733E-04
 3  1 0.00000000E+00 0.00000000E+00 2.21325084E-04 0.00000000E+00 0.00000000E+00
 3  2 0.00000000E+00-4.47053741E-03 0.00000000E+00 0.00000000E+00 0.00000000E+00
 3  3 0.00000000E+00-5.40673716E-05 0.00000000E+00 0.00000000E+00 0.00000000E+00
 3  4 4.60921118E-04 0.00000000E+00 0.00000000E+00 7.04447360E-01 1.90093191E-02
 3  5 1.67016516E-04 0.00000000E+00-1.77406745E-04-1.51872315E-02-1.31084907E-03
 3  6 0.00000000E+00-2.35269500E-04-7.04447360E-01-1.90093191E-02 1.67016516E-04
 3  7 0.00000000E+00 1.77406745E-04 1.51872315E-02-1.31084907E-03 0.00000000E+00
 3  8 2.35269500E-04 7.95342661E-05 1.94368964E-03-7.95342661E-05-1.94368964E-03
 3  9 1.29334400E-04 2.64525230E-03-1.29334400E-04-2.64525230E-03 1.29334400E-04
 3 10 2.64525230E-03-1.29334400E-04-2.64525230E-03
 4  1-4.65441941E-03-6.83429777E-04 0.00000000E+00 0.00000000E+00 3.92803990E-05
 4  2 5.38158581E-03 0.00000000E+00 0.00000000E+00-8.54472540E-04 5.39216350E-06
 4  3-1.49461365E-04 0.00000000E+00 0.00000000E+00 7.99528232E-05-3.12212873E-04
 4  4 0.00000000E+00 0.00000000E+00-4.49034374E-06 7.04365771E-01 1.82443024E-02
 4  5-3.20262858E-05 0.00000000E+00-6.00591231E-05-1.24456524E-02 9.63561510E-05
 4  6 0.00000000E+00-4.04014264E-04 7.04365771E-01 1.82443024E-02 3.20262858E-05
 4  7 0.00000000E+00-6.00591231E-05-1.24456524E-02-9.63561510E-05 0.00000000E+00
 4  8-4.04014264E-04 4.00930055E-05 2.59421473E-03 4.00930055E-05 2.59421473E-03
 4  9-7.35910659E-05 2.17042045E-03-7.35910659E-05 2.17042045E-03-7.35910659E-05
 4 10 2.17042045E-03-7.35910659E-05 2.17042045E-03
 5  1-1.14058559E-01 2.27571544E-01 0.00000000E+00 0.00000000E+00 1.78739490E-01
 5  2 3.49582937E-02 0.00000000E+00 0.00000000E+00-8.15136321E-02-1.95910690E-01
 5  3 4.29022642E-01 0.00000000E+00 0.00000000E+00-1.59363918E-01 4.51814667E-01
 5  4 0.00000000E+00 0.00000000E+00-7.17990595E-02-1.68345824E-02 3.32471994E-02
 5  5 1.74739034E-02 0.00000000E+00 1.72392048E-02 2.97154273E-03-1.40050357E-02
 5  6 0.00000000E+00 1.14443056E-02-1.68345824E-02 3.32471994E-02-1.74739034E-02
 5  7 0.00000000E+00 1.72392048E-02 2.97154273E-03 1.40050357E-02 0.00000000E+00
 5  8 1.14443056E-02 5.90879793E-03-3.65338007E-03 5.90879793E-03-3.65338007E-03
 5  9 4.98182644E-03 2.44041172E-04 4.98182644E-03 2.44041172E-04 4.98182644E-03
 5 10 2.44041172E-04 4.98182644E-03 2.44041172E-04
 6  1-8.74278643E-02 1.86406215E-01 0.00000000E+00 0.00000000E+00-1.62516116E-01
 6  2 1.20375755E-01 0.00000000E+00 0.00000000E+00-2.53516864E-02 6.28994867E-02
 6  3-1.42651765E-01 0.00000000E+00 0.00000000E+00-1.23272122E-02-1.69152248E-01
 6  4 0.00000000E+00 0.00000000E+00-3.29343385E-03-1.25366927E-01 2.38176434E-01
 6  5 4.48351701E-02 0.00000000E+00 6.24291153E-03 2.26165859E-01 5.59511629E-03
 6  6 0.00000000E+00-9.49598625E-04-1.25366927E-01 2.38176434E-01-4.48351701E-02
 6  7 0.00000000E+00 6.24291153E-03 2.26165859E-01-5.59511629E-03 0.00000000E+00
 6  8-9.49598625E-04 6.64956201E-02 3.89935575E-03 6.64956201E-02 3.89935575E-03
 6  9 7.84275833E-02 1.26789092E-02 7.84275833E-02 1.26789092E-02 7.84275833E-02
 6 10 1.26789092E-02 7.84275833E-02 1.26789092E-02
 7  1 0.00000000E+00 0.00000000E+00-1.79357570E-01 0.00000000E+00 0.00000000E+00
 7  2 0.00000000E+00-1.89783990E-02 0.00000000E+00 0.00000000E+00 0.00000000E+00
 7  3 0.00000000E+00-7.40463109E-02 0.00000000E+00 0.00000000E+00 0.00000000E+00
 7  4-3.44820632E-02 0.00000000E+00 0.00000000E+00-1.39256944E-01 2.62026079E-01
 7  5-1.46104261E-02 0.00000000E+00 4.84286372E-03 2.83148818E-01 8.63077292E-04
 7  6 0.00000000E+00-1.32444084E-03 1.39256944E-01-2.62026079E-01-1.46104261E-02
 7  7 0.00000000E+00-4.84286372E-03-2.83148818E-01 8.63077292E-04 0.00000000E+00
 7  8 1.32444084E-03 9.96707555E-02 2.34394245E-02-9.96707555E-02-2.34394245E-02
 7  9 9.38540621E-02 1.84529370E-02-9.38540621E-02-1.84529370E-02 9.38540621E-02
 7 10 1.84529370E-02-9.38540621E-02-1.84529370E-02
 8  1-1.34575595E-01 3.02150160E-01 0.00000000E+00 0.00000000E+00-1.38560957E-02
 8  2 3.01417579E-01 0.00000000E+00 0.00000000E+00-8.12453368E-02 8.17501683E-02
 8  3-1.87916027E-01 0.00000000E+00 0.00000000E+00-2.59244719E-01-2.80081926E-01
 8  4 0.00000000E+00 0.00000000E+00-1.29040085E-01 4.79779569E-02-8.56508684E-02
 8  5 1.75998172E-01 0.00000000E+00 9.90541562E-02-1.51604177E-01 3.67271191E-02
 8  6 0.00000000E+00 3.57535221E-02 4.79779569E-02-8.56508684E-02-1.75998172E-01
 8  7 0.00000000E+00 9.90541562E-02-1.51604177E-01-3.67271191E-02 0.00000000E+00
 8  8 3.57535221E-02-8.51810240E-02-5.11166596E-02-8.51810240E-02-5.11166596E-02
 8  9-7.84801334E-02-3.93723945E-02-7.84801334E-02-3.93723945E-02-7.84801334E-02
 8 10-3.93723945E-02-7.84801334E-02-3.93723945E-02
 9  1 0.00000000E+00 0.00000000E+00 3.54414566E-01 0.00000000E+00 0.00000000E+00
 9  2 0.00000000E+00 1.74710249E-01 0.00000000E+00 0.00000000E+00 0.00000000E+00
 9  3 0.00000000E+00 2.11106632E-01 0.00000000E+00 0.00000000E+00 0.00000000E+00
 9  4 9.18648988E-02 0.00000000E+00 0.00000000E+00-1.07114250E-02 1.03323009E-02
 9  5-1.28466001E-01 0.00000000E+00-2.47347800E-01 6.41362486E-02-4.27749464E-02
 9  6 0.00000000E+00-1.02486729E-01 1.07114250E-02-1.03323009E-02-1.28466001E-01
 9  7 0.00000000E+00 2.47347800E-01-6.41362486E-02-4.27749464E-02 0.00000000E+00
 9  8 1.02486729E-01-2.09602864E-02-1.08117866E-02 2.09602864E-02 1.08117866E-02
 9  9 1.04944221E-01 7.24577763E-02-1.04944221E-01-7.24577763E-02 1.04944221E-01
 9 10 7.24577763E-02-1.04944221E-01-7.24577763E-02
10  1-5.57476082E-03-1.98326683E-02 0.00000000E+00 0.00000000E+00-3.24922794E-01
10  2 9.28883339E-02 0.00000000E+00 0.00000000E+00-4.17941264E-02-5.79826662E-02
10  3 1.31546580E-01 0.00000000E+00 0.00000000E+00 3.65832285E-01 2.32164538E-01
10  4 0.00000000E+00 0.00000000E+00 2.01775763E-01 1.15241673E-02-2.05475509E-02
10  5 2.08468432E-01 0.00000000E+00-7.95652399E-02-4.42334178E-02 1.06122175E-01
10  6 0.00000000E+00-4.98390081E-02 1.15241673E-02-2.05475509E-02-2.08468432E-01
10  7 0.00000000E+00-7.95652399E-02-4.42334178E-02-1.06122175E-01 0.00000000E+00
10  8-4.98390081E-02-1.39031297E-01-7.39109728E-02-1.39031297E-01-7.39109728E-02
10  9 1.01712391E-02 8.87765094E-03 1.01712391E-02 8.87765094E-03 1.01712391E-02
10 10 8.87765094E-03 1.01712391E-02 8.87765094E-03
11  1 0.00000000E+00 0.00000000E+00 0.00000000E+00 7.99729120E-02 0.00000000E+00
11  2 0.00000000E+00 0.00000000E+00 7.26413029E-03 0.00000000E+00 0.00000000E+00
11  3 0.00000000E+00 0.00000000E+00-1.86503532E-02 0.00000000E+00 0.00000000E+00
11  4 0.00000000E+00-2.98759629E-02 0.00000000E+00 0.00000000E+00 0.00000000E+00
11  5 0.00000000E+00 3.03962822E-01 0.00000000E+00 0.00000000E+00 0.00000000E+00
11  6 1.54956259E-01 0.00000000E+00 0.00000000E+00 0.00000000E+00 0.00000000E+00
11  7 3.03962822E-01 0.00000000E+00 0.00000000E+00 0.00000000E+00 1.54956259E-01
11  8 0.00000000E+00 0.00000000E+00 0.00000000E+00 0.00000000E+00 0.00000000E+00
11  9 1.67463647E-01 1.32510082E-01 1.67463647E-01 1.32510082E-01-1.67463647E-01
11 10-1.32510082E-01-1.67463647E-01-1.32510082E-01
12  1 0.00000000E+00 0.00000000E+00 0.00000000E+00 0.00000000E+00 0.00000000E+00
12  2 0.00000000E+00 0.00000000E+00 0.00000000E+00 0.00000000E+00 0.00000000E+00
12  3 0.00000000E+00 0.00000000E+00 0.00000000E+00 0.00000000E+00 0.00000000E+00
12  4 0.00000000E+00 0.00000000E+00 0.00000000E+00 0.00000000E+00 0.00000000E+00
12  5 0.00000000E+00 3.18381920E-01 0.00000000E+00 0.00000000E+00 0.00000000E+00
12  6 1.71435154E-01 0.00000000E+00 0.00000000E+00 0.00000000E+00 0.00000000E+00
12  7-3.18381920E-01 0.00000000E+00 0.00000000E+00 0.00000000E+00-1.71435154E-01
12  8 0.00000000E+00 0.00000000E+00 0.00000000E+00 0.00000000E+00 0.00000000E+00
12  9 1.76579380E-01 1.33964595E-01-1.76579380E-01-1.33964595E-01-1.76579380E-01
12 10-1.33964595E-01 1.76579380E-01 1.33964595E-01
13  1-1.30617650E-02 1.15088547E-02 0.00000000E+00 0.00000000E+00-2.27011555E-01
13  2 9.91194496E-02 0.00000000E+00 0.00000000E+00-2.66709606E-02-1.52392043E-02
13  3 3.04342807E-02 0.00000000E+00 0.00000000E+00 2.79214090E-01 6.53507010E-02
13  4 0.00000000E+00 0.00000000E+00 1.70201315E-01-7.08348615E-03 1.48777390E-02
13  5-3.45674399E-02 0.00000000E+00 2.80278901E-01 2.77288734E-02-2.42750835E-02
13  6 0.00000000E+00 1.43468801E-01-7.08348615E-03 1.48777390E-02 3.45674399E-02
13  7 0.00000000E+00 2.80278901E-01 2.77288734E-02 2.42750835E-02 0.00000000E+00
13  8 1.43468801E-01 1.43300576E-01 1.09399663E-01 1.43300576E-01 1.09399663E-01
13  9-1.08312942E-01-9.10802300E-02-1.08312942E-01-9.10802300E-02-1.08312942E-01
13 10-9.10802300E-02-1.08312942E-01-9.10802300E-02
14  1 0.00000000E+00 0.00000000E+00-1.90950172E-01 0.00000000E+00 0.00000000E+00
14  2 0.00000000E+00-1.16155436E-01 0.00000000E+00 0.00000000E+00 0.00000000E+00
14  3 0.00000000E+00-9.11983189E-02 0.00000000E+00 0.00000000E+00 0.00000000E+00
14  4-3.56464452E-02 0.00000000E+00 0.00000000E+00-8.72333869E-03 1.86674654E-02
14  5 2.75684554E-01 0.00000000E+00-1.64476572E-01 9.88269362E-03 1.53234020E-01
14  6 0.00000000E+00-1.08060500E-01 8.72333869E-03-1.86674654E-02 2.75684554E-01
14  7 0.00000000E+00 1.64476572E-01-9.88269362E-03 1.53234020E-01 0.00000000E+00
14  8 1.08060500E-01-2.15905517E-01-1.64410180E-01 2.15905517E-01 1.64410180E-01
14  9 6.59000556E-02 4.56515996E-02-6.59000556E-02-4.56515996E-02 6.59000556E-02
14 10 4.56515996E-02-6.59000556E-02-4.56515996E-02
15  1 0.00000000E+00 0.00000000E+00 0.00000000E+00 3.50137721E-01 0.00000000E+00
15  2 0.00000000E+00 0.00000000E+00 2.34057675E-01 0.00000000E+00 0.00000000E+00
15  3 0.00000000E+00 0.00000000E+00 5.09096173E-01 0.00000000E+00 0.00000000E+00
15  4 0.00000000E+00 3.33873222E-01 0.00000000E+00 0.00000000E+00 0.00000000E+00
15  5 0.00000000E+00-2.30546923E-02 0.00000000E+00 0.00000000E+00 0.00000000E+00
15  6-3.56834603E-02 0.00000000E+00 0.00000000E+00 0.00000000E+00 0.00000000E+00
15  7-2.30546923E-02 0.00000000E+00 0.00000000E+00 0.00000000E+00-3.56834603E-02
15  8 0.00000000E+00 0.00000000E+00 0.00000000E+00 0.00000000E+00 0.00000000E+00
15  9-3.23820394E-02-4.53696406E-02-3.23820394E-02-4.53696406E-02 3.23820394E-02
15 10 4.53696406E-02 3.23820394E-02 4.53696406E-02
16  1 0.00000000E+00 0.00000000E+00-1.34785059E-01 0.00000000E+00 0.00000000E+00
16  2 0.00000000E+00 7.77657098E-02 0.00000000E+00 0.00000000E+00 0.00000000E+00
16  3 0.00000000E+00 6.11089108E-01 0.00000000E+00 0.00000000E+00 0.00000000E+00
16  4 4.54582620E-01 0.00000000E+00 0.00000000E+00-3.80057520E-02 6.33443380E-02
16  5 1.40990227E-01 0.00000000E+00 1.24766626E-01 2.55482137E-01 1.19360915E-01
16  6 0.00000000E+00 1.02940789E-01 3.80057520E-02-6.33443380E-02 1.40990227E-01
16  7 0.00000000E+00-1.24766626E-01-2.55482137E-01 1.19360915E-01 0.00000000E+00
16  8-1.02940789E-01-1.12722190E-03-5.02601852E-02 1.12722190E-03 5.02601852E-02
16  9-2.79862342E-02-4.91191684E-02 2.79862342E-02 4.91191684E-02-2.79862342E-02
16 10-4.91191684E-02 2.79862342E-02 4.91191684E-02
17  1 0.00000000E+00 0.00000000E+00 0.00000000E+00-5.81203071E-01 0.00000000E+00
17  2 0.00000000E+00 0.00000000E+00-4.44581617E-01 0.00000000E+00 0.00000000E+00
17  3 0.00000000E+00 0.00000000E+00 6.28472877E-01 0.00000000E+00 0.00000000E+00
17  4 0.00000000E+00 1.87516565E-01 0.00000000E+00 0.00000000E+00 0.00000000E+00
17  5 0.00000000E+00 4.31809551E-02 0.00000000E+00 0.00000000E+00 0.00000000E+00
17  6 7.47322293E-02 0.00000000E+00 0.00000000E+00 0.00000000E+00 0.00000000E+00
17  7 4.31809551E-02 0.00000000E+00 0.00000000E+00 0.00000000E+00 7.47322293E-02
17  8 0.00000000E+00 0.00000000E+00 0.00000000E+00 0.00000000E+00 0.00000000E+00
17  9 5.29762380E-02 7.11965712E-02 5.29762380E-02 7.11965712E-02-5.29762380E-02
17 10-7.11965712E-02-5.29762380E-02-7.11965712E-02
18  1 6.23349688E-03 6.48315991E-02 0.00000000E+00 0.00000000E+00-1.65505269E-02
18  2-2.82002493E-01 0.00000000E+00 0.00000000E+00-1.85457659E-01-1.90136631E-02
18  3 3.02709527E-02 0.00000000E+00 0.00000000E+00-2.81681537E-02 2.86876728E-01
18  4 0.00000000E+00 0.00000000E+00-1.31712285E-01-9.33974489E-02 6.06227631E-02
18  5-3.36846794E-02 0.00000000E+00-9.62002393E-02 1.68670843E+00-3.26164359E-01
18  6 0.00000000E+00-3.71035552E-01-9.33974489E-02 6.06227631E-02 3.36846794E-02
18  7 0.00000000E+00-9.62002393E-02 1.68670843E+00 3.26164359E-01 0.00000000E+00
18  8-3.71035552E-01-7.55296822E-03-5.79882229E-01-7.55296822E-03-5.79882229E-01
18  9 6.19324307E-03-9.45017332E-01 6.19324307E-03-9.45017332E-01 6.19324307E-03
18 10-9.45017332E-01 6.19324307E-03-9.45017332E-01
19  1 9.77844029E-03 2.30913107E-02 0.00000000E+00 0.00000000E+00-6.22284282E-02
19  2-2.94295785E-01 0.00000000E+00 0.00000000E+00 4.78673736E-02-1.48349271E-02
19  3 3.07915038E-02 0.00000000E+00 0.00000000E+00-1.00755346E-01 1.46748086E-01
19  4 0.00000000E+00 0.00000000E+00-1.46338892E-01 2.77027220E-02-4.24386442E-02
19  5 9.94878824E-02 0.00000000E+00-1.46868361E-01-3.35132539E-01 5.99808395E-01
19  6 0.00000000E+00-7.70579427E-01 2.77027220E-02-4.24386442E-02-9.94878824E-02
19  7 0.00000000E+00-1.46868361E-01-3.35132539E-01-5.99808395E-01 0.00000000E+00
19  8-7.70579427E-01 8.20048522E-02 1.44291452E+00 8.20048522E-02 1.44291452E+00
19  9-4.57427470E-02-4.34844458E-01-4.57427470E-02-4.34844458E-01-4.57427470E-02
19 10-4.34844458E-01-4.57427470E-02-4.34844458E-01
20  1 0.00000000E+00 0.00000000E+00 6.17612704E-02 0.00000000E+00 0.00000000E+00
20  2 0.00000000E+00 3.63750063E-01 0.00000000E+00 0.00000000E+00 0.00000000E+00
20  3 0.00000000E+00-8.07904405E-02 0.00000000E+00 0.00000000E+00 0.00000000E+00
20  4-1.33670636E-01 0.00000000E+00 0.00000000E+00-9.97005051E-02 4.09746067E-02
20  5-1.09367865E-01 0.00000000E+00-8.40805848E-02 2.05256775E+00-2.05772707E-01
20  6 0.00000000E+00-2.83166250E-01 9.97005051E-02-4.09746067E-02-1.09367865E-01
20  7 0.00000000E+00 8.40805848E-02-2.05256775E+00-2.05772707E-01 0.00000000E+00
20  8 2.83166250E-01 2.78094316E-02-7.03660333E-01-2.78094316E-02 7.03660333E-01
20  9-1.34988004E-02-1.01027982E+00 1.34988004E-02 1.01027982E+00-1.34988004E-02
20 10-1.01027982E+00 1.34988004E-02 1.01027982E+00
21  1 0.00000000E+00 0.00000000E+00 0.00000000E+00 5.82447209E-02 0.00000000E+00
21  2 0.00000000E+00 0.00000000E+00 5.44266859E-01 0.00000000E+00 0.00000000E+00
21  3 0.00000000E+00 0.00000000E+00-7.47738404E-03 0.00000000E+00 0.00000000E+00
21  4 0.00000000E+00-1.07666828E-01 0.00000000E+00 0.00000000E+00 0.00000000E+00
21  5 0.00000000E+00-2.54725662E-01 0.00000000E+00 0.00000000E+00 0.00000000E+00
21  6-1.16423325E+00 0.00000000E+00 0.00000000E+00 0.00000000E+00 0.00000000E+00
21  7-2.54725662E-01 0.00000000E+00 0.00000000E+00 0.00000000E+00-1.16423325E+00
21  8 0.00000000E+00 0.00000000E+00 0.00000000E+00 0.00000000E+00 0.00000000E+00
21  9-3.04953153E-03 1.20572740E+00-3.04953153E-03 1.20572740E+00 3.04953153E-03
21 10-1.20572740E+00 3.04953153E-03-1.20572740E+00
22  1 0.00000000E+00 0.00000000E+00 0.00000000E+00 0.00000000E+00 0.00000000E+00
22  2 0.00000000E+00 0.00000000E+00 0.00000000E+00 0.00000000E+00 0.00000000E+00
22  3 0.00000000E+00 0.00000000E+00 0.00000000E+00 0.00000000E+00 0.00000000E+00
22  4 0.00000000E+00 0.00000000E+00 0.00000000E+00 0.00000000E+00 0.00000000E+00
22  5 0.00000000E+00-2.18891829E-01 0.00000000E+00 0.00000000E+00 0.00000000E+00
22  6-1.11062817E+00 0.00000000E+00 0.00000000E+00 0.00000000E+00 0.00000000E+00
22  7 2.18891829E-01 0.00000000E+00 0.00000000E+00 0.00000000E+00 1.11062817E+00
22  8 0.00000000E+00 0.00000000E+00 0.00000000E+00 0.00000000E+00 0.00000000E+00
22  9 6.61819696E-02 1.22696244E+00-6.61819696E-02-1.22696244E+00-6.61819696E-02
22 10-1.22696244E+00 6.61819696E-02 1.22696244E+00
23  1 0.00000000E+00 0.00000000E+00 7.02214960E-02 0.00000000E+00 0.00000000E+00
23  2 0.00000000E+00 5.56909944E-03 0.00000000E+00 0.00000000E+00 0.00000000E+00
23  3 0.00000000E+00 5.69264171E-03 0.00000000E+00 0.00000000E+00 0.00000000E+00
23  4-3.60981239E-02 0.00000000E+00 0.00000000E+00-1.17372674E-03 2.18825519E-02
23  5 1.94415803E-01 0.00000000E+00-1.78332295E-01-2.09967295E-01 7.93620121E-01
23  6 0.00000000E+00-8.19064145E-01 1.17372674E-03-2.18825519E-02 1.94415803E-01
23  7 0.00000000E+00 1.78332295E-01 2.09967295E-01 7.93620121E-01 0.00000000E+00
23  8 8.19064145E-01 3.52853556E-02 1.57973898E+00-3.52853556E-02-1.57973898E+00
23  9-8.62877599E-03-5.46755301E-01 8.62877599E-03 5.46755301E-01-8.62877599E-03
23 10-5.46755301E-01 8.62877599E-03 5.46755301E-01
24  1-1.50074198E-01 1.13317731E-01 0.00000000E+00 0.00000000E+00-2.16786781E-01
24  2 3.29883596E+00 0.00000000E+00 0.00000000E+00-1.35190635E+00 4.98716339E-03
24  3-2.66092064E-02 0.00000000E+00 0.00000000E+00 8.62444935E-02 1.03221088E-01
24  4 0.00000000E+00 0.00000000E+00 1.26944847E-01 6.94050896E-02-9.06843807E-03
24  5-9.00387302E-02 0.00000000E+00-9.55298399E-02-1.50327913E+00-1.37785013E+00
24  6 0.00000000E+00-5.10109168E-01 6.94050896E-02-9.06843807E-03 9.00387302E-02
24  7 0.00000000E+00-9.55298399E-02-1.50327913E+00 1.37785013E+00 0.00000000E+00
24  8-5.10109168E-01-4.63428995E-02-7.90883270E-02-4.63428995E-02-7.90883270E-02
24  9-2.70403025E-02 3.25887377E-02-2.70403025E-02 3.25887377E-02-2.70403025E-02
24 10 3.25887377E-02-2.70403025E-02 3.25887377E-02
25  1 0.00000000E+00 0.00000000E+00 5.08661167E-01 0.00000000E+00 0.00000000E+00
25  2 0.00000000E+00 2.76760057E+00 0.00000000E+00 0.00000000E+00 0.00000000E+00
25  3 0.00000000E+00-1.01223713E-01 0.00000000E+00 0.00000000E+00 0.00000000E+00
25  4-5.43299467E-01 0.00000000E+00 0.00000000E+00-5.17459434E-02-4.25654178E-02
25  5 3.21753844E-02 0.00000000E+00 1.98269370E-02 1.56718113E+00 1.26166238E+00
25  6 0.00000000E+00 1.49323937E+00 5.17459434E-02 4.25654178E-02 3.21753844E-02
25  7 0.00000000E+00-1.98269370E-02-1.56718113E+00 1.26166238E+00 0.00000000E+00
25  8-1.49323937E+00 4.70860165E-02-1.69943161E-01-4.70860165E-02 1.69943161E-01
25  9 7.32535142E-02 4.06776924E-01-7.32535142E-02-4.06776924E-01 7.32535142E-02
25 10 4.06776924E-01-7.32535142E-02-4.06776924E-01
26  1-5.14915224E-02-6.41414363E-02 0.00000000E+00 0.00000000E+00 1.03479841E-01
26  2 1.71872444E+00 0.00000000E+00 0.00000000E+00 2.82261830E+00 1.09907717E-01
26  3-1.34902914E-01 0.00000000E+00 0.00000000E+00 1.21664670E-01-2.54028538E+00
26  4 0.00000000E+00 0.00000000E+00 1.04360197E+00 9.95517655E-04-6.33385751E-02
26  5-3.80497337E-02 0.00000000E+00-1.41142663E-01 7.09018636E-01 5.34889874E-01
26  6 0.00000000E+00-6.62898785E-01 9.95517655E-04-6.33385751E-02 3.80497337E-02
26  7 0.00000000E+00-1.41142663E-01 7.09018636E-01-5.34889874E-01 0.00000000E+00
26  8-6.62898785E-01-9.77199623E-02 4.40730733E-01-9.77199623E-02 4.40730733E-01
26  9 2.77083001E-02-4.02998750E-01 2.77083001E-02-4.02998750E-01 2.77083001E-02
26 10-4.02998750E-01 2.77083001E-02-4.02998750E-01
27  1-3.50845722E-02 1.10576319E-01 0.00000000E+00 0.00000000E+00-3.41771080E-02
27  2 8.28729475E-02 0.00000000E+00 0.00000000E+00 1.14549427E+00 1.85873977E-02
27  3 1.05388604E-02 0.00000000E+00 0.00000000E+00 7.22030017E-03-7.62636917E-01
27  4 0.00000000E+00 0.00000000E+00 2.60328652E-01 8.46711940E-03-1.85665465E-01
27  5-4.96909682E-01 0.00000000E+00 2.76472200E-01 6.68989098E-01 7.65189992E-01
27  6 0.00000000E+00-8.58363151E-01 8.46711940E-03-1.85665465E-01 4.96909682E-01
27  7 0.00000000E+00 2.76472200E-01 6.68989098E-01-7.65189992E-01 0.00000000E+00
27  8-8.58363151E-01 3.34593575E-01 1.98588134E-02 3.34593575E-01 1.98588134E-02
27  9-2.00637106E-01-2.08970944E-01-2.00637106E-01-2.08970944E-01-2.00637106E-01
27 10-2.08970944E-01-2.00637106E-01-2.08970944E-01
28  1 0.00000000E+00 0.00000000E+00 0.00000000E+00 8.09060194E-01 0.00000000E+00
28  2 0.00000000E+00 0.00000000E+00-6.33311189E-01 0.00000000E+00 0.00000000E+00
28  3 0.00000000E+00 0.00000000E+00 6.90365574E-02 0.00000000E+00 0.00000000E+00
28  4 0.00000000E+00 6.91658881E-02 0.00000000E+00 0.00000000E+00 0.00000000E+00
28  5 0.00000000E+00 3.04499309E-01 0.00000000E+00 0.00000000E+00 0.00000000E+00
28  6-6.77639241E-01 0.00000000E+00 0.00000000E+00 0.00000000E+00 0.00000000E+00
28  7 3.04499309E-01 0.00000000E+00 0.00000000E+00 0.00000000E+00-6.77639241E-01
28  8 0.00000000E+00 0.00000000E+00 0.00000000E+00 0.00000000E+00 0.00000000E+00
28  9 2.33180183E-01 2.28358463E-01 2.33180183E-01 2.28358463E-01-2.33180183E-01
28 10-2.28358463E-01-2.33180183E-01-2.28358463E-01
29  1 0.00000000E+00 0.00000000E+00 0.00000000E+00 0.00000000E+00 0.00000000E+00
29  2 0.00000000E+00 0.00000000E+00 0.00000000E+00 0.00000000E+00 0.00000000E+00
29  3 0.00000000E+00 0.00000000E+00 0.00000000E+00 0.00000000E+00 0.00000000E+00
29  4 0.00000000E+00 0.00000000E+00 0.00000000E+00 0.00000000E+00 0.00000000E+00
29  5 0.00000000E+00-5.74778424E-01 0.00000000E+00 0.00000000E+00 0.00000000E+00
29  6 1.15323286E+00 0.00000000E+00 0.00000000E+00 0.00000000E+00 0.00000000E+00
29  7 5.74778424E-01 0.00000000E+00 0.00000000E+00 0.00000000E+00-1.15323286E+00
29  8 0.00000000E+00 0.00000000E+00 0.00000000E+00 0.00000000E+00 0.00000000E+00
29  9-3.15310307E-01-1.31068014E-01 3.15310307E-01 1.31068014E-01 3.15310307E-01
29 10 1.31068014E-01-3.15310307E-01-1.31068014E-01
30  1 0.00000000E+00 0.00000000E+00-4.07451220E-02 0.00000000E+00 0.00000000E+00
30  2 0.00000000E+00-6.15856550E-01 0.00000000E+00 0.00000000E+00 0.00000000E+00
30  3 0.00000000E+00 3.29360432E-01 0.00000000E+00 0.00000000E+00 0.00000000E+00
30  4 9.00839404E-02 0.00000000E+00 0.00000000E+00 2.13491687E-02-2.12085389E-01
30  5-3.70992043E-01 0.00000000E+00-5.24349751E-01-2.07379860E-01 1.26699288E-01
30  6 0.00000000E+00 6.47871332E-01-2.13491687E-02 2.12085389E-01-3.70992043E-01
30  7 0.00000000E+00 5.24349751E-01 2.07379860E-01 1.26699288E-01 0.00000000E+00
30  8-6.47871332E-01-2.25556044E-01-8.74327816E-04 2.25556044E-01 8.74327816E-04
30  9 1.69850991E-01 1.87032388E-02-1.69850991E-01-1.87032388E-02 1.69850991E-01
30 10 1.87032388E-02-1.69850991E-01-1.87032388E-02
31  1 6.52219045E-02 1.84771786E-01 0.00000000E+00 0.00000000E+00 5.64183904E-02
31  2 4.54622538E-01 0.00000000E+00 0.00000000E+00 1.30736599E+00 9.52170510E-03
31  3 6.44394891E-02 0.00000000E+00 0.00000000E+00-6.20231060E-02-8.88618565E-01
31  4 0.00000000E+00 0.00000000E+00 2.87509909E-01-3.19948665E-02 1.68563558E-01
31  5 4.80129602E-01 0.00000000E+00 6.03981517E-01 5.10044096E-01-1.60516274E-01
31  6 0.00000000E+00-1.12709998E+00-3.19948665E-02 1.68563558E-01-4.80129602E-01
31  7 0.00000000E+00 6.03981517E-01 5.10044096E-01 1.60516274E-01 0.00000000E+00
31  8-1.12709998E+00-6.63237302E-02 2.44426704E-01-6.63237302E-02 2.44426704E-01
31  9-1.12208672E-01-2.98627704E-01-1.12208672E-01-2.98627704E-01-1.12208672E-01
31 10-2.98627704E-01-1.12208672E-01-2.98627704E-01
32  1 0.00000000E+00 0.00000000E+00 0.00000000E+00-6.60553132E-01 0.00000000E+00
32  2 0.00000000E+00 0.00000000E+00 1.81853887E+00 0.00000000E+00 0.00000000E+00
32  3 0.00000000E+00 0.00000000E+00-1.17296751E-01 0.00000000E+00 0.00000000E+00
32  4 0.00000000E+00-2.45934198E-01 0.00000000E+00 0.00000000E+00 0.00000000E+00
32  5 0.00000000E+00 5.14027241E-01 0.00000000E+00 0.00000000E+00 0.00000000E+00
32  6-1.71707128E+00 0.00000000E+00 0.00000000E+00 0.00000000E+00 0.00000000E+00
32  7 5.14027241E-01 0.00000000E+00 0.00000000E+00 0.00000000E+00-1.71707128E+00
32  8 0.00000000E+00 0.00000000E+00 0.00000000E+00 0.00000000E+00 0.00000000E+00
32  9 2.08468434E-01 5.18670105E-01 2.08468434E-01 5.18670105E-01-2.08468434E-01
32 10-5.18670105E-01-2.08468434E-01-5.18670105E-01
33  1 0.00000000E+00 0.00000000E+00-8.93638946E-01 0.00000000E+00 0.00000000E+00
33  2 0.00000000E+00 1.89770698E+00 0.00000000E+00 0.00000000E+00 0.00000000E+00
33  3 0.00000000E+00-1.26724984E-01 0.00000000E+00 0.00000000E+00 0.00000000E+00
33  4-1.34934554E-01 0.00000000E+00 0.00000000E+00 4.28891772E-02-4.31790561E-02
33  5-4.53380917E-01 0.00000000E+00-1.82542592E-02 2.70517620E-01 1.32007614E+00
33  6 0.00000000E+00 2.21983845E-01-4.28891772E-02 4.31790561E-02-4.53380917E-01
33  7 0.00000000E+00 1.82542592E-02-2.70517620E-01 1.32007614E+00 0.00000000E+00
33  8-2.21983845E-01 3.33100165E-01 5.17445251E-01-3.33100165E-01-5.17445251E-01
33  9 9.57518876E-02 1.94094434E-01-9.57518876E-02-1.94094434E-01 9.57518876E-02
33 10 1.94094434E-01-9.57518876E-02-1.94094434E-01
34  1-4.24747500E-02 7.65904590E-01 0.00000000E+00 0.00000000E+00 1.16844173E+00
34  2 3.89173558E-01 0.00000000E+00 0.00000000E+00-1.07880285E+00 5.83808205E-02
34  3-1.65150768E-01 0.00000000E+00 0.00000000E+00 2.27822762E-01-3.81759265E-04
34  4 0.00000000E+00 0.00000000E+00 8.20366403E-01 3.15493501E-03 1.50078044E-01
34  5 4.80618264E-02 0.00000000E+00-1.51137682E-02-7.10526279E-01-1.41522237E-01
34  6 0.00000000E+00 1.21210715E-01 3.15493501E-03 1.50078044E-01-4.80618264E-02
34  7 0.00000000E+00-1.51137682E-02-7.10526279E-01 1.41522237E-01 0.00000000E+00
34  8 1.21210715E-01 7.44498870E-02 1.02878183E-01 7.44498870E-02 1.02878183E-01
34  9 5.72878480E-02 6.25312840E-02 5.72878480E-02 6.25312840E-02 5.72878480E-02
34 10 6.25312840E-02 5.72878480E-02 6.25312840E-02
35  1 0.00000000E+00 0.00000000E+00-5.89465315E-01 0.00000000E+00 0.00000000E+00
35  2 0.00000000E+00 3.01959065E+00 0.00000000E+00 0.00000000E+00 0.00000000E+00
35  3 0.00000000E+00-2.17607611E-01 0.00000000E+00 0.00000000E+00 0.00000000E+00
35  4-2.53295219E-01 0.00000000E+00 0.00000000E+00-7.44198114E-03-1.26128313E-01
35  5 4.89082363E-01 0.00000000E+00-4.55981643E-01 1.83783924E+00-6.94341463E-01
35  6 0.00000000E+00 1.96216786E+00 7.44198114E-03 1.26128313E-01 4.89082363E-01
35  7 0.00000000E+00 4.55981643E-01-1.83783924E+00-6.94341463E-01 0.00000000E+00
35  8-1.96216786E+00-1.21322925E-01-1.06066337E+00 1.21322925E-01 1.06066337E+00
35  9-1.14320220E-02 3.89123529E-01 1.14320220E-02-3.89123529E-01-1.14320220E-02
35 10 3.89123529E-01 1.14320220E-02-3.89123529E-01
36  1 1.04806261E-02-1.66763361E+00 0.00000000E+00 0.00000000E+00 4.91138654E-01
36  2 3.60628668E+00 0.00000000E+00 0.00000000E+00-1.42981646E+00-1.75048814E-03
36  3 4.43882602E-03 0.00000000E+00 0.00000000E+00-9.00668648E-02-4.12771968E-02
36  4 0.00000000E+00 0.00000000E+00 1.86256675E-01-3.94694046E-02-7.13273301E-02
36  5 1.15203559E-01 0.00000000E+00-1.32193753E-01-5.48226433E-01-1.00959480E+00
36  6 0.00000000E+00-1.40483708E-01-3.94694046E-02-7.13273301E-02-1.15203559E-01
36  7 0.00000000E+00-1.32193753E-01-5.48226433E-01 1.00959480E+00 0.00000000E+00
36  8-1.40483708E-01-1.96853000E-02-4.51461453E-01-1.96853000E-02-4.51461453E-01
36  9-3.03214975E-01-1.32120266E-02-3.03214975E-01-1.32120266E-02-3.03214975E-01
36 10-1.32120266E-02-3.03214975E-01-1.32120266E-02
37  1 0.00000000E+00 0.00000000E+00 0.00000000E+00-8.70132492E-02 0.00000000E+00
37  2 0.00000000E+00 0.00000000E+00-3.85522555E-01 0.00000000E+00 0.00000000E+00
37  3 0.00000000E+00 0.00000000E+00-5.10276504E-01 0.00000000E+00 0.00000000E+00
37  4 0.00000000E+00 7.69133333E-01 0.00000000E+00 0.00000000E+00 0.00000000E+00
37  5 0.00000000E+00-4.96069026E-01 0.00000000E+00 0.00000000E+00 0.00000000E+00
37  6 6.18283897E-01 0.00000000E+00 0.00000000E+00 0.00000000E+00 0.00000000E+00