!    surface/volume polarization for water in water
!    The GVB computation is a nonsense wavefunction, who cares about
!    the HOMO to LUMO double excitation TCSCF?  But the results are
!    very close to RHF this way.
!
!    FINAL E= -76.0299137536, rxn fld E= -.015555542
!
!    This run takes 1 second on 1.2 GHz Power4+ (18 Jul 2006)
!    very small change in energy May 2009 and again Oct 2013.
!
 $contrl scftyp=gvb mult=1 runtyp=energy $end
 $system mwords=5 $end
 $guess  guess=moread norb=19 $end
 $basis  gbasis=n31 ngauss=6 ndfunc=1 $end
 $scf    dirscf=.t. $end
 $svp    rhoiso=0.001 dielst=78.39 nptleb=110 itrngr=2 irotgr=2 
         iprdn=2 $end

!   for triplet state (for purposes of comparing to ROHF test)
--- $scf    nco=4 nseto=2 no(1)=1,1 $end
!   for singlet state
 $scf    nco=4 npair=1 $end

 $data
water...SVP model
Cnv 2

O   8.0  0.0          0.0 -0.0486020332
H   1.0  0.7545655371 0.0  0.5243010666
 $end

--- CLOSED SHELL ORBITALS --- GENERATED AT Thu Feb 10 22:26:07 2005
water...SVP model                                                               
E(RHF)=      -76.0107462712, E(NUC)=    9.2874668413,   10 ITERS
--- $VEC
 1  1 9.94622636E-01 2.11722689E-02 0.00000000E+00 0.00000000E+00 1.33669829E-03
 1  2 4.14843561E-03 0.00000000E+00 0.00000000E+00-4.60030890E-04-4.21099993E-03
 1  3-3.94328021E-03-4.08838072E-03 0.00000000E+00 0.00000000E+00 0.00000000E+00
 1  4 3.24363380E-04-2.05633231E-04 3.24363380E-04-2.05633231E-04
 2  1-2.09544962E-01 4.75777094E-01 0.00000000E+00 0.00000000E+00 9.46363052E-02
 2  2 4.35404157E-01 0.00000000E+00 0.00000000E+00 4.97721417E-02 2.69699509E-02
 2  3-1.03352387E-03 2.12684770E-02 0.00000000E+00 0.00000000E+00 0.00000000E+00
 2  4 1.32988047E-01 1.73088822E-03 1.32988047E-01 1.73088822E-03
 3  1 0.00000000E+00 0.00000000E+00 5.08859755E-01 0.00000000E+00 0.00000000E+00
 3  2 0.00000000E+00 3.03823727E-01 0.00000000E+00 0.00000000E+00 0.00000000E+00
 3  3 0.00000000E+00 0.00000000E+00 0.00000000E+00 5.08466700E-02 0.00000000E+00
 3  4-2.32478469E-01-1.07175390E-01 2.32478469E-01 1.07175390E-01
 4  1 7.30299514E-02-1.63505673E-01 0.00000000E+00 0.00000000E+00 5.57865364E-01
 4  2-3.25228014E-01 0.00000000E+00 0.00000000E+00 4.05029926E-01-7.70122421E-04
 4  3-1.18622118E-02 4.62560695E-02 0.00000000E+00 0.00000000E+00 0.00000000E+00
 4  4 1.39984456E-01 8.27816802E-02 1.39984456E-01 8.27816802E-02
 5  1 0.00000000E+00 0.00000000E+00 0.00000000E+00 6.39255773E-01 0.00000000E+00
 5  2 0.00000000E+00 0.00000000E+00 5.11848747E-01 0.00000000E+00 0.00000000E+00
 5  3 0.00000000E+00 0.00000000E+00 0.00000000E+00 0.00000000E+00 3.41395263E-02
 5  4 0.00000000E+00 0.00000000E+00 0.00000000E+00 0.00000000E+00
 6  1-1.01478989E-01 5.57950319E-02 0.00000000E+00 0.00000000E+00 2.11787803E-01
 6  2 1.43988530E+00 0.00000000E+00 0.00000000E+00 5.02160512E-01-5.67594040E-02
 6  3-7.27910559E-02-4.48127023E-02 0.00000000E+00 0.00000000E+00 0.00000000E+00
 6  4-5.37885318E-02-1.05154256E+00-5.37885318E-02-1.05154256E+00
 7  1 0.00000000E+00 0.00000000E+00 3.25656194E-01 0.00000000E+00 0.00000000E+00
 7  2 0.00000000E+00 8.40954982E-01 0.00000000E+00 0.00000000E+00 0.00000000E+00
 7  3 0.00000000E+00 0.00000000E+00 0.00000000E+00 2.32105554E-02 0.00000000E+00
 7  4 4.65347831E-02 1.41292637E+00-4.65347831E-02-1.41292637E+00
 8  1 0.00000000E+00 0.00000000E+00 8.80630402E-02 0.00000000E+00 0.00000000E+00
 8  2 0.00000000E+00 7.08914744E-01 0.00000000E+00 0.00000000E+00 0.00000000E+00
 8  3 0.00000000E+00 0.00000000E+00 0.00000000E+00-1.99199991E-01 0.00000000E+00
 8  4 8.39574298E-01-4.20480318E-01-8.39574298E-01 4.20480318E-01
 9  1 2.76929398E-03-8.96928208E-01 0.00000000E+00 0.00000000E+00 4.68970916E-01
 9  2 1.57869442E+00 0.00000000E+00 0.00000000E+00-7.54786305E-01-1.83102273E-01
 9  3-3.75982817E-01-3.16496663E-01 0.00000000E+00 0.00000000E+00 0.00000000E+00
 9  4 5.22434102E-01-4.38474806E-01 5.22434102E-01-4.38474806E-01
10  1 0.00000000E+00 0.00000000E+00 0.00000000E+00-9.62979332E-01 0.00000000E+00
10  2 0.00000000E+00 0.00000000E+00 1.03587238E+00 0.00000000E+00 0.00000000E+00
10  3 0.00000000E+00 0.00000000E+00 0.00000000E+00 0.00000000E+00 1.40267721E-02
10  4 0.00000000E+00 0.00000000E+00 0.00000000E+00 0.00000000E+00
11  1-5.11220987E-02-6.03267289E-02 0.00000000E+00 0.00000000E+00 7.34137199E-01
11  2 4.25758387E-01 0.00000000E+00 0.00000000E+00-3.19612897E-01-2.51555392E-01
11  3 7.70149890E-02-6.59094454E-02 0.00000000E+00 0.00000000E+00 0.00000000E+00
11  4-6.91003659E-01 3.64541529E-01-6.91003659E-01 3.64541529E-01
12  1 0.00000000E+00 0.00000000E+00-1.04034011E+00 0.00000000E+00 0.00000000E+00
12  2 0.00000000E+00 1.54151260E+00 0.00000000E+00 0.00000000E+00 0.00000000E+00
12  3 0.00000000E+00 0.00000000E+00 0.00000000E+00 2.66068738E-02 0.00000000E+00
12  4-1.08067567E-01 9.34438873E-01 1.08067567E-01-9.34438873E-01
13  1-8.55935186E-02-1.44425164E+00 0.00000000E+00 0.00000000E+00-5.01543606E-01
13  2 3.63833165E+00 0.00000000E+00 0.00000000E+00 1.15702218E+00-6.43734444E-01
13  3-2.93972155E-01-4.03569602E-01 0.00000000E+00 0.00000000E+00 0.00000000E+00
13  4-2.99709720E-01-8.12899219E-01-2.99709720E-01-8.12899219E-01
14  1 7.48553896E-03 7.85394824E-02 0.00000000E+00 0.00000000E+00 2.82712583E-03
14  2-2.34110475E-01 0.00000000E+00 0.00000000E+00-1.30490319E-01-5.62634759E-01
14  3-3.86761008E-01 1.01148569E+00 0.00000000E+00 0.00000000E+00 0.00000000E+00
14  4 8.06688123E-02 3.73217438E-02 8.06688123E-02 3.73217438E-02
15  1 0.00000000E+00 0.00000000E+00 0.00000000E+00 0.00000000E+00 0.00000000E+00
15  2 0.00000000E+00 0.00000000E+00 0.00000000E+00 0.00000000E+00 0.00000000E+00
15  3 0.00000000E+00 0.00000000E+00 1.00000000E+00 0.00000000E+00 0.00000000E+00
15  4 0.00000000E+00 0.00000000E+00 0.00000000E+00 0.00000000E+00
16  1 0.00000000E+00 0.00000000E+00 0.00000000E+00-8.32206801E-03 0.00000000E+00
16  2 0.00000000E+00 0.00000000E+00-3.20260408E-02 0.00000000E+00 0.00000000E+00
16  3 0.00000000E+00 0.00000000E+00 0.00000000E+00 0.00000000E+00 9.99318639E-01
16  4 0.00000000E+00 0.00000000E+00 0.00000000E+00 0.00000000E+00
17  1-5.86143840E-02-4.83158611E-01 0.00000000E+00 0.00000000E+00-3.59619712E-02
17  2 1.59402274E+00 0.00000000E+00 0.00000000E+00 7.40884801E-01 7.75724729E-01
17  3-1.13069077E+00 1.59259777E-02 0.00000000E+00 0.00000000E+00 0.00000000E+00
17  4-8.58663580E-01-1.46803583E-01-8.58663580E-01-1.46803583E-01
18  1 0.00000000E+00 0.00000000E+00-6.52662099E-03 0.00000000E+00 0.00000000E+00
18  2 0.00000000E+00 9.00100223E-01 0.00000000E+00 0.00000000E+00 0.00000000E+00
18  3 0.00000000E+00 0.00000000E+00 0.00000000E+00 1.29525125E+00 0.00000000E+00
18  4 9.76506388E-01-2.47591143E-02-9.76506388E-01 2.47591143E-02
19  1-4.67005878E-01 3.19900429E-01 0.00000000E+00 0.00000000E+00-1.17497274E-01
19  2 3.65013235E+00 0.00000000E+00 0.00000000E+00 3.14483434E-01-1.53492162E+00
19  3-1.56197171E+00-1.54930980E+00 0.00000000E+00 0.00000000E+00 0.00000000E+00
19  4 1.36926491E-01-5.55741577E-01 1.36926491E-01-5.55741577E-01
 1  1 9.94622636E-01 2.11722689E-02 0.00000000E+00 0.00000000E+00 1.33669829E-03
 1  2 4.14843561E-03 0.00000000E+00 0.00000000E+00-4.60030890E-04-4.21099993E-03
 1  3-3.94328021E-03-4.08838072E-03 0.00000000E+00 0.00000000E+00 0.00000000E+00
 1  4 3.24363380E-04-2.05633231E-04 3.24363380E-04-2.05633231E-04
 2  1-2.09544962E-01 4.75777094E-01 0.00000000E+00 0.00000000E+00 9.46363052E-02
 2  2 4.35404157E-01 0.00000000E+00 0.00000000E+00 4.97721417E-02 2.69699509E-02
 2  3-1.03352387E-03 2.12684770E-02 0.00000000E+00 0.00000000E+00 0.00000000E+00
 2  4 1.32988047E-01 1.73088822E-03 1.32988047E-01 1.73088822E-03
 3  1 0.00000000E+00 0.00000000E+00 5.08859755E-01 0.00000000E+00 0.00000000E+00
 3  2 0.00000000E+00 3.03823727E-01 0.00000000E+00 0.00000000E+00 0.00000000E+00
 3  3 0.00000000E+00 0.00000000E+00 0.00000000E+00 5.08466700E-02 0.00000000E+00
 3  4-2.32478469E-01-1.07175390E-01 2.32478469E-01 1.07175390E-01
 4  1 7.30299514E-02-1.63505673E-01 0.00000000E+00 0.00000000E+00 5.57865364E-01
 4  2-3.25228014E-01 0.00000000E+00 0.00000000E+00 4.05029926E-01-7.70122421E-04
 4  3-1.18622118E-02 4.62560695E-02 0.00000000E+00 0.00000000E+00 0.00000000E+00
 4  4 1.39984456E-01 8.27816802E-02 1.39984456E-01 8.27816802E-02
 5  1 0.00000000E+00 0.00000000E+00 0.00000000E+00 6.39255773E-01 0.00000000E+00
 5  2 0.00000000E+00 0.00000000E+00 5.11848747E-01 0.00000000E+00 0.00000000E+00
 5  3 0.00000000E+00 0.00000000E+00 0.00000000E+00 0.00000000E+00 3.41395263E-02
 5  4 0.00000000E+00 0.00000000E+00 0.00000000E+00 0.00000000E+00
 6  1-1.01478989E-01 5.57950319E-02 0.00000000E+00 0.00000000E+00 2.11787803E-01
 6  2 1.43988530E+00 0.00000000E+00 0.00000000E+00 5.02160512E-01-5.67594040E-02
 6  3-7.27910559E-02-4.48127023E-02 0.00000000E+00 0.00000000E+00 0.00000000E+00
 6  4-5.37885318E-02-1.05154256E+00-5.37885318E-02-1.05154256E+00
 7  1 0.00000000E+00 0.00000000E+00 3.25656194E-01 0.00000000E+00 0.00000000E+00
 7  2 0.00000000E+00 8.40954982E-01 0.00000000E+00 0.00000000E+00 0.00000000E+00
 7  3 0.00000000E+00 0.00000000E+00 0.00000000E+00 2.32105554E-02 0.00000000E+00
 7  4 4.65347831E-02 1.41292637E+00-4.65347831E-02-1.41292637E+00
 8  1 0.00000000E+00 0.00000000E+00 8.80630402E-02 0.00000000E+00 0.00000000E+00
 8  2 0.00000000E+00 7.08914744E-01 0.00000000E+00 0.00000000E+00 0.00000000E+00
 8  3 0.00000000E+00 0.00000000E+00 0.00000000E+00-1.99199991E-01 0.00000000E+00
 8  4 8.39574298E-01-4.20480318E-01-8.39574298E-01 4.20480318E-01
 9  1 2.76929398E-03-8.96928208E-01 0.00000000E+00 0.00000000E+00 4.68970916E-01
 9  2 1.57869442E+00 0.00000000E+00 0.00000000E+00-7.54786305E-01-1.83102273E-01
 9  3-3.75982817E-01-3.16496663E-01 0.00000000E+00 0.00000000E+00 0.00000000E+00
 9  4 5.22434102E-01-4.38474806E-01 5.22434102E-01-4.38474806E-01
10  1 0.00000000E+00 0.00000000E+00 0.00000000E+00-9.62979332E-01 0.00000000E+00
10  2 0.00000000E+00 0.00000000E+00 1.03587238E+00 0.00000000E+00 0.00000000E+00
10  3 0.00000000E+00 0.00000000E+00 0.00000000E+00 0.00000000E+00 1.40267721E-02
10  4 0.00000000E+00 0.00000000E+00 0.00000000E+00 0.00000000E+00
11  1-5.11220987E-02-6.03267289E-02 0.00000000E+00 0.00000000E+00 7.34137199E-01
11  2 4.25758387E-01 0.00000000E+00 0.00000000E+00-3.19612897E-01-2.51555392E-01
11  3 7.70149890E-02-6.59094454E-02 0.00000000E+00 0.00000000E+00 0.00000000E+00
11  4-6.91003659E-01 3.64541529E-01-6.91003659E-01 3.64541529E-01
12  1 0.00000000E+00 0.00000000E+00-1.04034011E+00 0.00000000E+00 0.00000000E+00
12  2 0.00000000E+00 1.54151260E+00 0.00000000E+00 0.00000000E+00 0.00000000E+00
12  3 0.00000000E+00 0.00000000E+00 0.00000000E+00 2.66068738E-02 0.00000000E+00
12  4-1.08067567E-01 9.34438873E-01 1.08067567E-01-9.34438873E-01
13  1-8.55935186E-02-1.44425164E+00 0.00000000E+00 0.00000000E+00-5.01543606E-01
13  2 3.63833165E+00 0.00000000E+00 0.00000000E+00 1.15702218E+00-6.43734444E-01
13  3-2.93972155E-01-4.03569602E-01 0.00000000E+00 0.00000000E+00 0.00000000E+00
13  4-2.99709720E-01-8.12899219E-01-2.99709720E-01-8.12899219E-01
14  1 7.48553896E-03 7.85394824E-02 0.00000000E+00 0.00000000E+00 2.82712583E-03
14  2-2.34110475E-01 0.00000000E+00 0.00000000E+00-1.30490319E-01-5.62634759E-01
14  3-3.86761008E-01 1.01148569E+00 0.00000000E+00 0.00000000E+00 0.00000000E+00
14  4 8.06688123E-02 3.73217438E-02 8.06688123E-02 3.73217438E-02
15  1 0.00000000E+00 0.00000000E+00 0.00000000E+00 0.00000000E+00 0.00000000E+00
15  2 0.00000000E+00 0.00000000E+00 0.00000000E+00 0.00000000E+00 0.00000000E+00
15  3 0.00000000E+00 0.00000000E+00 1.00000000E+00 0.00000000E+00 0.00000000E+00
15  4 0.00000000E+00 0.00000000E+00 0.00000000E+00 0.00000000E+00
16  1 0.00000000E+00 0.00000000E+00 0.00000000E+00-8.32206801E-03 0.00000000E+00
16  2 0.00000000E+00 0.00000000E+00-3.20260408E-02 0.00000000E+00 0.00000000E+00
16  3 0.00000000E+00 0.00000000E+00 0.00000000E+00 0.00000000E+00 9.99318639E-01
16  4 0.00000000E+00 0.00000000E+00 0.00000000E+00 0.00000000E+00
17  1-5.86143840E-02-4.83158611E-01 0.00000000E+00 0.00000000E+00-3.59619712E-02
17  2 1.59402274E+00 0.00000000E+00 0.00000000E+00 7.40884801E-01 7.75724729E-01
17  3-1.13069077E+00 1.59259777E-02 0.00000000E+00 0.00000000E+00 0.00000000E+00
17  4-8.58663580E-01-1.46803583E-01-8.58663580E-01-1.46803583E-01
18  1 0.00000000E+00 0.00000000E+00-6.52662099E-03 0.00000000E+00 0.00000000E+00
18  2 0.00000000E+00 9.00100223E-01 0.00000000E+00 0.00000000E+00 0.00000000E+00
18  3 0.00000000E+00 0.00000000E+00 0.00000000E+00 1.29525125E+00 0.00000000E+00
18  4 9.76506388E-01-2.47591143E-02-9.76506388E-01 2.47591143E-02
19  1-4.67005878E-01 3.19900429E-01 0.00000000E+00 0.00000000E+00-1.17497274E-01
19  2 3.65013235E+00 0.00000000E+00 0.00000000E+00 3.14483434E-01-1.53492162E+00
19  3-1.56197171E+00-1.54930980E+00 0.00000000E+00 0.00000000E+00 0.00000000E+00
19  4 1.36926491E-01-5.55741577E-01 1.36926491E-01-5.55741577E-01
 $END
E(MCSCF)=      -76.0299137706, E(NUC)=        9.2874668413
 $VEC   
 1  1 9.94608415E-01 2.11877480E-02 0.00000000E+00 0.00000000E+00 1.21652994E-03
 1  2 4.23938477E-03 0.00000000E+00 0.00000000E+00-4.17272401E-04-4.20724261E-03
 1  3-4.01705635E-03-4.09203076E-03 0.00000000E+00 0.00000000E+00 0.00000000E+00
 1  4 3.30330548E-04-2.26828094E-04 3.30330548E-04-2.26828094E-04
 2  1-2.10444998E-01 4.75202370E-01 0.00000000E+00 0.00000000E+00 9.08723504E-02
 2  2 4.44487552E-01 0.00000000E+00 0.00000000E+00 4.30065804E-02 2.76185782E-02
 2  3-2.22460806E-03 2.08500892E-02 0.00000000E+00 0.00000000E+00 0.00000000E+00
 2  4 1.30463296E-01-5.68308422E-04 1.30463296E-01-5.68308422E-04
 3  1 0.00000000E+00 0.00000000E+00 5.14974077E-01 0.00000000E+00 0.00000000E+00
 3  2 0.00000000E+00 3.22312091E-01 0.00000000E+00 0.00000000E+00 0.00000000E+00
 3  3 0.00000000E+00 0.00000000E+00 0.00000000E+00 4.98141173E-02 0.00000000E+00
 3  4-2.24934292E-01-8.83581283E-02 2.24934292E-01 8.83581283E-02
 4  1 6.81888547E-02-1.47285249E-01 0.00000000E+00 0.00000000E+00 5.61639510E-01
 4  2-3.03610366E-01 0.00000000E+00 0.00000000E+00 4.20122127E-01 3.29560164E-03
 4  3-9.26523991E-03 4.33142481E-02 0.00000000E+00 0.00000000E+00 0.00000000E+00
 4  4 1.36928738E-01 6.33926164E-02 1.36928738E-01 6.33926164E-02
 5  1 0.00000000E+00 0.00000000E+00 0.00000000E+00 6.34492095E-01 0.00000000E+00
 5  2 0.00000000E+00 0.00000000E+00 5.17107233E-01 0.00000000E+00 0.00000000E+00
 5  3 0.00000000E+00 0.00000000E+00 0.00000000E+00 0.00000000E+00 3.03572916E-02
 5  4 0.00000000E+00 0.00000000E+00 0.00000000E+00 0.00000000E+00
 6  1-3.62287910E-02 2.14975510E-01 0.00000000E+00 0.00000000E+00 1.60885508E-01
 6  2 3.12909071E-02 0.00000000E+00 0.00000000E+00 1.72110280E-01-4.02833150E-01
 6  3 9.08352543E-01-3.69898080E-01 0.00000000E+00 0.00000000E+00 0.00000000E+00
 6  4-1.86382458E-01-9.30221881E-02-1.86382458E-01-9.30221881E-02
 7  1 0.00000000E+00 0.00000000E+00 3.25190149E-01 0.00000000E+00 0.00000000E+00
 7  2 0.00000000E+00 8.27336378E-01 0.00000000E+00 0.00000000E+00 0.00000000E+00
 7  3 0.00000000E+00 0.00000000E+00 0.00000000E+00 1.76133341E-02 0.00000000E+00
 7  4 5.34916590E-02 1.40549769E+00-5.34916590E-02-1.40549769E+00
 8  1-8.13957666E-02 1.01569324E-02 0.00000000E+00 0.00000000E+00 1.33770260E-01
 8  2 1.32828519E+00 0.00000000E+00 0.00000000E+00 3.61667172E-01 5.74460525E-02
 8  3-2.71208821E-01 4.47406648E-02 0.00000000E+00 0.00000000E+00 0.00000000E+00
 8  4 1.59787148E-01-1.09115193E+00 1.59787148E-01-1.09115193E+00
 9  1 0.00000000E+00 0.00000000E+00 4.93577053E-02 0.00000000E+00 0.00000000E+00
 9  2 0.00000000E+00 7.47437678E-01 0.00000000E+00 0.00000000E+00 0.00000000E+00
 9  3 0.00000000E+00 0.00000000E+00 0.00000000E+00-2.02089898E-01 0.00000000E+00
 9  4 8.34740965E-01-3.98338766E-01-8.34740965E-01 3.98338766E-01
10  1-2.87682915E-02-8.15947655E-01 0.00000000E+00 0.00000000E+00 7.89726070E-01
10  2 1.64764911E+00 0.00000000E+00 0.00000000E+00-7.67521732E-01-3.22115338E-01
10  3-2.59526371E-01-3.22594671E-01 0.00000000E+00 0.00000000E+00 0.00000000E+00
10  4 3.55104209E-02-1.80007003E-01 3.55104209E-02-1.80007003E-01
11  1 0.00000000E+00 0.00000000E+00 0.00000000E+00-9.66105084E-01 0.00000000E+00
11  2 0.00000000E+00 0.00000000E+00 1.03344523E+00 0.00000000E+00 0.00000000E+00
11  3 0.00000000E+00 0.00000000E+00 0.00000000E+00 0.00000000E+00 9.22855520E-03
11  4 0.00000000E+00 0.00000000E+00 0.00000000E+00 0.00000000E+00
12  1 0.00000000E+00 0.00000000E+00-1.04004695E+00 0.00000000E+00 0.00000000E+00
12  2 0.00000000E+00 1.52602458E+00 0.00000000E+00 0.00000000E+00 0.00000000E+00
12  3 0.00000000E+00 0.00000000E+00 0.00000000E+00 3.52740551E-02 0.00000000E+00
12  4-1.32529428E-01 9.57064635E-01 1.32529428E-01-9.57064635E-01
13  1-4.82789294E-02-1.44164739E+00 0.00000000E+00 0.00000000E+00-6.21171261E-01
13  2 3.28711291E+00 0.00000000E+00 0.00000000E+00 9.29277361E-01-5.13545498E-01
13  3-2.53938474E-01-4.95764229E-01 0.00000000E+00 0.00000000E+00 0.00000000E+00
13  4 1.61667146E-01-9.14994373E-01 1.61667146E-01-9.14994373E-01
14  1-7.81270663E-02-3.53934377E-01 0.00000000E+00 0.00000000E+00 5.67473584E-03
14  2 1.48305044E+00 0.00000000E+00 0.00000000E+00 6.79910837E-01-4.63211278E-01
14  3-5.94068565E-01 6.34572277E-01 0.00000000E+00 0.00000000E+00 0.00000000E+00
14  4-7.57468988E-01-1.31929020E-01-7.57468988E-01-1.31929020E-01
15  1 0.00000000E+00 0.00000000E+00 0.00000000E+00 0.00000000E+00 0.00000000E+00
15  2 0.00000000E+00 0.00000000E+00 0.00000000E+00 0.00000000E+00 0.00000000E+00
15  3 0.00000000E+00 0.00000000E+00 1.00000000E+00 0.00000000E+00 0.00000000E+00
15  4 0.00000000E+00 0.00000000E+00 0.00000000E+00 0.00000000E+00
16  1 0.00000000E+00 0.00000000E+00 0.00000000E+00-1.03509190E-02 0.00000000E+00
16  2 0.00000000E+00 0.00000000E+00-2.52478935E-02 0.00000000E+00 0.00000000E+00
16  3 0.00000000E+00 0.00000000E+00 0.00000000E+00 0.00000000E+00 9.99496508E-01
16  4 0.00000000E+00 0.00000000E+00 0.00000000E+00 0.00000000E+00
17  1-8.20119175E-02-4.69129925E-01 0.00000000E+00 0.00000000E+00 4.47263126E-03
17  2 1.79687070E+00 0.00000000E+00 0.00000000E+00 8.62428932E-01 7.94450915E-01
17  3-6.25897932E-01-6.05289622E-01 0.00000000E+00 0.00000000E+00 0.00000000E+00
17  4-9.61681093E-01-1.74038263E-01-9.61681093E-01-1.74038263E-01
18  1 0.00000000E+00 0.00000000E+00-3.83307619E-03 0.00000000E+00 0.00000000E+00
18  2 0.00000000E+00 9.01516009E-01 0.00000000E+00 0.00000000E+00 0.00000000E+00
18  3 0.00000000E+00 0.00000000E+00 0.00000000E+00 1.29472477E+00 0.00000000E+00
18  4 9.79043784E-01-2.37236649E-02-9.79043784E-01 2.37236649E-02
19  1-4.67161025E-01 3.29911515E-01 0.00000000E+00 0.00000000E+00-1.16273879E-01
19  2 3.63258777E+00 0.00000000E+00 0.00000000E+00 3.10803752E-01-1.55238167E+00
19  3-1.52699095E+00-1.56065895E+00 0.00000000E+00 0.00000000E+00 0.00000000E+00
19  4 1.44761691E-01-5.56551753E-01 1.44761691E-01-5.56551753E-01
 $END   

! TRAVIS-CI SMALL

