!    surface/volume polarization for UHF triplet water in water
!
!    FINAL E= -75.7460416219, 10 iters, rxn fld E= -.00149411, S**2=2.006
!
!    This run takes 1 second on 1.2 GHz Power4+ (18 Jul 2006)
!    very small change in energy May 2009
!
 $contrl scftyp=uhf mult=3 runtyp=energy $end
 $system mwords=5 $end
 $guess  guess=moread norb=19 $end
 $basis  gbasis=n31 ngauss=6 ndfunc=1 $end
 $scf    dirscf=.t. $end
 $svp    rhoiso=0.001 dielst=78.39 nptleb=110 itrngr=2 irotgr=2 
         iprdn=2 $end
 $data
water...SVP model
Cnv 2

O   8.0  0.0          0.0 -0.0486020332
H   1.0  0.7545655371 0.0  0.5243010666
 $end

--- CLOSED SHELL ORBITALS --- GENERATED AT Thu Feb 10 22:26:07 2005
water...SVP model                                                               
E(RHF)=      -76.0107462712, E(NUC)=    9.2874668413,   10 ITERS
 $VEC
 1  1 9.94622636E-01 2.11722689E-02 0.00000000E+00 0.00000000E+00 1.33669829E-03
 1  2 4.14843561E-03 0.00000000E+00 0.00000000E+00-4.60030890E-04-4.21099993E-03
 1  3-3.94328021E-03-4.08838072E-03 0.00000000E+00 0.00000000E+00 0.00000000E+00
 1  4 3.24363380E-04-2.05633231E-04 3.24363380E-04-2.05633231E-04
 2  1-2.09544962E-01 4.75777094E-01 0.00000000E+00 0.00000000E+00 9.46363052E-02
 2  2 4.35404157E-01 0.00000000E+00 0.00000000E+00 4.97721417E-02 2.69699509E-02
 2  3-1.03352387E-03 2.12684770E-02 0.00000000E+00 0.00000000E+00 0.00000000E+00
 2  4 1.32988047E-01 1.73088822E-03 1.32988047E-01 1.73088822E-03
 3  1 0.00000000E+00 0.00000000E+00 5.08859755E-01 0.00000000E+00 0.00000000E+00
 3  2 0.00000000E+00 3.03823727E-01 0.00000000E+00 0.00000000E+00 0.00000000E+00
 3  3 0.00000000E+00 0.00000000E+00 0.00000000E+00 5.08466700E-02 0.00000000E+00
 3  4-2.32478469E-01-1.07175390E-01 2.32478469E-01 1.07175390E-01
 4  1 7.30299514E-02-1.63505673E-01 0.00000000E+00 0.00000000E+00 5.57865364E-01
 4  2-3.25228014E-01 0.00000000E+00 0.00000000E+00 4.05029926E-01-7.70122421E-04
 4  3-1.18622118E-02 4.62560695E-02 0.00000000E+00 0.00000000E+00 0.00000000E+00
 4  4 1.39984456E-01 8.27816802E-02 1.39984456E-01 8.27816802E-02
 5  1 0.00000000E+00 0.00000000E+00 0.00000000E+00 6.39255773E-01 0.00000000E+00
 5  2 0.00000000E+00 0.00000000E+00 5.11848747E-01 0.00000000E+00 0.00000000E+00
 5  3 0.00000000E+00 0.00000000E+00 0.00000000E+00 0.00000000E+00 3.41395263E-02
 5  4 0.00000000E+00 0.00000000E+00 0.00000000E+00 0.00000000E+00
 6  1-1.01478989E-01 5.57950319E-02 0.00000000E+00 0.00000000E+00 2.11787803E-01
 6  2 1.43988530E+00 0.00000000E+00 0.00000000E+00 5.02160512E-01-5.67594040E-02
 6  3-7.27910559E-02-4.48127023E-02 0.00000000E+00 0.00000000E+00 0.00000000E+00
 6  4-5.37885318E-02-1.05154256E+00-5.37885318E-02-1.05154256E+00
 7  1 0.00000000E+00 0.00000000E+00 3.25656194E-01 0.00000000E+00 0.00000000E+00
 7  2 0.00000000E+00 8.40954982E-01 0.00000000E+00 0.00000000E+00 0.00000000E+00
 7  3 0.00000000E+00 0.00000000E+00 0.00000000E+00 2.32105554E-02 0.00000000E+00
 7  4 4.65347831E-02 1.41292637E+00-4.65347831E-02-1.41292637E+00
 8  1 0.00000000E+00 0.00000000E+00 8.80630402E-02 0.00000000E+00 0.00000000E+00
 8  2 0.00000000E+00 7.08914744E-01 0.00000000E+00 0.00000000E+00 0.00000000E+00
 8  3 0.00000000E+00 0.00000000E+00 0.00000000E+00-1.99199991E-01 0.00000000E+00
 8  4 8.39574298E-01-4.20480318E-01-8.39574298E-01 4.20480318E-01
 9  1 2.76929398E-03-8.96928208E-01 0.00000000E+00 0.00000000E+00 4.68970916E-01
 9  2 1.57869442E+00 0.00000000E+00 0.00000000E+00-7.54786305E-01-1.83102273E-01
 9  3-3.75982817E-01-3.16496663E-01 0.00000000E+00 0.00000000E+00 0.00000000E+00
 9  4 5.22434102E-01-4.38474806E-01 5.22434102E-01-4.38474806E-01
10  1 0.00000000E+00 0.00000000E+00 0.00000000E+00-9.62979332E-01 0.00000000E+00
10  2 0.00000000E+00 0.00000000E+00 1.03587238E+00 0.00000000E+00 0.00000000E+00
10  3 0.00000000E+00 0.00000000E+00 0.00000000E+00 0.00000000E+00 1.40267721E-02
10  4 0.00000000E+00 0.00000000E+00 0.00000000E+00 0.00000000E+00
11  1-5.11220987E-02-6.03267289E-02 0.00000000E+00 0.00000000E+00 7.34137199E-01
11  2 4.25758387E-01 0.00000000E+00 0.00000000E+00-3.19612897E-01-2.51555392E-01
11  3 7.70149890E-02-6.59094454E-02 0.00000000E+00 0.00000000E+00 0.00000000E+00
11  4-6.91003659E-01 3.64541529E-01-6.91003659E-01 3.64541529E-01
12  1 0.00000000E+00 0.00000000E+00-1.04034011E+00 0.00000000E+00 0.00000000E+00
12  2 0.00000000E+00 1.54151260E+00 0.00000000E+00 0.00000000E+00 0.00000000E+00
12  3 0.00000000E+00 0.00000000E+00 0.00000000E+00 2.66068738E-02 0.00000000E+00
12  4-1.08067567E-01 9.34438873E-01 1.08067567E-01-9.34438873E-01
13  1-8.55935186E-02-1.44425164E+00 0.00000000E+00 0.00000000E+00-5.01543606E-01
13  2 3.63833165E+00 0.00000000E+00 0.00000000E+00 1.15702218E+00-6.43734444E-01
13  3-2.93972155E-01-4.03569602E-01 0.00000000E+00 0.00000000E+00 0.00000000E+00
13  4-2.99709720E-01-8.12899219E-01-2.99709720E-01-8.12899219E-01
14  1 7.48553896E-03 7.85394824E-02 0.00000000E+00 0.00000000E+00 2.82712583E-03
14  2-2.34110475E-01 0.00000000E+00 0.00000000E+00-1.30490319E-01-5.62634759E-01
14  3-3.86761008E-01 1.01148569E+00 0.00000000E+00 0.00000000E+00 0.00000000E+00
14  4 8.06688123E-02 3.73217438E-02 8.06688123E-02 3.73217438E-02
15  1 0.00000000E+00 0.00000000E+00 0.00000000E+00 0.00000000E+00 0.00000000E+00
15  2 0.00000000E+00 0.00000000E+00 0.00000000E+00 0.00000000E+00 0.00000000E+00
15  3 0.00000000E+00 0.00000000E+00 1.00000000E+00 0.00000000E+00 0.00000000E+00
15  4 0.00000000E+00 0.00000000E+00 0.00000000E+00 0.00000000E+00
16  1 0.00000000E+00 0.00000000E+00 0.00000000E+00-8.32206801E-03 0.00000000E+00
16  2 0.00000000E+00 0.00000000E+00-3.20260408E-02 0.00000000E+00 0.00000000E+00
16  3 0.00000000E+00 0.00000000E+00 0.00000000E+00 0.00000000E+00 9.99318639E-01
16  4 0.00000000E+00 0.00000000E+00 0.00000000E+00 0.00000000E+00
17  1-5.86143840E-02-4.83158611E-01 0.00000000E+00 0.00000000E+00-3.59619712E-02
17  2 1.59402274E+00 0.00000000E+00 0.00000000E+00 7.40884801E-01 7.75724729E-01
17  3-1.13069077E+00 1.59259777E-02 0.00000000E+00 0.00000000E+00 0.00000000E+00
17  4-8.58663580E-01-1.46803583E-01-8.58663580E-01-1.46803583E-01
18  1 0.00000000E+00 0.00000000E+00-6.52662099E-03 0.00000000E+00 0.00000000E+00
18  2 0.00000000E+00 9.00100223E-01 0.00000000E+00 0.00000000E+00 0.00000000E+00
18  3 0.00000000E+00 0.00000000E+00 0.00000000E+00 1.29525125E+00 0.00000000E+00
18  4 9.76506388E-01-2.47591143E-02-9.76506388E-01 2.47591143E-02
19  1-4.67005878E-01 3.19900429E-01 0.00000000E+00 0.00000000E+00-1.17497274E-01
19  2 3.65013235E+00 0.00000000E+00 0.00000000E+00 3.14483434E-01-1.53492162E+00
19  3-1.56197171E+00-1.54930980E+00 0.00000000E+00 0.00000000E+00 0.00000000E+00
19  4 1.36926491E-01-5.55741577E-01 1.36926491E-01-5.55741577E-01
 1  1 9.94622636E-01 2.11722689E-02 0.00000000E+00 0.00000000E+00 1.33669829E-03
 1  2 4.14843561E-03 0.00000000E+00 0.00000000E+00-4.60030890E-04-4.21099993E-03
 1  3-3.94328021E-03-4.08838072E-03 0.00000000E+00 0.00000000E+00 0.00000000E+00
 1  4 3.24363380E-04-2.05633231E-04 3.24363380E-04-2.05633231E-04
 2  1-2.09544962E-01 4.75777094E-01 0.00000000E+00 0.00000000E+00 9.46363052E-02
 2  2 4.35404157E-01 0.00000000E+00 0.00000000E+00 4.97721417E-02 2.69699509E-02
 2  3-1.03352387E-03 2.12684770E-02 0.00000000E+00 0.00000000E+00 0.00000000E+00
 2  4 1.32988047E-01 1.73088822E-03 1.32988047E-01 1.73088822E-03
 3  1 0.00000000E+00 0.00000000E+00 5.08859755E-01 0.00000000E+00 0.00000000E+00
 3  2 0.00000000E+00 3.03823727E-01 0.00000000E+00 0.00000000E+00 0.00000000E+00
 3  3 0.00000000E+00 0.00000000E+00 0.00000000E+00 5.08466700E-02 0.00000000E+00
 3  4-2.32478469E-01-1.07175390E-01 2.32478469E-01 1.07175390E-01
 4  1 7.30299514E-02-1.63505673E-01 0.00000000E+00 0.00000000E+00 5.57865364E-01
 4  2-3.25228014E-01 0.00000000E+00 0.00000000E+00 4.05029926E-01-7.70122421E-04
 4  3-1.18622118E-02 4.62560695E-02 0.00000000E+00 0.00000000E+00 0.00000000E+00
 4  4 1.39984456E-01 8.27816802E-02 1.39984456E-01 8.27816802E-02
 5  1 0.00000000E+00 0.00000000E+00 0.00000000E+00 6.39255773E-01 0.00000000E+00
 5  2 0.00000000E+00 0.00000000E+00 5.11848747E-01 0.00000000E+00 0.00000000E+00
 5  3 0.00000000E+00 0.00000000E+00 0.00000000E+00 0.00000000E+00 3.41395263E-02
 5  4 0.00000000E+00 0.00000000E+00 0.00000000E+00 0.00000000E+00
 6  1-1.01478989E-01 5.57950319E-02 0.00000000E+00 0.00000000E+00 2.11787803E-01
 6  2 1.43988530E+00 0.00000000E+00 0.00000000E+00 5.02160512E-01-5.67594040E-02
 6  3-7.27910559E-02-4.48127023E-02 0.00000000E+00 0.00000000E+00 0.00000000E+00
 6  4-5.37885318E-02-1.05154256E+00-5.37885318E-02-1.05154256E+00
 7  1 0.00000000E+00 0.00000000E+00 3.25656194E-01 0.00000000E+00 0.00000000E+00
 7  2 0.00000000E+00 8.40954982E-01 0.00000000E+00 0.00000000E+00 0.00000000E+00
 7  3 0.00000000E+00 0.00000000E+00 0.00000000E+00 2.32105554E-02 0.00000000E+00
 7  4 4.65347831E-02 1.41292637E+00-4.65347831E-02-1.41292637E+00
 8  1 0.00000000E+00 0.00000000E+00 8.80630402E-02 0.00000000E+00 0.00000000E+00
 8  2 0.00000000E+00 7.08914744E-01 0.00000000E+00 0.00000000E+00 0.00000000E+00
 8  3 0.00000000E+00 0.00000000E+00 0.00000000E+00-1.99199991E-01 0.00000000E+00
 8  4 8.39574298E-01-4.20480318E-01-8.39574298E-01 4.20480318E-01
 9  1 2.76929398E-03-8.96928208E-01 0.00000000E+00 0.00000000E+00 4.68970916E-01
 9  2 1.57869442E+00 0.00000000E+00 0.00000000E+00-7.54786305E-01-1.83102273E-01
 9  3-3.75982817E-01-3.16496663E-01 0.00000000E+00 0.00000000E+00 0.00000000E+00
 9  4 5.22434102E-01-4.38474806E-01 5.22434102E-01-4.38474806E-01
10  1 0.00000000E+00 0.00000000E+00 0.00000000E+00-9.62979332E-01 0.00000000E+00
10  2 0.00000000E+00 0.00000000E+00 1.03587238E+00 0.00000000E+00 0.00000000E+00
10  3 0.00000000E+00 0.00000000E+00 0.00000000E+00 0.00000000E+00 1.40267721E-02
10  4 0.00000000E+00 0.00000000E+00 0.00000000E+00 0.00000000E+00
11  1-5.11220987E-02-6.03267289E-02 0.00000000E+00 0.00000000E+00 7.34137199E-01
11  2 4.25758387E-01 0.00000000E+00 0.00000000E+00-3.19612897E-01-2.51555392E-01
11  3 7.70149890E-02-6.59094454E-02 0.00000000E+00 0.00000000E+00 0.00000000E+00
11  4-6.91003659E-01 3.64541529E-01-6.91003659E-01 3.64541529E-01
12  1 0.00000000E+00 0.00000000E+00-1.04034011E+00 0.00000000E+00 0.00000000E+00
12  2 0.00000000E+00 1.54151260E+00 0.00000000E+00 0.00000000E+00 0.00000000E+00
12  3 0.00000000E+00 0.00000000E+00 0.00000000E+00 2.66068738E-02 0.00000000E+00
12  4-1.08067567E-01 9.34438873E-01 1.08067567E-01-9.34438873E-01
13  1-8.55935186E-02-1.44425164E+00 0.00000000E+00 0.00000000E+00-5.01543606E-01
13  2 3.63833165E+00 0.00000000E+00 0.00000000E+00 1.15702218E+00-6.43734444E-01
13  3-2.93972155E-01-4.03569602E-01 0.00000000E+00 0.00000000E+00 0.00000000E+00
13  4-2.99709720E-01-8.12899219E-01-2.99709720E-01-8.12899219E-01
14  1 7.48553896E-03 7.85394824E-02 0.00000000E+00 0.00000000E+00 2.82712583E-03
14  2-2.34110475E-01 0.00000000E+00 0.00000000E+00-1.30490319E-01-5.62634759E-01
14  3-3.86761008E-01 1.01148569E+00 0.00000000E+00 0.00000000E+00 0.00000000E+00
14  4 8.06688123E-02 3.73217438E-02 8.06688123E-02 3.73217438E-02
15  1 0.00000000E+00 0.00000000E+00 0.00000000E+00 0.00000000E+00 0.00000000E+00
15  2 0.00000000E+00 0.00000000E+00 0.00000000E+00 0.00000000E+00 0.00000000E+00
15  3 0.00000000E+00 0.00000000E+00 1.00000000E+00 0.00000000E+00 0.00000000E+00
15  4 0.00000000E+00 0.00000000E+00 0.00000000E+00 0.00000000E+00
16  1 0.00000000E+00 0.00000000E+00 0.00000000E+00-8.32206801E-03 0.00000000E+00
16  2 0.00000000E+00 0.00000000E+00-3.20260408E-02 0.00000000E+00 0.00000000E+00
16  3 0.00000000E+00 0.00000000E+00 0.00000000E+00 0.00000000E+00 9.99318639E-01
16  4 0.00000000E+00 0.00000000E+00 0.00000000E+00 0.00000000E+00
17  1-5.86143840E-02-4.83158611E-01 0.00000000E+00 0.00000000E+00-3.59619712E-02
17  2 1.59402274E+00 0.00000000E+00 0.00000000E+00 7.40884801E-01 7.75724729E-01
17  3-1.13069077E+00 1.59259777E-02 0.00000000E+00 0.00000000E+00 0.00000000E+00
17  4-8.58663580E-01-1.46803583E-01-8.58663580E-01-1.46803583E-01
18  1 0.00000000E+00 0.00000000E+00-6.52662099E-03 0.00000000E+00 0.00000000E+00
18  2 0.00000000E+00 9.00100223E-01 0.00000000E+00 0.00000000E+00 0.00000000E+00
18  3 0.00000000E+00 0.00000000E+00 0.00000000E+00 1.29525125E+00 0.00000000E+00
18  4 9.76506388E-01-2.47591143E-02-9.76506388E-01 2.47591143E-02
19  1-4.67005878E-01 3.19900429E-01 0.00000000E+00 0.00000000E+00-1.17497274E-01
19  2 3.65013235E+00 0.00000000E+00 0.00000000E+00 3.14483434E-01-1.53492162E+00
19  3-1.56197171E+00-1.54930980E+00 0.00000000E+00 0.00000000E+00 0.00000000E+00
19  4 1.36926491E-01-5.55741577E-01 1.36926491E-01-5.55741577E-01
 $END

! TRAVIS-CI SMALL

! TRAVIS-CI SKIP
