!     SVPE solvation test...acetamide...CH3(C=O)NH2
!     Reproduces data in Table 2 of the paper on SVPE,
!     D.M.Chipman  J.Chem.Phys. 124, 224111/1-10(2006)
!
!     gas phase energy is  -207.9889751769, in 16 iterations
!     SVPE's FINAL ENERGY= -208.0062819453, in 14 iterations
!     the difference is      -0.017307, or -10.860 kcal/mol,
!     which is the far right entry in the third line from the 
!     bottom of Table 2, in the paper above.
!
!     Note that the solvation free energy of -0.017307 should
!     not be confused with the output's reaction field energy.
!     This job prints REACTION FIELD FREE ENERGY is -.02056552,
!     from SurPolE= -.02089990, VolPolE= +0.00033438 which
!     makes the solute's internal energy -207.98571643.
!
!     The energy "SPE" in Table 2 is a D-PCM type computation.
!     The SS(V)PE run is considered to be more theoretically
!     satisfying, and thus how to run SPE is not shown.
!
!     running as SS(V)PE, i.e. NVLPL=0, has E= -208.0062076525
!
!     This run takes 195 seconds on a 2.66 GHz Cloverton (24 Oct 2013)
!
!     This test took 656 sconds on Power4+ in May 2009 (results same)
!     whereas the gas phase run (no $SVP) takes   6 sconds,
!     and the SS(V)PE run       (NVLPL=0) takes 378 sconds.
!
 $contrl scftyp=rhf  runtyp=energy  $end
 $system mwords=4 $end
 $basis  gbasis=n31  ngauss=6  ndfunc=1  npfunc=1  $end
 $guess  guess=moread  norb=16  $end
 $scf    nconv=8  $end
 $svp   nvlpl=3 rhoiso=0.001 dielst=78.304 nptleb=1202 $end
 $data
CH3CONH2 cgz geometry RHF/6-31G(d,p)
C1        
C          6.0         1.361261   -0.309588   -0.000262
C          6.0        -0.079357    0.152773   -0.005665
H          1.0         1.602076   -0.751515    0.962042
H          1.0         1.537200   -1.056768   -0.767127
H          1.0         2.002415    0.542830   -0.168045
O          8.0        -0.387955    1.310027    0.002284
N          7.0        -1.002151   -0.840834   -0.011928
H          1.0        -1.961646   -0.589397    0.038911
H          1.0        -0.752774   -1.798630    0.035006
 $end

                    - gas phase vecs -
--- CLOSED SHELL ORBITALS --- GENERATED AT Mon Jan 16 09:04:16 2006
E(RHF)=     -207.9889751769, E(NUC)=  122.7774327068,   16 ITERS
 $VEC
 1  1 1.18951670E-06 1.74015997E-05 1.63457410E-05-1.97532151E-05-1.11068337E-06
 1  2-2.46070147E-04 2.04100334E-04 2.77801793E-05-7.83849449E-06 1.50517437E-05
 1  3-3.49464473E-05-1.85244608E-05 6.20521681E-05-2.74096482E-07-1.12393967E-07
 1  4-6.74591162E-06 4.16509956E-04 2.82679638E-05-1.50027053E-04-1.55624498E-06
 1  5-3.89245486E-04 3.89812691E-04-7.59634697E-04-3.46296749E-07-6.92552158E-05
 1  6-8.50505211E-04-2.52426889E-05 2.37539689E-04 3.11133311E-06-6.54247632E-06
 1  7 1.96759013E-05-2.36159654E-05 5.29772400E-06-6.88306691E-07-6.64072239E-06
 1  8 1.86235658E-05-2.67206712E-05 1.45555368E-05-1.27490083E-07 8.43103631E-06
 1  9 9.30179100E-07-7.80520047E-05-3.30710121E-06 2.18785069E-05-5.34003714E-06
 1 10 9.94654364E-01 2.10507434E-02 3.94870834E-04-1.59414345E-03-9.24341558E-06
 1 11 4.94767184E-03 1.44441428E-05-1.15106416E-04-2.92537860E-06-3.95894263E-03
 1 12-3.60671072E-03-4.20021046E-03-1.22165672E-04-3.83666124E-06 4.11900331E-06
 1 13-3.08393680E-06-2.45692792E-05-1.13150083E-05-2.28827688E-05 2.39499033E-07
 1 14-8.95062184E-06-1.33218724E-04 1.33017712E-04 1.03646146E-06 1.33801793E-04
 1 15-1.14130628E-04-4.05996498E-05 5.01598837E-06-3.10346511E-06 2.32336814E-06
 1 16-7.98015226E-05-7.02862390E-05-4.73369193E-05 2.64268425E-05 5.27558525E-06
 1 17 6.76031534E-05 2.27258904E-05-4.04191901E-05 1.77751367E-05-3.05944344E-06
 2  1-1.29320163E-05-6.04825192E-05 3.65861290E-05 1.05748978E-05-4.61290217E-06
 2  2 3.26133115E-04-6.07872405E-05 2.65829772E-04 2.74388148E-05-4.62882127E-05
 2  3 1.08721938E-05-4.16760378E-05-4.05284768E-05 6.38833546E-07-5.10796142E-07
 2  4 1.97816540E-05 1.89457984E-04-1.29342470E-04-1.59431516E-04-2.51671433E-07
 2  5 1.21657686E-03-1.02792535E-03-1.08207081E-03 1.41360057E-05-9.81113718E-05
 2  6-1.30272500E-04-6.43720724E-05-2.66747639E-05-3.73634873E-06-1.06637807E-06
 2  7-4.98533614E-06-4.08676549E-05 1.79987036E-05-1.10444440E-05-8.09429121E-06
 2  8-3.93837932E-06 1.75473272E-05 2.08992338E-05-7.84957888E-06 6.71423449E-06
 2  9-2.66302028E-05-8.37304296E-06-2.29518542E-05-2.89505360E-06-3.12967564E-06
 2 10-9.64805265E-06-8.66888617E-05-8.64135046E-06 1.55665226E-05 5.63013472E-07
 2 11 4.18453049E-04 3.25316208E-04-2.31624623E-05-8.35664562E-06-5.02889493E-06
 2 12-4.39041760E-05-8.79875326E-05-6.05827204E-05-2.24304567E-06 1.73384440E-06
 2 13 9.94900199E-01 2.53073838E-02 4.10389246E-05-6.52035281E-05 1.42029898E-04
 2 14-2.39236877E-03-5.61325723E-04-5.85780270E-04-7.73993844E-05-3.47528874E-03
 2 15-3.43388296E-03-3.48858144E-03-5.90926895E-05-4.82853477E-06-5.49928170E-06
 2 16 1.88420002E-04 2.19008346E-04-1.14490750E-04 5.72634626E-05 8.26565502E-06
 2 17 1.32590598E-04 2.47120424E-04 8.05890616E-05-1.53119817E-04 1.02352632E-05
 3  1 2.58393990E-03 9.15617116E-05-2.42308247E-06-2.48472099E-05 1.25049899E-05
 3  2 4.82874074E-03-2.58309759E-03 3.02130358E-04-1.36987209E-04-4.59575999E-04
 3  3-3.10522580E-04-1.94571046E-04 1.26565636E-04 1.18347531E-06 6.08054573E-06
 3  4 9.95793489E-01 2.65877130E-02-4.80832022E-04-6.74755283E-05-1.47501168E-06
 3  5-7.17623394E-03-4.04294450E-03 4.29225643E-03 2.77334646E-05-1.46199341E-03
 3  6-6.92492223E-04-2.43011995E-03-4.70610418E-05 4.73897339E-06 1.02014140E-05
 3  7-1.78742169E-04 3.93936082E-04-7.85493741E-05 6.72797923E-05-5.74730622E-05
 3  8-1.85077259E-04 1.78784325E-04-7.08208121E-05 7.39323300E-05 3.94124101E-05
 3  9-8.06340893E-05 2.06208284E-04-2.61891697E-05-6.03769803E-05 2.49922452E-05
 3 10-2.80543202E-04 8.79396565E-04 5.76559792E-05-3.78778297E-04-2.60166140E-06
 3 11-4.79502142E-03 1.83194316E-05 2.11676123E-03 1.95305738E-05 3.28875349E-04
 3 12 2.36359638E-04 5.14648716E-04-9.29446010E-05 1.96603167E-06-4.49020272E-06
 3 13-3.35121736E-04 1.26616941E-04-8.35529923E-05 4.52712260E-05-1.01472907E-05
 3 14 1.43793416E-03 1.18699076E-03-1.65003435E-03-6.34377929E-06-6.17286831E-04
 3 15-6.50641114E-04 2.90233588E-05-1.93813080E-04 1.74204883E-05-9.71038221E-06
 3 16 4.38410443E-04 4.35173012E-04 2.65182041E-04 4.74048581E-05-2.04542493E-05
 3 17-1.65727309E-04-6.89967558E-04 7.01962601E-05 2.11491492E-04 5.25940961E-07
 4  1 9.95741172E-01 2.86600980E-02-1.38912140E-04-1.69581552E-04 5.19883858E-05
 4  2-1.59542073E-02 1.23324234E-03-4.17041219E-04-1.05428295E-04-1.78043535E-03
 4  3-1.65742227E-03-1.61172195E-03 6.08965285E-05-4.44147322E-07 6.34114715E-06
 4  4-2.92776709E-03 1.59627885E-05 7.25209552E-05-4.40457980E-05 3.04536488E-06
 4  5 3.09605465E-03 3.06563347E-03 8.47652983E-05-7.52795430E-06-5.62992395E-04
 4  6-2.96199251E-04-1.38354354E-04 8.86472213E-05 1.92708562E-06-2.36454557E-06
 4  7 6.61732934E-05 2.59382578E-03-9.99018306E-06-7.12152267E-05 2.15359496E-04
 4  8 6.06052461E-05 2.47482876E-03-2.65685363E-05-1.42360687E-04-1.75057031E-04
 4  9 1.23647824E-04 2.44728217E-03 7.45897930E-05 1.35715013E-04-2.06280298E-05
 4 10-1.48817564E-05-1.35066339E-04-1.75290781E-05 1.00130041E-05-5.39332428E-06
 4 11 2.50760898E-04-3.75850988E-04-3.01894993E-04 2.20914991E-05-4.47964062E-05
 4 12 8.17759668E-05-1.59094930E-04 1.86258144E-05 8.36858878E-06-1.19358838E-06
 4 13-4.29562613E-05-3.00028449E-04-1.04590125E-04-2.24687816E-05-2.09861823E-06
 4 14 1.35406924E-03 7.99821219E-04 6.43603469E-04 1.23259763E-05 6.51521331E-06
 4 15 2.61724778E-05-2.10192591E-04 5.51816086E-05 1.14642960E-05-2.03317581E-06
 4 16 1.64079308E-05 3.76633075E-04 1.37725170E-05-1.10090823E-05-4.37562294E-07
 4 17-1.19447261E-04 2.15783114E-04-2.88983455E-05-1.27522359E-05 2.81322019E-06
 5  1-1.90929525E-02 3.72024960E-02-2.60304446E-02 1.20466456E-02 2.72804566E-06
 5  2-6.33796350E-04 7.95553675E-03 5.11604197E-03-8.86149571E-05 6.42799062E-03
 5  3 3.30697719E-04-7.82747734E-04-4.16048613E-03 1.22479484E-05-6.40501708E-05
 5  4-1.27564031E-01 2.46388956E-01-6.22290043E-02 1.40418103E-01 1.28066627E-03
 5  5 6.56546712E-02 2.60986630E-02-2.96677149E-02 1.24359034E-04-1.15743252E-02
 5  6 2.68332933E-02-2.01048138E-02-1.00342601E-02-7.67618582E-05 3.23628435E-04
 5  7 7.22064458E-03 6.69170487E-04-2.19620905E-04 7.69783174E-05-6.18603882E-04
 5  8 7.07923040E-03 5.82758319E-04-9.17421267E-05 2.08561317E-04 5.47729113E-04
 5  9 9.05225374E-03-1.16652677E-03-1.23430022E-03-5.62173937E-04 1.59682992E-04
 5 10-1.81463220E-01 3.93574642E-01 3.17805519E-02-1.32299625E-01-7.87809969E-04
 5 11 3.70366121E-01 8.87339246E-03-5.27065223E-02-3.40191314E-04-2.85510291E-03
 5 12 1.60993981E-02-3.26914100E-03-5.08383601E-03-3.72475910E-05 1.38044120E-04
 5 13-5.35241892E-02 1.11757404E-01 2.34231915E-02 3.80134055E-02 1.56252611E-03
 5 14 9.04878891E-02 2.63744249E-03 2.06994960E-02 6.83988940E-04 2.19620432E-03
 5 15 6.54666643E-03-2.34712759E-03 6.23036002E-03 3.34893737E-05 1.21060555E-04
 5 16 2.77138079E-02 1.09234462E-03 4.54156492E-03-1.44997291E-04-1.61024429E-04
 5 17 2.36050649E-02 2.24050099E-03-4.27745372E-04 2.92445585E-03-1.17818974E-04
 6  1-1.91944388E-02 3.75580384E-02-2.17432126E-02-8.30325585E-03-1.78224655E-05
 6  2 1.50552872E-02 5.04501621E-04-1.00040663E-02-3.46520018E-04 3.53252747E-03
 6  3-1.73772706E-03-3.56045511E-04 5.92350348E-04 6.23428262E-05 2.01934552E-04
 6  4-3.94139033E-02 8.18889226E-02-5.78107519E-02-1.94411349E-01-2.90677211E-04
 6  5 1.38906721E-02 2.49923864E-02 5.48450404E-03 2.00720460E-04 1.33642635E-02
 6  6-2.86674176E-03-3.62703467E-03 2.29007955E-02 1.66393569E-05-2.27426670E-04
 6  7 1.14143509E-02 1.75305810E-03-9.01582783E-04 5.18337038E-04-9.34852050E-04
 6  8 1.29680208E-02 1.59370177E-03-1.00222958E-03 9.25352737E-04 8.21229574E-04
 6  9 4.76006502E-03-9.11821140E-04 1.15808283E-04-6.45949393E-04 1.01502022E-04
 6 10 8.08046831E-02-1.76198248E-01-2.51624624E-02 2.51372003E-02 3.33579338E-04
 6 11-1.77926437E-01-1.45447869E-02 7.09944229E-03 2.74543319E-05-1.36309975E-03
 6 12-2.50568751E-03 1.79643824E-03 3.87982086E-03 4.69036031E-05-5.18615759E-05
 6 13-1.86785943E-01 3.81308574E-01 3.00325635E-02 1.52680013E-02 6.67353466E-03
 6 14 4.08295505E-01 2.22833940E-02 1.46306538E-02 3.32830974E-03 5.04792754E-03
 6 15 3.07874050E-03-1.02255338E-02 4.19720465E-03-1.34215570E-04-2.00263219E-04
 6 16 1.15034113E-01 9.44040276E-03 1.53561458E-02-4.28172433E-03-6.44931359E-04
 6 17 1.25248224E-01 1.20011860E-02-3.91811395E-03 1.66687670E-02-6.67256563E-04
 7  1-1.80456670E-01 3.37106260E-01-3.60671036E-02 6.75538330E-03 1.27587708E-03
 7  2 3.21429477E-01-1.07863260E-02-8.62979118E-04 8.06680554E-04 5.09535322E-03
 7  3-1.35540963E-03-1.54780630E-03-2.33888739E-03-6.35900277E-07-3.20583975E-05
 7  4-5.61428345E-02 1.18143182E-01 1.66235615E-01-7.26008512E-02-5.43242494E-07
 7  5 7.87179113E-02 1.91588511E-02-3.41559624E-02 5.50219308E-04 1.52503684E-02
 7  6-6.13331495E-03-4.11689389E-03-7.87371440E-03 1.57408310E-04-2.85015095E-05
 7  7 1.20063401E-01 3.07773005E-02-3.17326680E-03 4.75657328E-03-1.02565300E-02
 7  8 1.19589951E-01 3.09253531E-02-2.38089789E-03 7.93665681E-03 8.23949444E-03
 7  9 1.15994550E-01 2.88010985E-02-7.10946969E-03-9.12937357E-03 1.75000120E-03
 7 10 3.59193765E-02-8.24997893E-02 4.15354198E-02-5.77287811E-06 2.06277531E-04
 7 11-7.97444418E-02 2.00143437E-02-3.84526691E-03-3.18754898E-04 4.84539080E-04
 7 12-2.90874076E-03-2.74745313E-04-4.23030358E-03-2.85746084E-05 1.23491138E-06
 7 13 4.55166180E-02-9.24219156E-02 7.19441736E-02 1.17992937E-02-2.86868587E-03
 7 14-1.30360919E-01 1.81582244E-02 1.67881919E-03-1.76256168E-03 1.98418689E-03
 7 15-1.68741289E-03 2.74947068E-03 2.92703185E-03 4.16140222E-04 8.34819318E-05
 7 16-6.61890450E-02-1.60505976E-02-7.00732390E-03 2.38854347E-03 4.23881087E-04
 7 17-3.10895256E-02-5.93803060E-03 2.53613004E-03-3.43132637E-03 1.40763877E-04
 8  1 5.33057361E-02-9.58595234E-02-1.26661120E-01 8.58877817E-03-1.16862974E-03
 8  2-1.45913191E-01-2.15957580E-02 3.48293720E-03-2.71603153E-03 1.23300756E-02
 8  3-5.12451148E-03-3.43595934E-03-4.76006773E-03 3.15959851E-04 4.86836301E-04
 8  4-1.14229578E-01 2.51640674E-01-1.04151887E-01-1.48308919E-01-3.10810602E-03
 8  5 1.75112601E-01 2.40325079E-02-5.70429334E-02 1.07963791E-03 3.85404188E-03
 8  6 1.19039019E-03-1.12116124E-02 1.09489429E-02 3.71383951E-04 3.25962595E-04
 8  7-6.02857758E-02-3.01893325E-02-6.88245375E-04-1.96478965E-03 4.73502455E-03
 8  8-5.73818611E-02-3.06931420E-02-9.52834982E-04-3.25174403E-03-3.67050779E-03
 8  9-7.90981655E-02-4.60970434E-02 2.73114420E-03 5.39821874E-03-1.07951862E-03
 8 10 5.67163578E-02-1.31049786E-01-2.49110631E-02-1.25192028E-01-1.90656641E-03
 8 11-1.63972914E-01-1.65975975E-02-7.15193823E-02-1.70372175E-03-6.15756292E-03
 8 12 9.36567273E-03-2.20959315E-03 1.35804797E-03-4.48687524E-05 2.95504486E-04
 8 13 3.34152886E-02-6.75561242E-02 2.49275549E-01 2.77102121E-01-1.10771365E-02
 8 14-9.74235951E-02 1.14921810E-01 1.44188646E-01-6.47679634E-03 1.34655866E-03
 8 15-5.20792938E-04 2.12227297E-03 1.93820849E-02 1.13596093E-03 1.31503645E-03
 8 16-1.26625622E-01-5.03043984E-02-8.15161332E-03 9.33007226E-03 5.52536164E-04
 8 17-1.46207467E-01-5.60535206E-02 8.42569361E-03-9.39919330E-03 5.15887607E-04
 9  1-3.36059440E-02 6.23818470E-02 1.23642440E-01-8.04478990E-03 3.84285973E-03
 9  2 7.61197441E-02 5.30174947E-02-5.12897314E-04 3.10497892E-04-8.73426913E-03
 9  3 3.85185268E-03 3.98160398E-03 5.04300808E-03-2.68724035E-04-7.88788506E-04
 9  4 1.00970879E-02-1.90398854E-02-1.40195496E-01 4.61150790E-02 8.29819041E-04
 9  5-3.06668471E-02-2.54670154E-02-2.72057895E-03 5.69914279E-04 1.41294295E-02
 9  6-1.51045650E-02 6.12389800E-05 1.03674862E-03-6.95161280E-05-1.13372756E-05
 9  7 4.84079309E-02 2.63807414E-02 1.28032998E-03 1.55189231E-03-3.35724647E-03
 9  8 4.02969268E-02 2.01991826E-02 1.71157328E-03 2.33416000E-03 2.46842921E-03
 9  9 6.57014484E-02 3.18195938E-02-9.64865805E-04-4.31078625E-03 8.13296874E-04
 9 10 2.15583876E-02-4.80302605E-02-8.18426300E-02-7.99690362E-02 2.02931251E-04
 9 11-7.34462395E-02-4.76198370E-02-4.17013761E-02 1.70213814E-04-2.89586422E-03
 9 12 7.23653546E-03-1.05897871E-03 3.60766224E-03-1.58920105E-06 2.23183737E-05
 9 13-1.97803907E-03 7.27196579E-03-2.81551346E-01 3.21703056E-01 1.09670754E-03
 9 14 4.10262673E-03-1.71381978E-01 1.79416809E-01 8.53240261E-04 1.06883425E-02
 9 15-1.10518820E-02 8.88965915E-04 2.02582752E-03-2.25070850E-03 2.35105797E-03
 9 16 2.05431735E-01 8.00524883E-02 1.54360597E-02 4.81626866E-04-1.06650349E-03
 9 17-2.23373164E-01-1.00202216E-01 2.25718791E-04-1.56424071E-02 1.10521600E-03
10  1 1.65999826E-02-2.53307286E-02-1.29244741E-01 2.01513274E-01 4.34133698E-03
10  2-6.55964198E-02-2.76160139E-02 1.01086056E-01 1.65660552E-04 1.48593147E-02
10  3-1.13441361E-04-1.12414063E-02-5.15725703E-03-9.81229003E-04-4.06729135E-03
10  4-6.09909839E-02 1.39131584E-01 2.07686998E-01 2.09706478E-01 6.05570285E-03
10  5 1.30707343E-01 8.47427028E-02-1.79245048E-02 1.66897972E-03-1.17759569E-03
10  6-8.32368787E-04-4.72818651E-03-5.44278326E-03-2.54977078E-04-2.68640171E-04
10  7-7.97538081E-02-5.48587725E-02-3.85456055E-04 4.34242309E-04 5.40861655E-03
10  8-1.14143614E-01-8.02579742E-02 1.60980859E-04-2.94653520E-03-5.87703023E-03
10  9 3.25053740E-02 1.00722492E-02-3.97511059E-03 1.74814813E-03 2.45271502E-04
10 10 6.77675097E-02-1.57311955E-01 2.60881122E-01-2.39501446E-01 1.16914753E-03
10 11-2.45625565E-01 1.54738938E-01-1.36199915E-01 6.59145142E-04 6.36826538E-04
10 12 1.26484313E-02-5.47722934E-03-2.04682497E-02 2.67490635E-05-2.15245125E-04
10 13 2.99724472E-03-6.74611387E-03-1.83719507E-01-7.94445894E-02 9.81708544E-03
10 14-1.84170860E-02-1.26071608E-01-3.85079982E-02 7.00710720E-03 3.65307456E-03
10 15-1.28839005E-03-7.39103782E-05-6.72479692E-03-9.29713812E-04-5.95643691E-05
10 16 9.18022928E-02 3.12235666E-02 4.14546021E-03-5.20255355E-03-1.89760951E-04
10 17 1.38978187E-02 8.56717425E-03-4.40405327E-03-8.64157748E-04 1.62703856E-04
11  1 8.79108185E-04-2.29826699E-03-6.43777075E-03-5.73467793E-03 3.26328527E-01
11  2-2.70023046E-03-4.05275347E-03-5.65883103E-03 1.59667773E-01-1.04831875E-03
11  3-7.60827365E-03 8.45537571E-03-2.39044499E-03-8.64091152E-04-1.64329298E-02
11  4 2.15997680E-04-1.95166570E-03-2.09601410E-03-8.34028166E-03 2.35973586E-01
11  5 8.51246908E-03-2.32436611E-03-2.69642802E-03 1.03988226E-01-8.65212953E-05
11  6-5.09641774E-04 4.77059509E-04-2.35726968E-04-1.93924859E-03 2.93334222E-03
11  7 1.86928599E-01 1.47038105E-01-4.36019996E-03 5.12642628E-03-6.44726619E-03
11  8-1.49436530E-01-1.20263033E-01 2.78388749E-03-7.09286398E-03-2.38339146E-03
11  9-3.83190513E-02-2.61921532E-02 1.59027509E-03 1.94567473E-03 4.45260789E-03
11 10-1.42159279E-03 4.33354887E-03-8.44914998E-03 4.67061456E-03 2.14445229E-01
11 11 2.51409642E-03-5.70648823E-03 4.27334232E-03 1.39409016E-01 3.86839069E-04
11 12 1.36036853E-04 4.09082419E-04 5.41658612E-04 5.41000603E-03-1.98072023E-02
11 13 2.36693589E-03-4.57725452E-03 6.91967091E-03 1.77204060E-03 1.88528868E-01
11 14-1.27447870E-02 8.12107260E-04 2.87273281E-04 1.33996208E-01-1.63017193E-04
11 15-2.78720931E-04 1.14356211E-03 5.64310868E-05 7.53389357E-03 6.45024443E-03
11 16-7.70292272E-04-1.74860433E-03 3.00933720E-04 1.51890674E-04 5.44742298E-03
11 17 2.96975148E-03 1.07336413E-03 2.03537685E-04 6.63935771E-04 5.84650874E-03
12  1 1.04982816E-03 1.27911763E-03-2.00534026E-01 1.20195034E-01-2.15455872E-03
12  2-2.27476926E-03-1.00817318E-01 5.00461279E-02-4.88174844E-04 1.70795868E-02
12  3-6.90444802E-03-9.81795864E-03-2.37897227E-03-1.71180900E-04-1.65750922E-03
12  4 7.48648083E-03-2.66617398E-02 2.36517525E-01-2.63874473E-01-4.48917366E-03
12  5 5.27363386E-02 7.20980476E-02-2.82897569E-02-1.54275401E-03 2.10743438E-02
12  6-1.47158574E-02 4.78789499E-03 1.42278920E-02 2.01870273E-04-2.92092362E-04
12  7-6.65915133E-02-5.69389594E-02-1.89241193E-03 6.41581409E-04 4.05656269E-03
12  8-8.07323536E-02-6.99479747E-02-1.90160123E-03-1.12643395E-03-4.07435894E-03
12  9-1.46176012E-02 4.38405108E-03-2.84919726E-03 2.91228971E-03-1.34632641E-04
12 10-4.80753704E-02 1.09320776E-01 6.15432877E-02 4.24711262E-01-4.07792068E-04
12 11 2.16203994E-01 4.48644094E-02 2.58782742E-01-4.18477984E-04 1.09042498E-02
12 12-3.10120480E-02 6.19733816E-03-1.05915787E-03-8.66916021E-05-1.68573914E-05
12 13-5.70109293E-03 1.14316568E-02-9.56219109E-02 1.39352456E-01-2.94984174E-03
12 14 2.72082619E-02-5.34300800E-02 7.67099894E-02-2.07155327E-03 1.30714765E-02
12 15-1.55975679E-02-9.10233894E-05 8.39759835E-04-9.88444236E-04 8.95730762E-04
12 16 9.36326273E-02 6.33405741E-02 5.63265913E-03-1.75019429E-04-5.16296162E-04
12 17-1.10398844E-01-8.01670017E-02-1.42324523E-05-5.59250441E-03 3.88994973E-04
13  1-2.15340983E-03 6.40495325E-03 2.25355921E-01 3.51197996E-01 1.10133897E-02
13  2 1.35621632E-02 1.22413343E-01 1.92610856E-01 1.26796874E-03 2.25960306E-03
13  3 9.64574265E-03-1.25084424E-02 2.23221257E-02-2.73875442E-03-1.12715426E-02
13  4 1.44709969E-02-3.00440108E-02-1.24650033E-01-5.80118967E-02-4.17947542E-03
13  5-5.33018638E-02-4.98190357E-02 3.41442334E-03-1.24952171E-03 3.77853502E-03
13  6-1.23738158E-03-1.32387986E-04 1.99973960E-02 4.04398682E-04-9.32595524E-04
13  7-5.43116480E-02-4.22148494E-02 4.03463250E-03 4.25603721E-03 3.33736756E-03
13  8-1.44742312E-01-1.23483725E-01 4.91923893E-03-8.58623944E-04-6.69513651E-03
13  9 2.77366963E-01 2.10822715E-01-6.63551663E-03-9.79828180E-03 2.99002599E-03
13 10-4.49241602E-03 1.03098940E-02-7.11756831E-02 5.15017444E-02-5.10464128E-03
13 11 2.23523812E-02-4.35389043E-02 3.06646551E-02-4.00830527E-03-1.05802893E-03
13 12-1.02038716E-03 6.01078636E-04 6.80976484E-03-9.26031110E-05 3.81544943E-04
13 13-1.58787211E-02 3.46229849E-02 1.59141046E-01 2.28907425E-02-6.02754456E-03
13 14 6.73496864E-02 1.10969992E-01 9.22405355E-03-3.39138829E-03-7.95232572E-03
13 15 4.24291642E-03-2.35903863E-04 4.89641123E-03 1.00974061E-03-4.05665903E-04
13 16-8.42937018E-02-5.00449260E-02-3.21382794E-03 3.02151026E-03 1.49203908E-04
13 17 2.48374587E-02 7.47824528E-03 1.67166613E-03 3.15970691E-03-2.85353244E-04
14  1-6.71027612E-04 1.25767476E-03 6.20536481E-03 9.93642632E-03-2.84063636E-01
14  2 5.16172864E-03 5.10411307E-03 8.99550504E-03-1.55480676E-01 1.33108245E-03
14  3 7.32468276E-03-8.64358308E-03 2.77478072E-03-1.01634737E-02 1.94634399E-02
14  4-5.36090390E-04 1.79261330E-03-2.83517153E-03-7.54178662E-03 2.19678089E-01
14  5-7.91668150E-03 1.32395341E-04-9.33592458E-05 1.28802506E-01 6.26976862E-04
14  6-1.64584273E-04-2.62245899E-04 8.37426047E-04-2.21863078E-02 1.34394532E-02
14  7-1.84602181E-01-1.65433979E-01 2.50856861E-03-4.37164556E-03 5.74545157E-03
14  8 1.43251875E-01 1.30378804E-01-1.36083461E-03 6.19000445E-03 1.86794303E-03
14  9 3.98643846E-02 2.98185554E-02-1.08912694E-03-1.92887807E-03-3.90689714E-03
14 10-1.02863727E-04-8.16941485E-04-3.95996617E-03 1.52754579E-03 2.97148018E-01
14 11 3.88441717E-03-1.99732213E-03-6.90899042E-04 2.08593788E-01-3.98772207E-04
14 12-2.09582102E-04-6.31327631E-04 1.51855716E-04 5.85777991E-03-2.40021761E-02
14 13 2.44620380E-03-7.13726632E-03 7.82092933E-03 8.19246876E-03 2.66045954E-01
14 14-4.70851368E-03 1.10160392E-02 7.37007763E-03 2.00573074E-01-8.45970833E-04
14 15-9.83353351E-04 5.62528138E-04 3.15413348E-04 6.49762168E-03 7.93928572E-03
14 16 1.97022023E-03 2.87904289E-03 8.50485910E-04 4.55193853E-05 8.26429121E-03
14 17 5.72249294E-04-6.31824709E-05-6.02385339E-05 5.80373541E-04 8.09081050E-03
15  1 2.75854681E-02-5.26471510E-02 2.03253069E-01-1.15556620E-01 5.64229337E-03
15  2-1.80975895E-01 1.27419590E-01-8.09658304E-02 1.44058001E-02-1.32699757E-02
15  3 5.69876401E-03 6.55745945E-03 2.69377846E-03 3.06989533E-04 1.88782441E-03
15  4 1.41428619E-02-2.71563492E-02-1.37575479E-01 1.86706786E-02 1.40595646E-02
15  5-9.93170343E-02 5.36289015E-02 6.34728472E-02 1.05626907E-02-2.71070918E-02
15  6 2.56179486E-02-1.38037432E-03 4.95692668E-02 1.62808742E-03 7.25494542E-03
15  7 4.50425013E-02 5.63565061E-02 3.14434564E-03-9.92554389E-04-3.09241994E-03
15  8 5.73276757E-02 8.40982712E-02 2.59409541E-03 6.63488052E-04 3.20402747E-03
15  9-8.66473979E-04 4.54719911E-02 1.01460664E-03-7.38625387E-04 2.95470368E-04
15 10-1.21803130E-03 7.47451428E-03 5.46542204E-01 1.10232115E-01 5.79993219E-02
15 11-1.03442470E-02 4.18257084E-01 8.88134727E-02 4.68828613E-02 9.68184703E-03
15 12-6.06131334E-03 1.13201715E-03-2.11655351E-02 1.10211673E-03-3.97001811E-03
15 13-3.37987028E-02 6.71315162E-02 1.07250798E-01 1.35746334E-01-6.71352054E-02
15 14 2.51853256E-01 9.40159979E-02 1.16034572E-01-5.98866110E-02-5.73139601E-03
15 15-1.56709373E-03-1.08431248E-03 5.05545864E-03-2.99508794E-04 4.66302253E-04
15 16-2.73549959E-02-6.69179706E-02-1.13959773E-04 6.23542988E-04-1.96119041E-03
15 17-4.75797245E-02-4.56521405E-02 3.71278144E-03-1.34181417E-03-1.96566508E-03
16  1 4.24122722E-03-7.64202868E-03 2.96372943E-02-2.03048808E-02-1.56107959E-03
16  2-3.01551566E-02 1.52702032E-02-3.49562797E-02-1.39536560E-02-1.99441969E-03
16  3 6.17992331E-04 1.30638330E-03 3.41169897E-04 1.94373938E-04-2.38433313E-03
16  4 9.91610558E-04-8.08118112E-04-2.42571745E-02-1.38530606E-03-6.51830799E-02
16  5-1.72519847E-02 1.65064897E-02 2.06681464E-02-6.24773172E-02-4.00696120E-03
16  6 4.36062082E-03-7.95988271E-04 7.32021333E-03-9.01845373E-03-4.69448863E-02
16  7 9.93254707E-03 3.30916137E-02-6.06105763E-04 1.35940219E-04-6.03363676E-04
16  8 6.08881517E-03-2.52326525E-02 1.84355553E-03-2.56514550E-04 2.06502949E-04
16  9-8.31363236E-04 1.88788449E-02-3.20965978E-04-5.78942407E-05-2.22289034E-04
16 10-6.27023479E-05 2.08712412E-03 7.95086307E-02 2.01876418E-02-3.83701588E-01
16 11-7.45308598E-03 5.90978580E-02 1.70393966E-02-3.08061954E-01 1.64699981E-03
16 12-7.18769928E-04 8.90012480E-04-2.65960949E-03-7.30966913E-03 2.46772015E-02
16 13-3.18952005E-04-2.62257010E-03 2.46680129E-02 2.79189793E-02 4.66479306E-01
16 14 2.81086690E-02 2.34793186E-02 3.07217339E-02 4.33217002E-01-1.61404474E-03
16 15-1.33094373E-03 1.24143758E-03 8.29271998E-04 5.88288435E-03 1.88964459E-03
16 16 1.55842999E-03-8.64901818E-03 1.00938603E-03-5.95054805E-05 1.41406614E-02
16 17-7.82442837E-04 3.94348802E-04 6.19046709E-04 1.05243353E-03 1.51812092E-02
 $END

! TRAVIS-CI SMALL

