!   HN=NH+  ...  6-31G* basis has just 34 AOs
!   crossing between 2-B and 4-B states in the molecular cation
!
!   Starts at a geometry of NN=1.3208, NH=1.0132, aHNN=109.39, w= 95.60
!   & ends at a geometry of NN=1.3420, NH=1.0103, aHNN=129.10, w=153.18
!   after a total of 32 steps, with energy/gradient results of
!     2-B= Energy of First State  = -109.525389
!     4-B= Energy of 2nd    State = -109.525397
!          ENERGY DIFFERENCE =         0.000008    0.000010
!          MAX EFFECTIVE GRADIENT =    0.000041    0.000500
!          RMS EFFECTIVE GRADIENT =    0.000021    0.000300
!          MAX CHANGE OF X =           0.000830    0.002000
!          RMS CHANGE OF X =           0.000496    0.001500
!
!   This run takes 4 seconds on 2.66 GHz Cloverton (27 Mar 15)
!   the results have scarcely changed since 2006.
!
 $contrl runtyp=mex nzvar=6 $end
 $system mwords=1 $end
 $mex    scf1=rohf mult1=2  scf1=rohf mult2=4 nstep=50 $end
 $basis  gbasis=n31 ngauss=6 ndfunc=1 $end
 $zmat   izmat(1)=1,1,2,  1,1,3,  1,2,4,  2,3,1,2,  2,4,2,1,  3,3,1,2,4 $end
 $data
starting geometry is optimized for neutral triplet HN=NH
Cn 2

N           7.0    .6601653595   -.0181970391    .0106090143
H           1.0   1.0160022785    .6802319374    .6525946773
 $end

! TRAVIS-CI SMALL

! TRAVIS-CI SKIP
