!  geometry optimization test.
!  The glycine zwitterion contains an intramolecular hydrogen
!  bond which generates a "5 membered ring".
!                      -
!             H8 --- O4
!             | +    |
!          H9-N5     C2=O1
!            / \    /
!           H10 \  /
!                C3
!                /\
!               H6 H7
!
!  Using Pulay's symmetry coordinates for 5 membered ring, and
!  treating the NH2 group as if it were a CH2 in a ring, gives:
!     NSERCH: 0, E=-39.0573199771, RMS grad=0.0095233
!     NSERCH: 9, E=-39.0648382926, RMS grad=0.0000217
!
!  This test takes 0 seconds on 2.66 GHz Cloverton (28 Apr 2015)
!  results have not changed since at least 2001
!
!  Using a Z-matrix which includes all 5 bonds in this ring,
!  and two internal angles and two internal dihedrals gives:
!     NS.RCH=0, FINAL E=-39.0573199771, RMS grad=0.0103716
!     NS.RCH=9, FINAL E=-39.0648383064, RMS grad=0.0000151
!
 $contrl scftyp=rhf runtyp=optimize molplt=.true. $end
 $system mwords=1 $end
 $basis  gbasis=pm3 $end
 $statpt hess=guess nstep=40 $end
---- $contrl nzvar=24 $end
---- $zmat izmat(1)= 1,1,2,  1,2,3,  1,2,4,  1,3,5,  1,3,6,  1,3,7,  
                 1,5,8,  1,5,9,  1,5,10,  1,4,8,
                 2,1,2,3,  2,6,3,2,  2,7,3,2,  2,9,5,3,  2,10,5,3,
                 3,6,3,2,4,   3,7,3,2,4,
                 3,9,5,3,2,   3,10,5,3,2,   3,5,3,2,1,
                 2,4,2,3,  2,8,5,3,  3,4,2,3,5,  3,3,5,8,4  $end
 $contrl nzvar=33 $end
 $zmat izmat(1)= 1,1,2,  1,2,3,  1,2,4,  1,3,5,  1,3,6,  1,3,7,  
                 1,5,8,  1,5,9,  1,5,10,  1,4,8,
                 2,4,2,3,  2,2,3,5,  2,8,5,3,  2,5,8,4,  2,8,4,2,
                 3,4,2,3,5, 3,2,3,5,8, 3,3,5,8,4, 3,5,8,4,2, 3,8,4,2,3
                 2,1,2,4,  2,1,2,3,  4,1,2,4,3,
                 2,6,3,7,  2,6,3,5,  2,7,3,5,  2,6,3,2,  2,7,3,2,
                 2,9,5,10,  2,9,5,8,  2,10,5,8,  2,9,5,3,  2,10,5,3
       ijs(1)=    1,1,    2,2,    3,3,    4,4,    5,5,    6,6,
                  7,7,    8,8,    9,9,  10,10, 
                  11,11,  12,11,  13,11,  14,11,  15,11,
                          12,12,  13,12,  14,12,  15,12,
                  16,13,  17,13,  18,13,  19,13,  20,13
                  16,14,  17,14,          19,14,  20,14
                  21,15, 22,15,     23,16,
                  24,17, 25,17, 26,17, 27,17, 28,17,
                         25,18, 26,18, 27,18, 28,18,
                         25,19, 26,19, 27,19, 28,19,
                         25,20, 26,20, 27,20, 28,20,
                  29,21, 30,21, 31,21, 32,21, 33,21,
                         30,22, 31,22, 32,22, 33,22,
                         30,23, 31,23, 32,23, 33,23,
                         30,24, 31,24, 32,24, 33,24 
       sij(1)=    1.0,1.0,1.0,1.0,1.0,1.0,1.0,1.0,1.0,1.0,
                  1.0, -0.8090, 0.3090, 0.3090, -0.8090,
                  -1.1180, 1.8090, -1.8090, 1.1180,
                  0.3090, -0.8090, 1.0, -0.8090, 0.3090,
                  -1.8090, 1.1180,      -1.1180, 1.8090,
                  1.0,-1.0,    1.0,
                  4.0,-1.0,-1.0,-1.0,-1.0,   1.0,-1.0,1.0,-1.0,
                       1.0,1.0,-1.0,-1.0,    1.0,-1.0,-1.0,1.0,
                  4.0,-1.0,-1.0,-1.0,-1.0,   1.0,-1.0,1.0,-1.0,
                       1.0,1.0,-1.0,-1.0,    1.0,-1.0,-1.0,1.0  $end
 $data
zwiterionic form of amino acid glycine
C1
O     8.0  -1.7234112201    .5490195490   -.0065990067
C     6.0   -.6455636317   -.0634680479   -.0083714277
C     6.0    .6555767165    .8574169980    .0257193012
O     8.0   -.4073157576  -1.3025109136   -.0328050467
N     7.0   1.8733802772    .0114556678    .0204991258
H     1.0    .6454495576   1.5178510480   -.8771733672
H     1.0    .6254915386   1.4777504683    .9562274241
H     1.0   1.5232120305   -.9842149608   -.0048079727
H     1.0   2.4455650512    .1851495190   -.8000673605
H     1.0   2.4278372674    .1493321500    .8598119111
 $end

! TRAVIS-CI SMALL

! TRAVIS-CI SKIP
