!   Dimer of H2N-C6H4-NO2, O15 is H bonded by H29, and O16 by H28.
!   Test is from Jim Shoemaker, and illustrates hydrogen bonding.
!   Test illustrates simplicity of the non-van der Waals DLC keyword.
!
!   natural internal coordinates is just one step quicker than DLC:
!     NS.RCH:   0  E= -125.8259511905  R.M.S.=  0.0136879
!     NS.RCH:   1  E= -125.8397791863  R.M.S.=  0.0086603
!         ...snipped...
!     NS.RCH:  16  E= -125.8446077432  R.M.S.=  0.0000162
!     NS.RCH:  17  E= -125.8446077996  R.M.S.=  0.0000060
!
!   If the DLC option is used instead of the laboriously hand
!   generated natural internals, the optimization is:
!     NSERCH:   0  E= -125.8259511905  R.M.S.=  0.0136879
!     NSERCH:   1  E= -125.8398989358  R.M.S.=  0.0087113
!          ...snipped...
!     NSERCH:  17  E= -125.8446076878  R.M.S.=  0.0000278
!     NSERCH:  18  E= -125.8446077968  R.M.S.=  0.0000084
!   Note that one of the hydrogen bonds must be added so that the
!   DLC generator recognizes the two monomers are tied together.
!
!   This run takes 1 seconds on a 2.66 GHz Cloverton (28 Apr 2015)
!   results unchanged since at least 2001
!
 $CONTRL SCFTYP=RHF RUNTYP=optimize MULT=1 nzvar=126
         MOLPLT=.T. PLTORB=.T.      $END
 $SYSTEM mwords=8 $END
 $STATPT NSTEP=200  OPTTOL=5.0E-5 HESS=guess IHREP=0  $END
 $BASIS  gbasis=pm3 $END
 $GUESS  GUESS=huckel $END
 $DATA
n31 ogeo dimer added at y+5.4 ang
Cs

C           6.0   0.0569251301   1.4073868207   0.0000000000
C           6.0  -1.1763607128   0.7728571228   0.0000000000
C           6.0  -1.2362767080  -0.6003809891   0.0000000000
C           6.0  -0.0604981648  -1.3638333381   0.0000000000
C           6.0   1.1756479643  -0.7025807132   0.0000000000
C           6.0   1.2321127908   0.6708044554   0.0000000000
H           1.0  -2.0742268026   1.3574647674   0.0000000000
H           1.0  -2.1913917530  -1.0940054723   0.0000000000
H           1.0   2.0855833506  -1.2752301817   0.0000000000
H           1.0   2.1762149942   1.1773621661   0.0000000000
N           7.0  -0.1180549417  -2.7221705148   0.0000000000
H           1.0  -0.9875819405  -3.1999015100   0.0000000000
H           1.0   0.7079424254  -3.2717454217   0.0000000000
N           7.0   0.1180030412   2.8488422880   0.0000000000
O           8.0   1.1981658223   3.3641269967   0.0000000000
O           8.0  -0.9146984603   3.4536542537   0.0000000000
C           6.0   0.0569251301  11.0073868207   0.0000000000
C           6.0  -1.1763607128  10.3728571228   0.0000000000
C           6.0  -1.2362767080   9.0000         0.0000000000
C           6.0  -0.0604981648   8.236          0.0000000000
C           6.0   1.1756479643   8.900          0.0000000000
C           6.0   1.2321127908  10.2708044554   0.0000000000
H           1.0  -2.0742268026  10.9574647674   0.0000000000
H           1.0  -2.1913917530   8.506          0.0000000000
H           1.0   2.0855833506   8.324          0.0000000000
H           1.0   2.1762149942  10.7773621661   0.0000000000
N           7.0  -0.1180549417   6.8779         0.0000000000
H           1.0  -0.9875819405   6.40           0.0000000000
H           1.0   0.7079424254   6.328          0.0000000000
N           7.0   0.1180030412  12.4488422880   0.0000000000
O           8.0   1.1981658223  12.9641269967   0.0000000000
O           8.0  -0.9146984603  13.0536542537   0.0000000000
 $END
!
!        the first tries DLC coordinates,
!        adding in the long H-bond manually.
 $zmat dlc=.true. auto=.true. nonvdw(1)=15,29 $end
!
!        this is Jim's very laborious natural internal coordinate input.
--- $ZMAT       izmat(1)=
     1,    1,    2,                ! ring internals
     1,    2,    3,
     1,    3,    4,
     1,    4,    5,
     1,    5,    6,
     1,    6,    1,
     2,    1,    2,    3,
     2,    2,    3,    4,
     2,    3,    4,    5,
     2,    4,    5,    6,
     2,    5,    6,    1,
     2,    6,    1,    2,
     3,    1,    2,    3,    4,
     3,    2,    3,    4,    5,
     3,    3,    4,    5,    6,
     3,    4,    5,    6,    1,
     3,    5,    6,    1,    2,
     3,    6,    1,    2,    3,                    ! # 18

     1,    7,    2,               ! H 7
     2,    7,    2,    1,
     2,    7,    2,    3,
     4,    7,    2,    1,    3,

     1,    8,    3,               ! H 8
     2,    8,    3,    2,
     2,    8,    3,    4,
     4,    8,    3,    2,    4,


     1,    9,    5,               ! H 9
     2,    9,    5,    4,
     2,    9,    5,    6,
     4,    9,    5,    4,    6,

     1,   10,    6,               ! H 10
     2,   10,    6,    1,
     2,   10,    6,    5,
     4,   10,    6,    1,    5,


     1,   11,    4,                !amine N 11
     2,   11,    4,    3,
     2,   11,    4,    5,
     4,   11,    4,    3,    5,    ! planar bend
     1,   12,   11,                ! nitro O's
     1,   13,   11,
     2,   12,   11,   13,          ! alpha
     2,   12,   11,    4,          ! beta 1
     2,   13,   11,    4,          ! beta 2
     4,    4,   11,   12,   13,
     3,   12,   11,    4,    3,

     1,   14,    1,                ! amine N 14
     2,   14,    1,    2,
     2,   14,    1,    6,
     4,   14,    1,    2,    6,
     1,   15,   14,                ! amine H's
     1,   16,   14,
     2,   15,   14,   16,
     2,   15,   14,    1,
     2,   16,   14,    1,
     4,    1,   14,   15,   16,
     3,   15,   14,    1,    6,

     1,   17,   18,                   ! 2nd Ring
     1,   18,   19,
     1,   19,   20,
     1,   20,   21,
     1,   21,   22,
     1,   22,   17,
     2,   17,   18,   19,
     2,   18,   19,   20,
     2,   19,   20,   21,
     2,   20,   21,   22,
     2,   21,   22,   17,
     2,   22,   17,   18,
     3,   17,   18,   19,    20,
     3,   18,   19,   20,    21,
     3,   19,   20,   21,    22,
     3,   20,   21,   22,    17,
     3,   21,   22,   17,    18,
     3,   22,   17,   18,    19,

     1,   23,   18,                       ! H 23
     2,   23,   18,   17,
     2,   23,   18,   19,
     4,   23,   18,   17,    19,

     1,   24,   19,                       ! H 24
     2,   24,   19,   18,
     2,   24,   19,   20,
     4,   24,   19,   18,   20,

     1,   25,   21,                      ! H 25
     2,   25,   21,   20,
     2,   25,   21,   22,
     4,   25,   21,   20,   22,

     1,   26,   22,                      ! H 26
     2,   26,   22,   17,
     2,   26,   22,   21,
     4,   26,   22,   17,   21,

     1,   27,   20,                      ! N 27
     2,   27,   20,   19,
     2,   27,   20,   21,
     4,   27,   20,   19,   21,

     1,   28,   27,                      ! Nitro O's
     1,   29,   27,
     2,   28,   27,   29,                ! alpha
     2,   28,   27,   20,                ! b1
     2,   29,   27,   20,                ! b2
     4,   20,   27,   28,   29,
     3,   28,   27,   20,   19,

     1,   30,   17,                      ! Amine N
     2,   30,   17,   18,
     2,   30,   17,   22,
     4,   30,   17,   18,   22,

     1,   31,   30,                      ! Amine H's
     1,   32,   30,
     2,   32,   30,   31,
     2,   31,   30,   17,
     2,   32,   30,   17,
     4,   17,   30,   31,   32,
     3,   31,   30,   17,   18,

     1,   28,   15,                     ! Hydrogen bonding
     1,   29,   16,

     2,   15,   29,   16,
     2,   28,   16,   29,
     2,   29,   15,   28,
     2,   16,   28,   29,

     3,   15,   28,   29,   16,
     3,   28,   29,   16,   15,
     3,   29,   16,   15,   28,
     3,   16,   15,   28,   29,

     3,   14,   15,   16,   29,
     3,   14,   16,   15,   28,

     3,   27,   29,   16,   15,
     3,   27,   28,   29,   16,



     ijs(1)=
    1,1, 2,2, 3,3,   4,4,   5,5,   6,6,         ! FIRST ring bonds

    7,7  8,7  9,7,  10,7,  11,7,  12,7,         ! ring angle 1
    7,8  8,8  9,8,  10,8,  11,8,  12,8,         ! ring angle 2
    7,9  8,9  9,9   10,9,  11,9,  12,9,         ! ring angle 3

    13,10, 14,10, 15,10, 16,10, 17,10, 18,10,     ! ring tor1
    13,11, 14,11, 15,11, 16,11, 17,11, 18,11,     ! ring tor1
    13,12, 14,12, 15,12, 16,12, 17,12, 18,12,     ! ring tor1

    19,13,                    ! H 7
    20,14,  21,14,
    22,15,

    23,16,                    ! H 8
    24,17,  25,17,
    26,18,

    27,19,                    ! H 9
    28,20,  29,20,
    30,21,

    31,22,                    ! H 10
    31,23,  33,23,
    34,24,

    35,25,                    ! nitro N 11
    36,26,  37,26,
    38,27,

    39,28,                    ! nitro O's 12 & 13
    40,29,
    41,30,  42,30,  43,30,
            42,31,  43,31,
    44,32,
    45,33,

    46,34,                    ! amine N 14
    47,35,  48,35,
    49,36,

    50,37,                    ! amine H's
    51,38,
    52,39,  53,39,  54,39,
            53,40,  54,40,
    55,41,
    56,42,

   57,43,  58,44,  59,45,  60,46,  61,47,  62,48,  ! ring # 2stretch

   63,49,  64,49,  65,49,  66,49,  67,49,  68,49,  !ring ang 1
   63,50,  64,50,  65,50,  66,50,  67,50,  68,50,
   63,51,  64,51,  65,51,  66,51,  67,51,  68,51,

   69,52,  70,52,  71,52,  72,52,  73,52,  74,52,  ! ring tor 1
   69,53,  70,53,  71,53,  72,53,  73,53,  74,53,
   69,54,  70,54,  71,54,  72,54,  73,54,  74,54,

   75,55,                       ! H 23
   76,56,  77,56,
   78,57,

   79,58,                       ! H 24
   80,59,  81,59,
   82,60,

   83,61,                       ! H 25
   84,62,  85,62,
   86,63,

   87,64,                       ! H 26
   88,65,  89,65,
   90,66,

   91,67,                       ! Nitro N 27
   92,68,  93,68,
   94,69,

   95,70,                       ! Nitro O's 28  29
   96,71,
   97,72,  98,72,  99,72,
           98,73,  99,73,
  100,74,
  101,75,

  102,76,                      ! Amine N   30
  103,77,  104,77,
  105,78,

  106,79,                      ! Amine H's  31  32
  107,80,
  108,81,  109,81,  110,81,
           109,82,  110,82,
  111,83,
  112,84,

  113,85,                      !Hydrogen bonding
  114,86,
  115,87,  116,87,   117,87,   118,87,
  119,88,  120,88,   121,88,   122,88,
  123,89,  124,89,
  125,90,  126,90,


    sij(1)=
    1.0, 1.0, 1.0, 1.0, 1.0, 1.0,              ! ring bonds

    1.0, -1.0,  1.0, -1.0,  1.0, -1.0,         ! ring trigonal
    2.0, -1.0, -1.0,  2.0, -1.0, -1.0,         ! ring ang asym
    0.0,  1.0, -1.0,  0.0,  1.0, -1.0,         ! ring ang asym'

    1.0, -1.0,  1.0, -1.0,  1.0, -1.0,         ! puckering
    1.0,  0.0, -1.0,  1.0,  0.0, -1.0,         ! ring asym tors
   -1.0,  2.0, -1.0, -1.0,  2.0, -1.0,         ! ring asym tors'

    1.0,                            ! H 7
    1.0, -1.0,
    1.0,

    1.0,                            ! H 8
    1.0, -1.0,
    1.0,

    1.0,                            ! H 9
    1.0, -1.0,
    1.0,

    1.0,                            ! H 10
    1.0, -1.0,
    1.0,

    1.0,                            ! nitro N  11
    1.0, -1.0,
    1.0,

    1.0,                            ! nitro O's 12 & 13
    1.0,
    2.0, -1.0, -1.0,
          1.0, -1.0,
    1.0,
    1.0,

    1.0,                            ! amine N 14
    1.0, -1.0,
    1.0,
    1.0,                            ! amine H's  15 & 16
    1.0,
    2.0, -1.0, -1.0,
          1.0, -1.0,
    1.0,
    1.0,

    1.0, 1.0, 1.0, 1.0, 1.0, 1.0,              ! ring #2 bonds

    1.0, -1.0,  1.0, -1.0,  1.0, -1.0,         ! ring trigonal
    2.0, -1.0, -1.0,  2.0, -1.0, -1.0,         ! ring ang asym
    0.0,  1.0, -1.0,  0.0,  1.0, -1.0,         ! ring ang asym'

    1.0, -1.0,  1.0, -1.0,  1.0, -1.0,         ! puckering
    1.0,  0.0, -1.0,  1.0,  0.0, -1.0,         ! ring asym tors
   -1.0,  2.0, -1.0, -1.0,  2.0, -1.0,         ! ring asym tors'

    1.0,                            ! H 23
    1.0, -1.0,
    1.0,

    1.0,                            ! H 24
    1.0, -1.0,
    1.0,

    1.0,                            ! H 25
    1.0, -1.0,
    1.0,

    1.0,                            ! H 26
    1.0, -1.0,
    1.0,

    1.0,                            ! nitro N  27
    1.0, -1.0,
    1.0,

    1.0,                            ! nitro O's 28 & 29
    1.0,
    2.0, -1.0, -1.0,
          1.0, -1.0,
    1.0,
    1.0,

    1.0,                            ! amine N 30
    1.0, -1.0,
    1.0,
    1.0,                            ! amine H's  31 & 32
    1.0,
    2.0, -1.0, -1.0,
          1.0, -1.0,
    1.0,
    1.0,

    1.0,                            ! Hydrogen bonding
    1.0,
    1.0, -1.0, 1.0, -1.0,
    1.0, -1.0, 1.0, -1.0,
    1.0, -1.0,
    1.0, -1.0,
  $END

! TRAVIS-CI SMALL

