!  The PQQ molecule is from Aldo Jongejan, in May 2001.
!  Typical example of DLC's performance being much closer to the
!  natural internal coordinates, while as easy to input as Cartesians.
!
!         Cartesians: 202 steps to -177.1523604275, RMS=0.0000018
!      DLC internals: 104 steps to -177.1523604264, RMS=0.0000027
!  natural internals:  72 steps to -177.1523604284, RMS=0.0000020 <--this run
!
!  This run takes 7 seconds on 2.66 GHz Cloverton (28 Apr 2015)
!   
!  -----------------------------------------------------------------
!  The molecule: pyrroloquinoline quinone (PQQ)
!   
!                      O15  O16
!                       \  /
!        O26   O27       C14
!          \  /         /
!           C25 H10-N1-C2
!           |      /    \
!           C17   C5    C3-H11
!         /   \ /   \  /
!    H21-C20   C9    C4
!        |     |     |
!        C19   C8    C6==O12
!       / \   / \   /
!      C22  N18   C7
!     / \         ||
!    O23 O24      O13
!   
 $CONTRL SCFTYP=RHF ICHARG=-3 RUNTYP=OPTIMIZE COORD=ZMTMPC $end
 $SYSTEM mwords=2 $END
 $BASIS  GBASIS=MNDO $END
 $GUESS  GUESS=HUCKEL $END
 $STATPT NSTEP=400 opttol=1d-5 $END
 $SCF    DIIS=.T. DAMP=.T. $END
 $DATA
InsightII generated MOPAC Z-matrix 
C1
N    0.000000 0    0.000000 0    0.000000 0       0    0    0
C    1.309481 1    0.000000 0    0.000000 0       1    0    0
C    1.512770 1  109.255501 1    0.000000 0       2    1    0
C    1.371046 1  107.407379 1    0.166233 1       3    2    1
C    1.441166 1  108.646126 1   -0.363200 1       1    2    3
C    1.484825 1  132.272308 1  176.826065 1       4    3    2
C    1.568249 1  113.337112 1  174.799545 1       6    4    3
C    1.391755 1  117.527725 1   12.619830 1       7    6    4
C    1.333333 1  127.883049 1 -176.701126 1       5    1    2
H    1.030000 1  143.610199 1 -171.505051 1       1    2    3
H    1.062936 1  123.202110 1  179.570938 1       3    2    1
O    1.228610 1  125.095642 1   -7.435022 1       6    4    3
O    1.305768 1  118.300217 1 -167.303055 1       7    6    4
C    1.676650 1  123.328926 1  176.912903 1       2    1    5
O    1.263662 1  112.289597 1  176.093781 1      14    2    1
O    1.260320 1  113.008949 1   -4.415216 1      14    2    1
C    1.498952 1  129.373062 1    2.198881 1       9    5    1
N    1.391258 1  113.639687 1  172.199814 1       8    7    6
C    1.279794 1  125.856926 1 -177.802094 1      18    8    7
C    1.353987 1  121.463387 1  179.511078 1      17    9    5
H    1.074920 1  120.165199 1 -178.210358 1      20   17    9
C    1.578626 1  115.888634 1  178.776596 1      19   18    8
O    1.334375 1  116.689072 1    6.351093 1      22   19   18
O    1.228053 1  119.771400 1 -173.775253 1      22   19   18
C    1.578109 1  124.965973 1    1.097828 1      17    9    5
O    1.216160 1  117.375328 1  175.155518 1      25   17    9
O    1.342551 1  122.253456 1   -5.716866 1      25   17    9
 $END

========= Use only one of the next three groups! ============

!       how to run in Cartesian coordinates
--- $contrl nzvar=0 $end

!       how to run in delocalized coordinates
--- $contrl NZVAR=112 $END
--- $zmat auto=.t. dlc=.t. $end

!       how to run in natural internal coordinates
!       pairs of exclamation points contain comment fields.
 $contrl NZVAR=112 $END
 $ZMAT IZMAT(1)=
!ALL BONDS!
1,1,2,   1,2,3,   1,3,4,   1,4,5,   1,5,1,
1,4,6,   1,6,7,   1,7,8,   1,8,9,   1,9,5,
1,8,18,  1,18,19, 1,19,20, 1,20,17, 1,17,9,
1,14,2,  1,15,14, 1,16,14, 1,22,19, 1,23,22, 
1,24,22, 1,25,17, 1,26,25, 1,27,25, 1,12,6, 
1,13,7,  1,10,1,  1,11,3,  1,21,20,

!PYRROLE RING 1-15!
2,5,1,2, 2,1,2,3, 2,2,3,4, 2,3,4,5, 2,4,5,1, 
3,5,1,2,3, 3,1,2,3,4, 3,2,3,4,5, 3,3,4,5,1, 3,4,5,1,2,

!QUINONE RING 16-32!
2,5,4,6, 2,4,6,7, 2,6,7,8, 2,7,8,9, 2,8,9,5, 2,9,5,4,
3,5,4,6,7, 3,4,6,7,8, 3,6,7,8,9, 
3,7,8,9,5, 3,8,9,5,4, 3,9,5,4,6,

!PYRIDINE RING 35-51!
2,9,8,18, 2,8,18,19, 2,18,19,20, 2,19,20,17, 2,20,17,9, 2,17,9,8, 
3,9,8,18,19, 3,8,18,19,20, 3,18,19,20,17, 
3,19,20,17,9, 3,20,17,9,8, 3,17,9,8,18,

!CARBOXYLIC ACIDS 54-86!
2,14,2,1, 2,14,2,3, 4,14,2,1,4,
2,15,14,16, 2,15,14,2, 2,16,14,2,
3,15,14,2,1, 3,15,14,2,3,
3,16,14,2,1, 3,16,14,2,3,

2,22,19,18, 2,22,19,20, 4,22,19,18,20,
2,23,22,24, 2,23,22,19, 2,24,22,19,
3,23,22,19,20, 3,23,22,19,18,
3,24,22,19,20, 3,24,22,19,18,

2,25,17,9, 2,25,17,20, 4,25,17,9,20,
2,26,25,27, 2,26,25,17, 2,27,25,17,
3,26,25,17,9, 3,26,25,17,20,
3,27,25,17,9, 3,27,25,17,20,

!CARBONYLS 87-94!
2,12,6,4, 2,12,6,7, 4,12,6,4,7,
2,13,7,6, 2,13,7,8, 4,13,7,6,8,

!H's 95-106!
 2,10,1,2, 2,10,1,5, 4,10,1,2,5,
 2,11,3,2, 2,11,3,4, 4,11,3,2,4,
 2,21,20,17, 2,21,20,19, 4,21,20,17,19,

!PYRROLE-QUINONE RING INTERACTION 33&34!
3,1,5,4,6, 3,9,5,4,3,

!QUINONE-PYRIDINE RING INTERACTION 52&53!
3,5,9,8,18, 3,17,9,8,7,

IJS(1)=
!ALL BONDS!
1,1, 2,2, 3,3, 4,4, 5,5,
6,6, 7,7, 8,8, 9,9, 10,10,
11,11, 12,12, 13,13, 14,14, 15,15,
16,16, 17,17, 18,18, 19,19, 20,20,
21,21, 22,22, 23,23, 24,24, 25,25,
26,26, 27,27, 28,28, 29,29,

!PYRROLE RING 1-9!
30,30, 31,30, 32,30, 33,30, 34,30,
       31,31, 32,31, 33,31, 34,31,
35,32, 36,32, 37,32, 38,32, 39,32,
35,33, 36,33,        38,33, 39,33,

!QUINONE RING 10-20!
40,34, 41,34, 42,34, 43,34, 44,34, 45,34,
40,35, 41,35, 42,35, 43,35, 44,35, 45,35,
       41,36, 42,36,        44,36, 45,36,
46,37, 47,37, 48,37, 49,37, 50,37, 51,37,
46,38,        48,38, 49,38,        51,38,
46,39, 47,39, 48,39, 49,39, 50,39, 51,39,

!PYRIDINE RING 22-32!
52,40, 53,40, 54,40, 55,40, 56,40, 57,40,
52,41, 53,41, 54,41, 55,41, 56,41, 57,41,
       53,42, 54,42,        56,42, 57,42,
58,43, 59,43, 60,43, 61,43, 62,43, 63,43,
58,44,        60,44, 61,44,        63,44,
58,45, 59,45, 60,45, 61,45, 62,45, 63,45,

!CARBOXYLIC ACIDS 34-60!
64,46, 65,46, 66,47,
67,48, 68,48, 69,48,
       68,49, 69,49,
70,50, 71,50,
72,51, 73,51,

74,52, 75,52, 76,53,
77,54, 78,54, 79,54,
       78,55, 79,55,
80,56, 81,56,
82,57, 83,57,

84,58, 85,58, 86,59,
87,60, 88,60, 89,60,
       88,61, 89,61,
90,62, 91,62,
92,63, 93,63,

!CARBONYLS 61-66!
94,64, 95,64, 96,65,
97,66, 98,66, 99,67,

!H's 67-75!
100,68, 101,68, 102,69,
103,70, 104,70, 105,71,
106,72, 107,72, 108,73,

!PYRROLE-QUINONE RING INTERACTION 21!
109,74, 110,74,

!QUINONE-PYRIDINE RING INTERACTION 33!
111,75, 112,75,

SIJ(1)=
1.0, 1.0, 1.0, 1.0, 1.0,
1.0, 1.0, 1.0, 1.0, 1.0,
1.0, 1.0, 1.0, 1.0, 1.0,
1.0, 1.0, 1.0,
1.0, 1.0, 1.0,
1.0, 1.0, 1.0,
1.0, 1.0, 1.0, 1.0, 1.0, 

1.0, -0.8090, 0.3090, 0.3090, -0.8090,
     -1.1180, 1.8090, -1.8090, 1.1180,
0.3090, -0.8090, 1.0, -0.8090, 0.3090,
-1.8090, 1.1180,      -1.1180, 1.8090,

 
1.0, -1.0, 1.0, -1.0, 1.0, -1.0,
2.0, -1.0, -1.0, 2.0, -1.0, -1.0,
     1.0, -1.0,     1.0, -1.0,
1.0, -1.0, 1.0, -1.0, 1.0, -1.0,
1.0,      -1.0, 1.0,      -1.0,
-1.0, 2.0, -1.0, -1.0, 2.0, -1.0, 

1.0, -1.0, 1.0, -1.0, 1.0, -1.0,
2.0, -1.0, -1.0, 2.0, -1.0, -1.0,
     1.0, -1.0,     1.0, -1.0,
1.0, -1.0, 1.0, -1.0, 1.0, -1.0,
1.0,      -1.0, 1.0,      -1.0,
-1.0, 2.0, -1.0, -1.0, 2.0, -1.0, 

1.0, -1.0, 1.0,
2.0, -1.0, -1.0, 
     1.0, -1.0, 
1.0, 1.0,
1.0, 1.0,

1.0, -1.0, 1.0,
2.0, -1.0, -1.0, 
     1.0, -1.0, 
1.0, 1.0,
1.0, 1.0,

1.0, -1.0, 1.0,
2.0, -1.0, -1.0, 
     1.0, -1.0, 
1.0, 1.0,
1.0, 1.0,

1.0, -1.0, 1.0,
1.0, -1.0, 1.0,

1.0, -1.0, 1.0,
1.0, -1.0, 1.0,
1.0, -1.0, 1.0,

1.0, -1.0,

1.0, -1.0
 $END

! TRAVIS-CI SMALL

! TRAVIS-CI SKIP
