!  water dimer...illustration of exotic internal coordinates
!  T.H.Fischer, J.Almlof, J.Phys.Chem. 1992, 96, 9768-9774.
!
!      NSERCH: 0   E= -151.1850112562, RMS=0.0152414
!      NSERCH: 6   E= -151.1894036030, RMS=0.0000013
!
!  This run takes 0 seconds on almost anything ( 9 Nov 2005)
!
!  ---------------------------------------------------------------------
!  $DATA has a very conventional definition of internal coordinates.
!  The 2nd $ZMAT has a planar bend to remove the cis/trans ambiguity 
!  involving the almost linear hydrogen bond.  It gives the same results
!  as $DATA since the gradient is zero along the coordinates which are 
!  different in the two sets.
!  The first $ZMAT pulls out all the stops in using the various
!  possible internal coordinates.
!
!  total # steps, and the energy of the -first- step are
!              hess=GUESS           hess=READ
!  $DATA       16, -151.188691      7, -151.188917
!  $ZMAT 2     16, -151.188691      7, -151.188917
!  $ZMAT 1     16, -151.189207      6, -151.188936
!
!
 $contrl scftyp=rhf runtyp=optimize coord=zmt nzvar=12 $end
 $system mwords=1 $end
 $statpt hess=read opttol=0.00001 $end
 $basis  gbasis=n21 ngauss=3 $end
 $guess  guess=huckel $end
 $zmat   izmat(1)=1,1,2,  1,2,3,  2,1,2,3,  1,3,4,  2,2,3,4,
                  4,4,3,2,1,  1,4,5,  1,4,6,  2,5,4,6,
                  4,3,4,5,6,  7,1,1,3,4,5,6,   6,5,6,4,3,1  $end
---- $zmat   izmat(1)=1,1,2,  1,2,3,  2,1,2,3,  1,3,4,  2,2,3,4,
                  4,4,3,2,1,  1,4,5,  1,4,6,  2,5,4,3,
                  2,6,4,3,  3,5,4,3,1,  3,6,4,3,1   $end
 $data
water dimer...starting from tightly optimized STO-3G geometry
Cs

H
O 1 rOH1
H 2 rOH2 1 aHOH1
O 3 rOH3 2 aHOH2 1  180.0
H 4 rOH4 3 aHOH3 2  w
H 4 rOH4 3 aHOH3 2 -w

rOH1=0.9880668
rOH2=0.9895431
rOH3=1.7502514
rOH4=0.9870563
aHOH1=100.39413
aHOH2=179.70102
aHOH3=110.90620
w=55.64616
 $end

-------analytic hessian at the RHF/STO-3G//RHF/STO-3G level ---------
 $HESS
ENERGY IS     -149.9412443578 E(NUC) IS       37.3653141727
 1  1 1.21661400E-01-1.47888397E-01 0.00000000E+00-1.06757188E-01 6.27951975E-02
 1  2 0.00000000E+00-1.29836216E-02 8.63477579E-02 0.00000000E+00-2.38910968E-03
 1  3-1.13088905E-03 0.00000000E+00 2.34259724E-04-6.18349051E-05 1.88439630E-04
 1  4 2.34259724E-04-6.18349051E-05-1.88439630E-04
 2  1-1.47888397E-01 6.12501061E-01 0.00000000E+00 1.81376822E-01-6.08509818E-01
 2  2 0.00000000E+00-3.18753171E-02-4.53060081E-03 0.00000000E+00-6.02504273E-04
 2  3 7.21126018E-04 0.00000000E+00-5.05301979E-04-9.08844946E-05-2.03182696E-04
 2  4-5.05301979E-04-9.08844946E-05 2.03182696E-04
 3  1 0.00000000E+00 0.00000000E+00 3.56704987E-04 0.00000000E+00 0.00000000E+00
 3  2-8.50805499E-04 0.00000000E+00 0.00000000E+00 9.89429838E-04 0.00000000E+00
 3  3 0.00000000E+00-4.50167570E-04-3.13144814E-04 2.30417652E-04-2.25808780E-05
 3  4 3.13144814E-04-2.30417652E-04-2.25808780E-05
 4  1-1.06757188E-01 1.81376822E-01 0.00000000E+00 7.46361758E-01-8.50874601E-02
 4  2 0.00000000E+00-6.27579758E-01-9.64748850E-02 0.00000000E+00-1.13081429E-02
 4  3 7.71820246E-04 0.00000000E+00-3.58334522E-04-2.93148538E-04 8.01581141E-04
 4  4-3.58334522E-04-2.93148538E-04-8.01581141E-04
 5  1 6.27951975E-02-6.08509818E-01 0.00000000E+00-8.50874601E-02 6.93056240E-01
 5  2 0.00000000E+00 1.98050635E-02-8.80634214E-02 0.00000000E+00 3.18354488E-03
 5  3 3.65925914E-03 0.00000000E+00-3.48172917E-04-7.11300040E-05-1.01094463E-04
 5  4-3.48172917E-04-7.11300040E-05 1.01094463E-04
 6  1 0.00000000E+00 0.00000000E+00-8.50805499E-04 0.00000000E+00 0.00000000E+00
 6  2 6.34654523E-03 0.00000000E+00 0.00000000E+00-9.74640497E-03 0.00000000E+00
 6  3 0.00000000E+00 4.11186526E-03 1.47642827E-03-5.38947264E-04 6.94002199E-05
 6  4-1.47642827E-03 5.38947264E-04 6.94002199E-05
 7  1-1.29836216E-02-3.18753171E-02 0.00000000E+00-6.27579758E-01 1.98050635E-02
 7  2 0.00000000E+00 6.51017892E-01 1.17555966E-02 0.00000000E+00-1.46723332E-02
 7  3 5.14383404E-03 0.00000000E+00 2.10891016E-03-2.41458853E-03-1.36811709E-03
 7  4 2.10891016E-03-2.41458853E-03 1.36811709E-03
 8  1 8.63477579E-02-4.53060081E-03 0.00000000E+00-9.64748850E-02-8.80634214E-02
 8  2 0.00000000E+00 1.17555966E-02 9.96562613E-02 0.00000000E+00-7.94979491E-03
 8  3-7.09256884E-03 0.00000000E+00 3.16066269E-03 1.51649020E-05 2.15637462E-04
 8  4 3.16066269E-03 1.51649020E-05-2.15637462E-04
 9  1 0.00000000E+00 0.00000000E+00 9.89429838E-04 0.00000000E+00 0.00000000E+00
 9  2-9.74640497E-03 0.00000000E+00 0.00000000E+00 1.74593513E-02 0.00000000E+00
 9  3 0.00000000E+00-9.66071710E-03-4.22112623E-03 1.31038244E-04 4.79170454E-04
 9  4 4.22112623E-03-1.31038244E-04 4.79170454E-04
10  1-2.38910968E-03-6.02504273E-04 0.00000000E+00-1.13081429E-02 3.18354488E-03
10  2 0.00000000E+00-1.46723332E-02-7.94979491E-03 0.00000000E+00 2.71503830E-01
10  3-3.02960559E-01 0.00000000E+00-1.21567122E-01 1.54164657E-01-1.32364369E-01
10  4-1.21567122E-01 1.54164657E-01 1.32364369E-01
11  1-1.13088905E-03 7.21126018E-04 0.00000000E+00 7.71820246E-04 3.65925914E-03
11  2 0.00000000E+00 5.14383404E-03-7.09256884E-03 0.00000000E+00-3.02960559E-01
11  3 4.05560937E-01 0.00000000E+00 1.49087897E-01-2.01424377E-01 1.78307019E-01
11  4 1.49087897E-01-2.01424377E-01-1.78307019E-01
12  1 0.00000000E+00 0.00000000E+00-4.50167570E-04 0.00000000E+00 0.00000000E+00
12  2 4.11186526E-03 0.00000000E+00 0.00000000E+00-9.66071710E-03 0.00000000E+00
12  3 0.00000000E+00 8.30898714E-01-1.99445315E-01 2.72450959E-01-4.12449847E-01
12  4 1.99445315E-01-2.72450959E-01-4.12449847E-01
13  1 2.34259724E-04-5.05301979E-04-3.13144814E-04-3.58334522E-04-3.48172917E-04
13  2 1.47642827E-03 2.10891016E-03 3.16066269E-03-4.22112623E-03-1.21567122E-01
13  3 1.49087897E-01-1.99445315E-01 1.12680972E-01-1.42670973E-01 1.67622812E-01
13  4 6.90131475E-03-8.72411195E-03 3.48803458E-02
14  1-6.18349051E-05-9.08844946E-05 2.30417652E-04-2.93148538E-04-7.11300040E-05
14  2-5.38947264E-04-2.41458853E-03 1.51649020E-05 1.31038244E-04 1.54164657E-01
14  3-2.01424377E-01 2.72450959E-01-1.42670973E-01 1.90905280E-01-2.25245923E-01
14  4-8.72411195E-03 1.06659464E-02-4.70275443E-02
15  1 1.88439630E-04-2.03182696E-04-2.25808780E-05 8.01581141E-04-1.01094463E-04
15  2 6.94002199E-05-1.36811709E-03 2.15637462E-04 4.79170454E-04-1.32364369E-01
15  3 1.78307019E-01-4.12449847E-01 1.67622812E-01-2.25245923E-01 4.46971336E-01
15  4-3.48803458E-02 4.70275443E-02-3.50474790E-02
16  1 2.34259724E-04-5.05301979E-04 3.13144814E-04-3.58334522E-04-3.48172917E-04
16  2-1.47642827E-03 2.10891016E-03 3.16066269E-03 4.22112623E-03-1.21567122E-01
16  3 1.49087897E-01 1.99445315E-01 6.90131475E-03-8.72411195E-03-3.48803458E-02
16  4 1.12680972E-01-1.42670973E-01-1.67622812E-01
17  1-6.18349051E-05-9.08844946E-05-2.30417652E-04-2.93148538E-04-7.11300040E-05
17  2 5.38947264E-04-2.41458853E-03 1.51649020E-05-1.31038244E-04 1.54164657E-01
17  3-2.01424377E-01-2.72450959E-01-8.72411195E-03 1.06659464E-02 4.70275443E-02
17  4-1.42670973E-01 1.90905280E-01 2.25245923E-01
18  1-1.88439630E-04 2.03182696E-04-2.25808780E-05-8.01581141E-04 1.01094463E-04
18  2 6.94002199E-05 1.36811709E-03-2.15637462E-04 4.79170454E-04 1.32364369E-01
18  3-1.78307019E-01-4.12449847E-01 3.48803458E-02-4.70275443E-02-3.50474790E-02
18  4-1.67622812E-01 2.25245923E-01 4.46971336E-01
 $END

! TRAVIS-CI SMALL

