!  Example 5.1 from Culot, et al, Theoret.Chim.Acta 82, 189(1992)
!  rearrangment of HCCH to H2CC
!
!     NSERCH:   0  E=      -76.2654174366  R.M.S.=  0.0245642
!     NSERCH:   1  E=      -76.2853407895  R.M.S.=  0.0293133
!           ...snipped...
!     NSERCH:  12  E=      -76.2934319490  R.M.S.=  0.0002130
!     NSERCH:  13  E=      -76.2934321648  R.M.S.=  0.0000214
!
!  This run takes 0 seconds on almost anything (28 Apr 2015)
!  results have not changed since 2005
!
 $contrl scftyp=rhf runtyp=sadpoint coord=zmt nzvar=6 $end
 $system mwords=1 $end
 $statpt hess=read $end
 $basis  gbasis=n21 ngauss=3 $end
 $guess  guess=huckel $end
 $data
Acetylene-ethenylidene rearrangment
Cs

C
C 1 rCC
H 2 rCHm 1 aHmCC
H 2 rCHt 1 aHtCC 3 180.0

rCC=1.24054
rCHm=1.65694
rCHt=1.06318
aHmCC=60.3568
aHtCC=150.3568
 $end

--- analytic RHF hessian ---
 $HESS
ENERGY IS      -76.2654174355 E(NUC) IS       24.0020770888
 1  1 9.68839841E-01-3.71661948E-02 0.00000000E+00-1.00224154E+00 6.82445888E-02
 1  2 0.00000000E+00 2.53134135E-02-3.85491906E-02 0.00000000E+00 8.08828877E-03
 1  3 7.47079661E-03 0.00000000E+00
 2  1-3.71661948E-02-6.30908280E-02 0.00000000E+00 1.22914217E-01 6.94780236E-02
 2  2 0.00000000E+00-7.61639555E-02-1.85774331E-02 0.00000000E+00-9.58406694E-03
 2  3 1.21902377E-02 0.00000000E+00
 3  1 0.00000000E+00 0.00000000E+00 9.81730807E-03 0.00000000E+00 0.00000000E+00
 3  2-1.33911619E-02 0.00000000E+00 0.00000000E+00-1.26286652E-02 0.00000000E+00
 3  3 0.00000000E+00 1.62025193E-02
 4  1-1.00224154E+00 1.22914217E-01 0.00000000E+00 1.39200503E+00-1.74689806E-02
 4  2 0.00000000E+00 1.60796810E-03 2.60385134E-02 0.00000000E+00-3.91371457E-01
 4  3-1.31483750E-01 0.00000000E+00
 5  1 6.82445888E-02 6.94780236E-02 0.00000000E+00-1.74689806E-02 8.33584810E-02
 5  2 0.00000000E+00 6.19832066E-02-5.57157563E-02 0.00000000E+00-1.12758815E-01
 5  3-9.71207480E-02 0.00000000E+00
 6  1 0.00000000E+00 0.00000000E+00-1.33911619E-02 0.00000000E+00 0.00000000E+00
 6  2 4.72451049E-02 0.00000000E+00 0.00000000E+00-4.68269692E-03 0.00000000E+00
 6  3 0.00000000E+00-2.91712459E-02
 7  1 2.53134135E-02-7.61639555E-02 0.00000000E+00 1.60796810E-03 6.19832066E-02
 7  2 0.00000000E+00-3.07587444E-02 1.64513929E-02 0.00000000E+00 3.83736273E-03
 7  3-2.27064403E-03 0.00000000E+00
 8  1-3.85491906E-02-1.85774331E-02 0.00000000E+00 2.60385134E-02-5.57157563E-02
 8  2 0.00000000E+00 1.64513929E-02 6.66274617E-02 0.00000000E+00-3.94071570E-03
 8  3 7.66572769E-03 0.00000000E+00
 9  1 0.00000000E+00 0.00000000E+00-1.26286652E-02 0.00000000E+00 0.00000000E+00
 9  2-4.68269692E-03 0.00000000E+00 0.00000000E+00 1.96511710E-02 0.00000000E+00
 9  3 0.00000000E+00-2.33980882E-03
10  1 8.08828877E-03-9.58406694E-03 0.00000000E+00-3.91371457E-01-1.12758815E-01
10  2 0.00000000E+00 3.83736273E-03-3.94071570E-03 0.00000000E+00 3.79445806E-01
10  3 1.26283597E-01 0.00000000E+00
11  1 7.47079661E-03 1.21902377E-02 0.00000000E+00-1.31483750E-01-9.71207480E-02
11  2 0.00000000E+00-2.27064403E-03 7.66572769E-03 0.00000000E+00 1.26283597E-01
11  3 7.72647827E-02 0.00000000E+00
12  1 0.00000000E+00 0.00000000E+00 1.62025193E-02 0.00000000E+00 0.00000000E+00
12  2-2.91712459E-02 0.00000000E+00 0.00000000E+00-2.33980882E-03 0.00000000E+00
12  3 0.00000000E+00 1.53085354E-02
 $END

! TRAVIS-CI SMALL

! TRAVIS-CI SKIP
