!  isomerization of H2Si--OH2 complex to H3SiOH
!  S.J.Su, M.S.Gordon, Chem.Phys.Lett., 204, 306(1993).
!  starting geometry for aug-CC-pVDZ search is from 6-31G*
!
!  this tests computation of the hessian at both the beginning
!  and the end, and uses spherical harmonics.
!
!      NSERCH:   0  E=     -366.0225404103  R.M.S.=  0.0025133
!      NSERCH:   1  E=     -366.0226016977  R.M.S.=  0.0001526
!      NSERCH:   2  E=     -366.0226029112  R.M.S.=  0.0000412
!      NSERCH:   3  E=     -366.0226029440  R.M.S.=  0.0000011
!  At the saddle point, the imaginary FREQ= 2104.00i
!
!  This run takes 168 seconds on 2.66 GHz Cloverton (18 Jul 2016)
!
 $contrl scftyp=rhf runtyp=sadpoint coord=zmt ispher=1 $end
 $system mwords=5 $end
 $statpt hess=calc opttol=1d-5 hssend=.true. $end
 $basis  gbasis=accd $end
 $guess  guess=huckel $end
 $data
H migration TS...Shujun's "3a-T"...RHF/6-31G* T.S. coordinates
C1
Si
O   1 rSiO
H   1 rSiH1  2 aH1SiO
H   1 rSiH2  2 aH2SiO  3 wH2SiOH1
H   1 rSiHm  2 aHmSiO  3 wHmSiOH1
H   2 rOH    1 aHOSi   3 wHOSiH1

rSiO=1.88050
rSiH1=1.48928
rSiH2=1.48467
rSiHm=1.62062
rOH=0.95399
aH1SiO=103.95566
aH2SiO=104.99166
aHmSiO=41.85409
aHOSi=115.80769
wH2SiOH1=109.576
wHmSiOH1=-120.481
wHOSiH1=18.003
 $end

--- analytic RHF/STO-3G hessian at RHF/6-31G* geometry -----
 $HESS
ENERGY IS     -361.6268268541 E(NUC) IS       61.2470686310
 1  1 2.24593825E-01-8.51573146E-03 1.12129692E-01-2.17826158E-01-5.65038898E-02
 1  2 1.22522977E-01-2.52578054E-02 4.14900886E-02-3.97626861E-02-3.43289248E-02
 1  3-3.56939212E-02-6.40937037E-02 5.95402247E-02 3.19062471E-02-1.52713323E-01
 1  4-6.72115783E-03 2.73172067E-02 2.19170444E-02
 2  1-8.51573146E-03 3.38160846E-01 6.13809530E-03 1.38875994E-02-2.48209774E-02
 2  2 2.66261074E-02 3.25753551E-02-1.94081858E-01 9.21532584E-02-3.64522450E-02
 2  3-1.15028687E-01-1.13532232E-01 2.04623202E-02-6.22312784E-03 1.50691453E-03
 2  4-2.19572983E-02 1.99380966E-03-1.28921432E-02
 3  1 1.12129692E-01 6.13809530E-03 2.89662958E-01 9.65097122E-04 9.25176041E-03
 3  2 1.00824106E-02-1.48239459E-02 6.64837743E-02-7.04911773E-02-3.84837739E-02
 3  3-8.48715406E-02-1.43323510E-01-6.65911045E-02 6.43882156E-03-7.79188739E-02
 3  4 6.80403563E-03-3.44091101E-03-8.01180185E-03
 4  1-2.17826158E-01 1.38875994E-02 9.65097122E-04 3.50227005E-01 3.32656192E-01
 4  2 7.59647571E-03-7.97912740E-03-1.80816226E-03-7.74406183E-03-3.68408676E-03
 4  3 7.33244949E-03-1.11032294E-02 3.65031752E-02-5.60035110E-03-2.19625666E-02
 4  4-1.57240808E-01-3.46467727E-01 3.22482850E-02
 5  1-5.65038898E-02-2.48209774E-02 9.25176041E-03 3.32656192E-01 6.96766339E-01
 5  2-6.39676341E-02 2.04486056E-02 5.82936491E-04-1.25760936E-02-8.69013382E-03
 5  3-3.63684689E-04 6.72940314E-03 5.10799679E-04-5.57081329E-02-4.76121665E-03
 5  4-2.88421574E-01-6.16456480E-01 6.53237808E-02
 6  1 1.22522977E-01 2.66261074E-02 1.00824106E-02 7.59647571E-03-6.39676341E-02
 6  2 2.24946249E-02-1.67056431E-02 1.41730921E-03 1.45864668E-02-1.46401187E-02
 6  3-8.77642883E-03 1.82621953E-02-1.27844203E-01-4.54699533E-02-3.33101254E-02
 6  4 2.90705118E-02 9.01705997E-02-3.21155716E-02
 7  1-2.52578054E-02 3.25753551E-02-1.48239459E-02-7.97912740E-03 2.04486056E-02
 7  2-1.67056431E-02 3.76578298E-02-4.36123647E-02 2.20171971E-02 2.44852021E-03
 7  3-5.00816588E-03 4.71785557E-03-1.27082071E-02-5.39311214E-03 7.53244847E-03
 7  4 5.83878988E-03 9.89681949E-04-2.73791210E-03
 8  1 4.14900886E-02-1.94081858E-01 6.64837743E-02-1.80816226E-03 5.82936491E-04
 8  2 1.41730921E-03-4.36123647E-02 2.00214269E-01-7.41843724E-02 2.41313521E-03
 8  3-8.50885594E-03 7.46493833E-03 1.45865423E-03 9.39844298E-04-1.12381588E-03
 8  4 5.86488740E-05 8.53664747E-04-5.78335458E-05
 9  1-3.97626861E-02 9.21532584E-02-7.04911773E-02-7.74406183E-03-1.25760936E-02
 9  2 1.45864668E-02 2.20171971E-02-7.41843724E-02 5.39872722E-02 4.71820698E-03
 9  3-1.40417836E-02 6.67635455E-03 2.25798897E-02 8.80823286E-03-9.40300453E-03
 9  4-1.80854584E-03-1.59241668E-04 4.64408825E-03
10  1-3.43289248E-02-3.64522450E-02-3.84837739E-02-3.68408676E-03-8.69013382E-03
10  2-1.46401187E-02 2.44852021E-03 2.41313521E-03 4.71820698E-03 4.52275144E-02
10  3 4.32236311E-02 4.81247308E-02-8.31075280E-03-2.68578757E-04 4.88393241E-03
10  4-1.35227020E-03-2.25808788E-04-4.60297751E-03
11  1-3.56939212E-02-1.15028687E-01-8.48715406E-02 7.33244949E-03-3.63684689E-04
11  2-8.77642883E-03-5.00816588E-03-8.50885594E-03-1.40417836E-02 4.32236311E-02
11  3 1.21926811E-01 1.01742282E-01-9.00273913E-03 1.99819340E-03 5.07227343E-03
11  4-8.51254447E-04-2.37771612E-05 8.75197972E-04
12  1-6.40937037E-02-1.13532232E-01-1.43323510E-01-1.11032294E-02 6.72940314E-03
12  2 1.82621953E-02 4.71785557E-03 7.46493833E-03 6.67635455E-03 4.81247308E-02
12  3 1.01742282E-01 1.26257672E-01 1.82041246E-02-3.19725540E-03-8.43242069E-03
12  4 4.15022212E-03 7.92864740E-04 5.59708737E-04
13  1 5.95402247E-02 2.04623202E-02-6.65911045E-02 3.65031752E-02 5.10799679E-04
13  2-1.27844203E-01-1.27082071E-02 1.45865423E-03 2.25798897E-02-8.31075280E-03
13  3-9.00273913E-03 1.82041246E-02-6.17476535E-02-1.85040374E-02 1.60534662E-01
13  4-1.32767865E-02 5.07500237E-03-6.88336923E-03
14  1 3.19062471E-02-6.22312784E-03 6.43882156E-03-5.60035110E-03-5.57081329E-02
14  2-4.54699533E-02-5.39311214E-03 9.39844298E-04 8.80823286E-03-2.68578757E-04
14  3 1.99819340E-03-3.19725540E-03-1.85040374E-02 5.86451743E-02 4.19128759E-03
14  4-2.14016777E-03 3.48048728E-04 2.92288667E-02
15  1-1.52713323E-01 1.50691453E-03-7.79188739E-02-2.19625666E-02-4.76121665E-03
15  2-3.33101254E-02 7.53244847E-03-1.12381588E-03-9.40300453E-03 4.88393241E-03
15  3 5.07227343E-03-8.43242069E-03 1.60534662E-01 4.19128759E-03 1.09010967E-01
15  4 1.72484681E-03-4.88544301E-03 2.00534573E-02
16  1-6.72115783E-03-2.19572983E-02 6.80403563E-03-1.57240808E-01-2.88421574E-01
16  2 2.90705118E-02 5.83878988E-03 5.86488740E-05-1.80854584E-03-1.35227020E-03
16  3-8.51254447E-04 4.15022212E-03-1.32767865E-02-2.14016777E-03 1.72484681E-03
16  4 1.72752233E-01 3.13311645E-01-3.99410705E-02
17  1 2.73172067E-02 1.99380966E-03-3.44091101E-03-3.46467727E-01-6.16456480E-01
17  2 9.01705997E-02 9.89681949E-04 8.53664747E-04-1.59241668E-04-2.25808788E-04
17  3-2.37771612E-05 7.92864740E-04 5.07500237E-03 3.48048728E-04-4.88544301E-03
17  4 3.13311645E-01 6.13284734E-01-8.24778687E-02
18  1 2.19170444E-02-1.28921432E-02-8.01180185E-03 3.22482850E-02 6.53237808E-02
18  2-3.21155716E-02-2.73791210E-03-5.78335458E-05 4.64408825E-03-4.60297751E-03
18  3 8.75197972E-04 5.59708737E-04-6.88336923E-03 2.92288667E-02 2.00534573E-02
18  4-3.99410705E-02-8.24778687E-02 1.48701192E-02
 $END

! TRAVIS-CI SMALL

! TRAVIS-CI SKIP
