!  Baker's test case D.   FCN to CNF isomerization.
!  See J.Baker  J.Comput.Chem.  7,385-395(1986).
!
!  The starting geometry is in a positive curvature region,
!  with R(FC)=1.3, R(CN)=1.291, and A(FCN)=170.0, and where
!  the frequencies are 581.4, 1183.6, 2496.2 cm**-1.
!
!     NSERCH:   0  E=     -189.1159172153  R.M.S.=  0.0565776
!     NSERCH:   1  E=     -189.1149332327  R.M.S.=  0.0151471
!           ...snipped...
!     NSERCH:  10  E=     -188.9778966748  R.M.S.=  0.0003645
!     NSERCH:  11  E=     -188.9778968371  R.M.S.=  0.0000138
!
!  This run takes 0 seconds on almost anything (28 Apr 2015)
!  answers have not changed since at least 2005.
!
 $contrl scftyp=rhf runtyp=sadpoint nzvar=3 $end
 $system mwords=1 $end
 $basis  gbasis=sto ngauss=3 $end
 $guess  guess=huckel $end
 $statpt hess=read $end
 $zmat   izmat(1)=1,1,2,   1,2,3,   2,1,2,3   $end
 $data
FCN...Baker's test case "D"
CS
 
FLUORINE   9.0    -0.509047    -1.026869
CARBON     6.0     0.000000     0.169322
NITROGEN   7.0     0.654489     1.175127
 $END
 $HESS
...hessian title card goes here...
 1  1 0.11684037D+00 0.24974507D+00 0.00000000D+00-0.12171200D+00-0.22541231D+00
 1  2 0.00000000D+00 0.48716405D-02-0.24332761D-01 0.00000000D+00
 2  1 0.24974507D+00 0.57982920D+00 0.00000000D+00-0.24460131D+00-0.57756339D+00
 2  2 0.00000000D+00-0.51437548D-02-0.22658425D-02 0.00000000D+00
 3  1 0.00000000D+00 0.00000000D+00 0.72069600D-02 0.00000000D+00 0.00000000D+00
 3  2-0.23924901D-01 0.00000000D+00 0.00000000D+00 0.16717919D-01
 4  1-0.12171200D+00-0.24460131D+00 0.00000000D+00 0.53517313D+00 0.76514974D+00
 4  2 0.00000000D+00-0.41346113D+00-0.52054844D+00 0.00000000D+00
 5  1-0.22541231D+00-0.57756339D+00 0.00000000D+00 0.76514974D+00 0.15078817D+01
 5  2 0.00000000D+00-0.53973744D+00-0.93031828D+00 0.00000000D+00
 6  1 0.00000000D+00 0.00000000D+00-0.23924901D-01 0.00000000D+00 0.00000000D+00
 6  2 0.10615719D+00 0.00000000D+00 0.00000000D+00-0.82232329D-01
 7  1 0.48716405D-02-0.51437548D-02 0.00000000D+00-0.41346113D+00-0.53973744D+00
 7  2 0.00000000D+00 0.40858950D+00 0.54488119D+00 0.00000000D+00
 8  1-0.24332761D-01-0.22658425D-02 0.00000000D+00-0.52054844D+00-0.93031828D+00
 8  2 0.00000000D+00 0.54488119D+00 0.93258412D+00 0.00000000D+00
 9  1 0.00000000D+00 0.00000000D+00 0.16717919D-01 0.00000000D+00 0.00000000D+00
 9  2-0.82232329D-01 0.00000000D+00 0.00000000D+00 0.65514470D-01
 $END

! TRAVIS-CI SMALL

! TRAVIS-CI SKIP
