!  Example 5.2 from Culot, et al, Theoret.Chim.Acta 82, 189(1992)
!  rearrangment of H3CO to H2COH
!
!     NSERCH:   0  E=     -112.8595065322  R.M.S.=  0.0355275
!     NSERCH:   1  E=     -112.8451784444  R.M.S.=  0.0354567
!          ...snipped...
!     NSERCH:   8  E=     -112.8289937698  R.M.S.=  0.0000645
!     NSERCH:   9  E=     -112.8289937879  R.M.S.=  0.0000110
!
!  This run takes 0 seconds on almost anything ( 9 Nov 2005)
!  results have not changed since at least 2005
!
 $contrl scftyp=uhf mult=2 runtyp=sadpoint coord=zmt nzvar=9 $end
 $system mwords=1 $end
 $statpt hess=read ifolow=2 $end
 $basis  gbasis=sto ngauss=3 $end
 $guess  guess=huckel $end
 $data
methoxy radical isomerization
Cs

C
O 1 rCO
H 1 rCHm 2 aHmCO
H 1 rCHt 2 aHtCO 3  omega
H 1 rCHt 2 aHtCO 3 -omega

rCO=1.423
rCHm=1.484
rCHt=1.087
aHmCO=42.7
aHtCO=117.5
omega=105.4
 $end

-----UHF hessian by numerical double differencing-----
 $HESS
ENERGY IS     -112.8595065315 E(NUC) IS       34.5167064528
 1  1 8.18510790E-01-9.06836731E-02 2.24646690E-13-4.78010235E-01-4.25387612E-02
 1  2-1.07379383E-13-2.65193897E-02 4.16166811E-02 2.60208521E-14-1.56976176E-01
 1  3 4.57993222E-02-1.49917007E-01-1.56976176E-01 4.57993222E-02 1.49917007E-01
 2  1-9.06836731E-02 9.76637321E-02-2.11636264E-14 9.77352163E-03 5.39459273E-02
 2  2-1.11716192E-13 5.50255092E-03-7.33121883E-02-9.02056208E-15 3.76913348E-02
 2  3-3.91492294E-02 6.59025716E-02 3.76913348E-02-3.91492294E-02-6.59025716E-02
 3  1 2.24646690E-13-2.11636264E-14 7.78989418E-01 1.02348685E-14-1.45716772E-13
 3  2-8.35625686E-02-2.87964097E-14-2.66713734E-14 3.66234829E-02-1.51490178E-01
 3  3 9.59622411E-02-3.66026523E-01 1.51490178E-01-9.59622411E-02-3.66026523E-01
 4  1-4.78010235E-01 9.77352163E-03 1.02348685E-14 5.05256828E-01 5.75549506E-03
 4  2-2.95596880E-13 1.51411277E-02-1.99642330E-02-1.73472348E-13-2.11858744E-02
 4  3 2.21636543E-03 1.57617424E-03-2.11858744E-02 2.21636543E-03-1.57617424E-03
 5  1-4.25387612E-02 5.39459273E-02-1.45716772E-13 5.75549506E-03 3.07133069E-01
 5  2-3.15719673E-14 2.05915865E-02-3.68345181E-01-1.09981468E-13 8.12105149E-03
 5  3 3.62727200E-03-1.43041709E-03 8.12105149E-03 3.62727200E-03 1.43041709E-03
 6  1-1.07379383E-13-1.11716192E-13-8.35625686E-02-2.95596880E-13-3.15719673E-14
 6  2 9.91330981E-02 7.97972799E-15 7.42461648E-14-3.85132913E-02-3.26905325E-02
 6  3-6.59995211E-03 1.14738667E-02 3.26905325E-02 6.59995211E-03 1.14738667E-02
 7  1-2.65193897E-02 5.50255092E-03-2.87964097E-14 1.51411277E-02 2.05915865E-02
 7  2 7.97972799E-15 1.03357242E-02-2.56650593E-02 3.36536354E-14 4.97273515E-04
 7  3-2.10746614E-04 1.43591932E-03 4.97273515E-04-2.10746614E-04-1.43591932E-03
 8  1 4.16166811E-02-7.33121883E-02-2.66713734E-14-1.99642330E-02-3.68345181E-01
 8  2 7.42461648E-14-2.56650593E-02 4.37276221E-01 2.79724161E-14 1.99359601E-03
 8  3 2.19441234E-03 3.06378096E-04 1.99359601E-03 2.19441234E-03-3.06378096E-04
 9  1 2.60208521E-14-9.02056208E-15 3.66234829E-02-1.73472348E-13-1.09981468E-13
 9  2-3.85132913E-02 3.36536354E-14 2.79724161E-14 4.16073062E-03 1.71914616E-03
 9  3-1.72152637E-04-1.13736759E-03-1.71914616E-03 1.72152637E-04-1.13736759E-03
10  1-1.56976176E-01 3.76913348E-02-1.51490178E-01-2.11858744E-02 8.12105149E-03
10  2-3.26905325E-02 4.97273515E-04 1.99359601E-03 1.71914616E-03 1.63163275E-01
10  3-4.35403560E-02 1.64683476E-01 1.45031047E-02-4.26462160E-03 1.77769298E-02
11  1 4.57993222E-02-3.91492294E-02 9.59622411E-02 2.21636543E-03 3.62727200E-03
11  2-6.59995211E-03-2.10746614E-04 2.19441234E-03-1.72152637E-04-4.35403560E-02
11  3 2.73827479E-02-7.69831795E-02-4.26462160E-03 5.94727251E-03-1.22047110E-02
12  1-1.49917007E-01 6.59025716E-02-3.66026523E-01 1.57617424E-03-1.43041709E-03
12  2 1.14738667E-02 1.43591932E-03 3.06378096E-04-1.13736759E-03 1.64683476E-01
12  3-7.69831795E-02 3.66754260E-01-1.77769298E-02 1.22047110E-02-1.10634583E-02
13  1-1.56976176E-01 3.76913348E-02 1.51490178E-01-2.11858744E-02 8.12105149E-03
13  2 3.26905325E-02 4.97273515E-04 1.99359601E-03-1.71914616E-03 1.45031047E-02
13  3-4.26462160E-03-1.77769298E-02 1.63163275E-01-4.35403560E-02-1.64683476E-01
14  1 4.57993222E-02-3.91492294E-02-9.59622411E-02 2.21636543E-03 3.62727200E-03
14  2 6.59995211E-03-2.10746614E-04 2.19441234E-03 1.72152637E-04-4.26462160E-03
14  3 5.94727251E-03 1.22047110E-02-4.35403560E-02 2.73827479E-02 7.69831795E-02
15  1 1.49917007E-01-6.59025716E-02-3.66026523E-01-1.57617424E-03 1.43041709E-03
15  2 1.14738667E-02-1.43591932E-03-3.06378096E-04-1.13736759E-03 1.77769298E-02
15  3-1.22047110E-02-1.10634583E-02-1.64683476E-01 7.69831795E-02 3.66754260E-01
 $END

! TRAVIS-CI SMALL

! TRAVIS-CI SKIP
