!  isomerization of H2Si--OH2 complex to H3SiOH
!  S.J.Su, M.S.Gordon, Chem.Phys.Lett., 204, 306(1993).
!  gradient and hessian are read in, so first point can be skipped.
!  hessian is recalculated periodically,
!  and an ECP is used on the heaviest atom just for the heck of it.
!
!     NSERCH:   0  E=      -80.7997183629  R.M.S.=  0.0101269
!     NSERCH:   1  E=      -80.8012129981  R.M.S.=  0.0009488
!     NSERCH:   2  E=      -80.8012701051  R.M.S.=  0.0009611
!     NSERCH:   3  E=      -80.8012786349  R.M.S.=  0.0000058
!
!  this run takes 3 seconds on 2.66 GHz Cloverton (23 Apr 2012)
!
 $contrl scftyp=rhf runtyp=sadpoint pp=read nzvar=0 $end 
 $system mwords=10 $end
 $scf    dirscf=.true. diis=.true. $end
 $guess  guess=huckel $end
 $statpt hess=read ihrep=2 nstep=20 $end
 $data
H migration TS...Shujun's "3a-T"...RHF/6-31G* T.S. coordinates
C1
SI         14.0  -0.6732975659  -0.0149236747   0.0419575360
O           8.0   1.1524428576  -0.0249166930  -0.0273880342
H           1.0  -1.0580098187   1.3182182152  -0.5026436409
H           1.0  -1.1473317216  -0.9791953865  -0.9814413193
H           1.0   0.5682585053  -0.1592558539   1.0899185685
H           1.0   1.6832573626   0.7750245008  -0.2125619237
 $end

 $basis  basnam(1)=Sibas,Obas,Hbas,Hbas,Hbas,Hbas $end
 $Sibas
SBKJC
d 1 ; 1 0.45 1.0

 $end
 $Obas
n31 6
d 1 ; 1 0.80 1.0

 $end
 $Hbas
n31 6
 
 $end
 $ecp
Si-ecp sbkjc
O-ecp none
H-ecp none
H-ecp none
H-ecp none
H-ecp none
 $end

 $GRAD  
E=      -80.7997183629  GMAX=   0.0286414  GRMS=   0.0101269
SI          14.    5.2862279948E-03   -2.2402302075E-03   -3.3786502848E-03
O            8.   -2.8641391740E-02   -1.5018052171E-02    1.0999685814E-02
H            1.    9.2383811119E-04    2.2714305203E-04   -5.7558872392E-04
H            1.   -2.2205327376E-05    2.9917111616E-04    1.0828843297E-03
H            1.    6.9758691398E-03   -8.7664884927E-04   -3.8035969503E-03
H            1.    1.5477661820E-02    1.7608617060E-02   -4.3247341839E-03
 $END
 $HESS
ENERGY IS      -80.7997183629 E(NUC) IS       26.3483987648
 1  1 1.51909707E-01-6.97644678E-03 8.28890042E-02-1.72736388E-01-4.15808155E-02
 1  2 1.44388377E-01-2.45761390E-02 3.69853894E-02-3.18846975E-02-2.86883427E-02
 1  3-2.80083740E-02-5.37939010E-02 8.50263763E-02 3.54313787E-02-1.62062264E-01
 1  4-1.09344762E-02 4.15014233E-03 2.04635999E-02
 2  1-6.97644678E-03 2.76646253E-01 8.57404650E-03 8.12732201E-03-1.95860816E-02
 2  2 2.39925200E-02 2.78593566E-02-1.52791870E-01 6.56862598E-02-2.99693390E-02
 2  3-9.21512692E-02-8.64527668E-02 1.51038470E-02-1.54717152E-02-2.38057326E-03
 2  4-1.41444175E-02 3.35501754E-03-9.41932286E-03
 3  1 8.28890042E-02 8.57404650E-03 2.40578175E-01 1.98818948E-03 6.39264743E-03
 3  2-9.69231334E-03-1.00364684E-02 4.87023004E-02-5.48693177E-02-2.97051140E-02
 3  3-6.72739400E-02-1.16532636E-01-5.37900404E-02 3.11800465E-03-5.51343989E-02
 3  4 8.65461532E-03 4.86672383E-04-4.34903654E-03
 4  1-1.72736388E-01 8.12732201E-03 1.98818948E-03 3.24340499E-01 2.03527772E-01
 4  2-3.43475841E-02-6.52324016E-03 1.79335344E-03-5.06859882E-03-4.26182769E-03
 4  3 1.54213466E-03-7.54416864E-03 1.70677606E-02-8.43249731E-03 9.97831834E-03
 4  4-1.57885356E-01-2.06558313E-01 3.49944371E-02
 5  1-4.15808155E-02-1.95860816E-02 6.39264743E-03 2.03527772E-01 3.71068522E-01
 5  2-4.85712426E-02 1.70051222E-02 2.14005696E-03-1.17019209E-02-5.36603159E-03
 5  3 1.56440560E-03 3.23261301E-03 2.22724322E-02-1.24041325E-02-1.94264418E-02
 5  4-1.95857855E-01-3.42782863E-01 7.00748966E-02
 6  1 1.44388377E-01 2.39925200E-02-9.69231334E-03-3.43475841E-02-4.85712426E-02
 6  2 2.37022471E-02-1.96610507E-02-2.22349725E-03 1.66078051E-02-1.56139944E-02
 6  3-6.56695689E-03 2.34997674E-02-1.04364920E-01-3.02322214E-02 1.08043704E-03
 6  4 2.96000721E-02 6.36006278E-02-5.51982346E-02
 7  1-2.45761390E-02 2.78593566E-02-1.00364684E-02-6.52324016E-03 1.70051222E-02
 7  2-1.96610507E-02 3.32177206E-02-3.88346543E-02 1.87987450E-02 4.22162376E-03
 7  3-3.81638394E-03 2.30906289E-03-1.12696754E-02-2.77936976E-03 9.63021125E-03
 7  4 4.92967798E-03 5.65653101E-04-1.04068696E-03
 8  1 3.69853894E-02-1.52791870E-01 4.87023004E-02 1.79335344E-03 2.14005696E-03
 8  2-2.22349725E-03-3.88346543E-02 1.60444461E-01-5.33644655E-02 2.04457384E-03
 8  3-1.02042448E-02 5.20673319E-03-2.59877380E-03 3.62958312E-04 1.70857242E-03
 8  4 6.09675558E-04 4.85160195E-05-2.95309794E-05
 9  1-3.18846975E-02 6.56862598E-02-5.48693177E-02-5.06859882E-03-1.17019209E-02
 9  2 1.66078051E-02 1.87987450E-02-5.33644655E-02 4.07236298E-02 2.59776255E-03
 9  3-1.17466295E-02 5.24262639E-03 1.69595642E-02 1.06760095E-02-1.08172341E-02
 9  4-1.40285536E-03 4.50990103E-04 3.11239743E-03
10  1-2.86883427E-02-2.99693390E-02-2.97051140E-02-4.26182769E-03-5.36603159E-03
10  2-1.56139944E-02 4.22162376E-03 2.04457384E-03 2.59776255E-03 3.69436673E-02
10  3 3.49577915E-02 4.00050090E-02-9.22927964E-03-2.78419563E-03 7.39409000E-03
10  4 1.01311272E-03 1.11702227E-03-4.67819392E-03
11  1-2.80083740E-02-9.21512692E-02-6.72739400E-02 1.54213466E-03 1.56440560E-03
11  2-6.56695689E-03-3.81638394E-03-1.02042448E-02-1.17466295E-02 3.49577915E-02
11  3 9.87793569E-02 8.05638686E-02-4.87686537E-03 2.38396209E-03 4.61342939E-03
11  4 2.01815145E-04-3.72237765E-04 4.10063450E-04
12  1-5.37939010E-02-8.64527668E-02-1.16532636E-01-7.54416864E-03 3.23261301E-03
12  2 2.34997674E-02 2.30906289E-03 5.20673319E-03 5.24262639E-03 4.00050090E-02
12  3 8.05638686E-02 1.01263339E-01 1.77638058E-02-2.96957705E-03-1.38764100E-02
12  4 1.26027841E-03 4.19438602E-04 4.03181404E-04
13  1 8.50263763E-02 1.51038470E-02-5.37900404E-02 1.70677606E-02 2.22724322E-02
13  2-1.04364920E-01-1.12696754E-02-2.59877380E-03 1.69595642E-02-9.22927964E-03
13  3-4.87686537E-03 1.77638058E-02-7.56022251E-02-2.40680285E-02 1.31547446E-01
13  4-5.99239080E-03-5.83404057E-03-8.11582674E-03
14  1 3.54313787E-02-1.54717152E-02 3.11800465E-03-8.43249731E-03-1.24041325E-02
14  2-3.02322214E-02-2.77936976E-03 3.62958312E-04 1.06760095E-02-2.78419563E-03
14  3 2.38396209E-03-2.96957705E-03-2.40680285E-02 2.42076875E-02 7.87776894E-03
14  4 2.63375537E-03 9.20464247E-04 1.15300514E-02
15  1-1.62062264E-01-2.38057326E-03-5.51343989E-02 9.97831834E-03-1.94264418E-02
15  2 1.08043704E-03 9.63021125E-03 1.70857242E-03-1.08172341E-02 7.39409000E-03
15  3 4.61342939E-03-1.38764100E-02 1.31547446E-01 7.87776894E-03 6.37987358E-02
15  4 3.51175956E-03 7.60829149E-03 1.49490086E-02
16  1-1.09344762E-02-1.41444175E-02 8.65461532E-03-1.57885356E-01-1.95857855E-01
16  2 2.96000721E-02 4.92967798E-03 6.09675558E-04-1.40285536E-03 1.01311272E-03
16  3 2.01815145E-04 1.26027841E-03-5.99239080E-03 2.63375537E-03 3.51175956E-03
16  4 1.68867760E-01 2.06557864E-01-4.16239840E-02
17  1 4.15014233E-03 3.35501754E-03 4.86672383E-04-2.06558313E-01-3.42782863E-01
17  2 6.36006278E-02 5.65653101E-04 4.85160195E-05 4.50990103E-04 1.11702227E-03
17  3-3.72237765E-04 4.19438602E-04-5.83404057E-03 9.20464247E-04 7.60829149E-03
17  4 2.06557864E-01 3.38831785E-01-7.25667189E-02
18  1 2.04635999E-02-9.41932286E-03-4.34903654E-03 3.49944371E-02 7.00748966E-02
18  2-5.51982346E-02-1.04068696E-03-2.95309794E-05 3.11239743E-03-4.67819392E-03
18  3 4.10063450E-04 4.03181404E-04-8.11582674E-03 1.15300514E-02 1.49490086E-02
18  4-4.16239840E-02-7.25667189E-02 4.10825900E-02
 $END
 $DIPDR
  1.17404528E+00-4.26905345E-02-4.80580084E-01
 -9.00867468E-02 4.00797579E+00-1.29911331E-01
 -1.01132060E+00-8.85084433E-02 4.35495558E+00
 -9.67886445E+00-2.77121390E-01 1.05040503E+00
 -1.68864429E+00-1.72025207E+00 5.50923846E-01
  7.07184181E+00 9.84579384E-01-3.55189637E+00
 -5.53140150E-01 2.68181180E-02 1.18113780E-03
  5.27246395E-01-1.99601216E+00 2.20065487E-01
 -1.01585224E+00 9.80560553E-01-1.51147376E+00
 -5.71007841E-01-1.37316775E-01-5.39677498E-02
  1.58694111E-02-1.33464718E+00-1.16201922E-01
 -1.27167115E+00-1.04426805E+00-2.00134115E+00
  8.28973877E+00 4.97521967E-01-7.84995259E-01
  1.25521922E+00-2.35619290E-01-5.63806150E-01
 -4.61658812E+00-6.54373094E-01 1.26110560E+00
  1.33932169E+00-6.68076430E-02 2.67844175E-01
 -1.95607507E-02 1.27841447E+00 3.89034403E-02
  8.43723664E-01-1.77874956E-01 1.44866693E+00
 $END

! TRAVIS-CI SMALL

