!  Example 5.3 from Culot, et al, Theoret.Chim.Acta 82, 189(1992)               
!  hydrolysis of formamide bond                                                 
!                                                                               
!     NSERCH:   0  E=     -240.8245474079  R.M.S.=  0.0341083
!     NSERCH:   1  E=     -240.8579956056  R.M.S.=  0.0172811
!          ...snipped...
!     NSERCH:  10  E=     -240.8682388549  R.M.S.=  0.0000589
!     NSERCH:  11  E=     -240.8682389548  R.M.S.=  0.0000161
!                                                                               
!  This run takes 1 seconds on a 2.66 GHz Opteron (28 Apr 2015)
!  results have not changed since at least 2005
!                                                                               
 $contrl scftyp=rhf icharg=-1 runtyp=sadpoint coord=zmt nzvar=18 $end           
 $system mwords=1 $end                                           
 $statpt hess=read $end                                                         
 $basis  gbasis=sto ngauss=3 $end                                               
 $guess  guess=huckel $end                                                      
 $data                                                                          
formamide/OH- to acetic acid/NH2- rearrangement                                 
C1                                                                              
N                                                                               
C 1 rCN                                                                         
O 2 rCO  1 aOCN                                                                 
H 3 rOH  2 aHOC   1 wHOCN                                                       
H 1 rNH1 2 aH1NC  3 wH1NCO                                                      
H 1 rNH2 2 aH2NC  3 wH2NCO                                                      
O 2 rCO2 1 aO2CN  3 wOCOH                                                       
H 2 rCH  1 aHCN   3 wHCOH                                                       
                                                                                
rCN=2.1                                                                         
rCO=1.385                                                                       
rOH=1.096                                                                       
rNH1=1.035                                                                      
rNH2=1.035                                                                      
rCO2=1.232                                                                      
rCH=1.08    ! arbitrary, not given in paper                                     
aOCN=84.29                                                                      
aHOC=84.94                                                                      
aH1NC=126.61                                                                    
aH2NC=126.61                                                                    
aO2CN=111.52                                                                    
aHCN=89.47                                                                      
wHOCN=0.0   ! all dihedrals are also arbitrary                                  
wH1NCO=120.0                                                                    
wH2NCO=-120.0                                                                   
wOCOH=130.0                                                                     
wHCOH=-130.0                                                                    
 $end                                                                           
 $HESS
ENERGY IS     -240.8245474176 E(NUC) IS      121.4093125880
 1  1 4.07370419E-01-2.88726175E-01 1.28645636E-01 6.63302966E-03-1.17604584E-02
 1  2 3.15564191E-03-2.35085594E-02 3.20389342E-02 8.15051517E-03-1.72654699E-02
 1  3 2.56011803E-02-1.50858918E-02-2.34829454E-01 1.36032927E-01-1.75021212E-01
 1  4-8.78419704E-02 1.05863905E-01 4.76518852E-02-3.76720652E-02-9.00793599E-03
 1  5-8.51101112E-03-1.28859291E-02 9.95762296E-03 1.10144370E-02
 2  1-2.88726175E-01 4.70268364E-01 1.11767338E-01-1.47205933E-02-3.68251267E-02
 2  2 5.07520694E-03 5.79124660E-02-2.71371907E-02-5.42190568E-03-5.62405601E-03
 2  3-4.49312517E-02 3.07545555E-03 1.09426182E-01-1.08648808E-01 6.09656331E-02
 2  4 1.39863427E-01-2.70827346E-01-1.74541479E-01-9.61096638E-04 1.40204301E-02
 2  5 3.59231021E-03 2.82984555E-03 4.08092912E-03-4.51255907E-03
 3  1 1.28645636E-01 1.11767338E-01 5.32368502E-01-2.18294043E-03 4.50060823E-03
 3  2-3.51907941E-02-4.88359008E-03 5.42639636E-03 2.10162564E-02-4.98840320E-03
 3  3-5.45793116E-03-3.74126140E-02-2.35652497E-01 1.17374745E-01-2.50468589E-01
 3  4 1.05391114E-01-2.29606235E-01-2.38699095E-01-4.64095081E-03 4.48603093E-03
 3  5 1.15608036E-02 1.83116321E-02-8.49095261E-03-3.17446948E-03
 4  1 6.63302966E-03-1.47205933E-02-2.18294043E-03 5.56625822E-01 4.92669451E-01
 4  2 2.24691041E-01-1.46656594E-01-7.08615617E-02 1.58594687E-02-2.54212081E-02
 4  3-1.08857264E-01 4.45656271E-02 1.43968562E-02 2.83384349E-03-3.62173452E-03
 4  4 1.71946683E-02 3.92984902E-04-6.22149901E-03-3.75823406E-01-3.13746648E-01
 4  5-2.34734435E-01-4.69491679E-02 1.22897884E-02-3.83555280E-02
 5  1-1.17604584E-02-3.68251267E-02 4.50060823E-03 4.92669451E-01 9.02515329E-01
 5  2-3.96779814E-02-6.94846629E-02-3.51155569E-01 1.01457733E-01-8.12518142E-02
 5  3 5.71713629E-02 8.78443929E-03-5.11014054E-03-9.08618926E-03 4.43657470E-03
 5  4-1.37838773E-04-7.49672717E-03 1.18493982E-03-3.37444165E-01-4.30159539E-01
 5  5-2.30522059E-01 1.25196289E-02-1.24963540E-01 1.49835746E-01
 6  1 3.15564191E-03 5.07520694E-03-3.51907941E-02 2.24691041E-01-3.96779814E-02
 6  2 8.21693443E-01 2.37192371E-02 8.68266148E-02-1.32726320E-01 3.36581041E-02
 6  3 1.29714167E-02 1.48905429E-02-1.24448947E-02 1.02375632E-03 1.46455948E-03
 6  4 5.52368651E-03 4.78738996E-03-2.43351649E-03-2.60085145E-01-2.40796130E-01
 6  5-3.06270135E-01-1.82176703E-02 1.69789727E-01-3.61427780E-01
 7  1-2.35085594E-02 5.79124660E-02-4.88359008E-03-1.46656594E-01-6.94846629E-02
 7  2 2.37192371E-02 3.53213556E-01-1.04089368E-02-4.64279837E-02-1.95839115E-01
 7  3 4.10387889E-02 2.51890734E-02-7.10736122E-04 1.46902379E-02-2.63896839E-03
 7  4-2.12616633E-03 1.55265891E-02-4.74526269E-03 2.13392306E-03-4.44630101E-02
 7  5 1.05389248E-02 1.34936924E-02-4.81147202E-03-7.51430434E-04
 8  1 3.20389342E-02-2.71371907E-02 5.42639636E-03-7.08615617E-02-3.51155569E-01
 8  2 8.68266148E-02-1.04089368E-02 5.14786289E-01-1.09103380E-01 5.67801331E-02
 8  3-9.85458704E-02 7.68851947E-04 8.91099265E-03-6.79227535E-03-1.86617979E-03
 8  4 8.27611287E-03-5.14851494E-03 9.49503874E-04-2.05201586E-02-2.15418327E-02
 8  5 1.17703935E-02-4.21551570E-03-4.46503569E-03 5.22779924E-03
 9  1 8.15051517E-03-5.42190568E-03 2.10162564E-02 1.58594687E-02 1.01457733E-01
 9  2-1.32726320E-01-4.64279837E-02-1.09103380E-01 1.48318804E-01 1.93350474E-02
 9  3 3.27025444E-03-6.70915365E-02 7.30179602E-04-5.05619983E-03 2.01763621E-03
 9  4-3.32557832E-03 9.67008684E-04 8.67395819E-04 9.00071551E-04-1.29081683E-02
 9  5 3.28451680E-02 4.77827958E-03 2.67946578E-02-5.24740319E-03
10  1-1.72654699E-02-5.62405601E-03-4.98840320E-03-2.54212081E-02-8.12518142E-02
10  2 3.36581041E-02-1.95839115E-01 5.67801331E-02 1.93350474E-02 2.52846604E-01
10  3 4.06526845E-02-5.66197770E-02-5.57046435E-03-1.14299658E-02 5.25868555E-03
10  4-5.74123868E-03-1.64676649E-02 6.09386309E-03-3.14476172E-05 9.23448287E-03
10  5 8.89681252E-05-2.97766045E-03 8.10620048E-03-2.82648806E-03
11  1 2.56011803E-02-4.49312517E-02-5.45793116E-03-1.08857264E-01 5.71713629E-02
11  2 1.29714167E-02 4.10387889E-02-9.85458704E-02 3.27025444E-03 4.06526845E-02
11  3 5.88068831E-02-5.40212247E-03-7.00324038E-03 2.63350358E-02-8.46160596E-03
11  4-6.35144771E-03 2.13441637E-02-1.22236921E-03 9.01067562E-03-1.01677240E-02
11  5 4.36222230E-03 5.90862303E-03-1.00125994E-02-5.98646057E-05
12  1-1.50858918E-02 3.07545555E-03-3.74126140E-02 4.45656271E-02 8.78443929E-03
12  2 1.48905429E-02 2.51890734E-02 7.68851947E-04-6.70915365E-02-5.66197770E-02
12  3-5.40212247E-03 9.15676647E-02 4.89418456E-03 8.29692476E-03-2.17132005E-03
12  4 2.55156342E-03-1.41177738E-02 3.12609943E-03-2.06727331E-03-1.40437491E-03
12  5-4.35847726E-03-3.42750634E-03-1.40035353E-06 1.44964078E-03
13  1-2.34829454E-01 1.09426182E-01-2.35652497E-01 1.43968562E-02-5.11014054E-03
13  2-1.24448947E-02-7.10736122E-04 8.91099265E-03 7.30179602E-04-5.57046435E-03
13  3-7.00324038E-03 4.89418456E-03 2.19498508E-01-1.14944436E-01 2.25690833E-01
13  4 1.15404935E-02 1.03082986E-02 1.25620380E-02-5.18270371E-03-7.78409831E-04
13  5 2.09360282E-03 8.57500836E-04-8.09247005E-04 2.12655368E-03
14  1 1.36032927E-01-1.08648808E-01 1.17374745E-01 2.83384349E-03-9.08618926E-03
14  2 1.02375632E-03 1.46902379E-02-6.79227535E-03-5.05619983E-03-1.14299658E-02
14  3 2.63350358E-02 8.29692476E-03-1.14944436E-01 8.53749166E-02-6.72878559E-02
14  4-2.42225506E-02 1.10959766E-02-5.28473623E-02-2.95153710E-03 4.02198241E-04
14  5-8.60630917E-04-8.51966195E-06 1.31914519E-03-6.43377284E-04
15  1-1.75021212E-01 6.09656331E-02-2.50468589E-01-3.62173452E-03 4.43657470E-03
15  2 1.46455948E-03-2.63896839E-03-1.86617979E-03 2.01763621E-03 5.25868555E-03
15  3-8.46160596E-03-2.17132005E-03 2.25690833E-01-6.72878559E-02 3.07194010E-01
15  4-5.12739327E-02 1.23649172E-02-5.89379293E-02 2.06929070E-03 1.32503117E-04
15  5 5.83868548E-04-4.62961478E-04-2.83986482E-04 3.17764012E-04
16  1-8.78419704E-02 1.39863427E-01 1.05391114E-01 1.71946683E-02-1.37838773E-04
16  2 5.52368651E-03-2.12616633E-03 8.27611287E-03-3.32557832E-03-5.74123868E-03
16  3-6.35144771E-03 2.55156342E-03 1.15404935E-02-2.42225506E-02-5.12739327E-02
16  4 7.16721756E-02-1.14542280E-01-5.78872200E-02-7.00873096E-04-3.63942484E-03
16  5-3.05719407E-03-3.99708896E-03 7.54001600E-04 2.07756150E-03
17  1 1.05863905E-01-2.70827346E-01-2.29606235E-01 3.92984902E-04-7.49672717E-03
17  2 4.78738996E-03 1.55265891E-02-5.14851494E-03 9.67008684E-04-1.64676649E-02
17  3 2.13441637E-02-1.41177738E-02 1.03082986E-02 1.10959766E-02 1.23649172E-02
17  4-1.14542280E-01 2.48534264E-01 2.25752422E-01 4.23829713E-04 7.54923600E-04
17  5-2.74862532E-04-1.50566203E-03 1.74326075E-03 1.27133624E-04
18  1 4.76518852E-02-1.74541479E-01-2.38699095E-01-6.22149901E-03 1.18493982E-03
18  2-2.43351649E-03-4.74526269E-03 9.49503874E-04 8.67395819E-04 6.09386309E-03
18  3-1.22236921E-03 3.12609943E-03 1.25620380E-02-5.28473623E-02-5.89379293E-02
18  4-5.78872200E-02 2.25752422E-01 2.94937780E-01 9.00666828E-04 1.49509981E-03
18  5 1.55430561E-03 1.64552858E-03-7.70754738E-04-4.15040017E-04
19  1-3.76720652E-02-9.61096638E-04-4.64095081E-03-3.75823406E-01-3.37444165E-01
19  2-2.60085145E-01 2.13392306E-03-2.05201586E-02 9.00071551E-04-3.14476172E-05
19  3 9.01067562E-03-2.06727331E-03-5.18270371E-03-2.95153710E-03 2.06929070E-03
19  4-7.00873096E-04 4.23829713E-04 9.00666828E-04 4.27168802E-01 3.87693755E-01
19  5 3.09637579E-01-9.89222999E-03-3.52513035E-02-4.67142382E-02
20  1-9.00793599E-03 1.40204301E-02 4.48603093E-03-3.13746648E-01-4.30159539E-01
20  2-2.40796130E-01-4.44630101E-02-2.15418327E-02-1.29081683E-02 9.23448287E-03
20  3-1.01677240E-02-1.40437491E-03-7.78409831E-04 4.02198241E-04 1.32503117E-04
20  4-3.63942484E-03 7.54923600E-04 1.49509981E-03 3.87693755E-01 4.30377576E-01
20  5 2.65605223E-01-2.52928093E-02 1.63139678E-02-1.66101832E-02
21  1-8.51101112E-03 3.59231021E-03 1.15608036E-02-2.34734435E-01-2.30522059E-01
21  2-3.06270135E-01 1.05389248E-02 1.17703935E-02 3.28451680E-02 8.89681252E-05
21  3 4.36222230E-03-4.35847726E-03 2.09360282E-03-8.60630917E-04 5.83868548E-04
21  4-3.05719407E-03-2.74862532E-04 1.55430561E-03 3.09637579E-01 2.65605223E-01
21  5 3.15044736E-01-7.60564346E-02-5.36725964E-02-5.09602694E-02
22  1-1.28859291E-02 2.82984555E-03 1.83116321E-02-4.69491679E-02 1.25196289E-02
22  2-1.82176703E-02 1.34936924E-02-4.21551570E-03 4.77827958E-03-2.97766045E-03
22  3 5.90862303E-03-3.42750634E-03 8.57500836E-04-8.51966195E-06-4.62961478E-04
22  4-3.99708896E-03-1.50566203E-03 1.64552858E-03-9.89222999E-03-2.52928093E-02
22  5-7.60564346E-02 6.23508833E-02 9.76440912E-03 7.34291325E-02
23  1 9.95762296E-03 4.08092912E-03-8.49095261E-03 1.22897884E-02-1.24963540E-01
23  2 1.69789727E-01-4.81147202E-03-4.46503569E-03 2.67946578E-02 8.10620048E-03
23  3-1.00125994E-02-1.40035353E-06-8.09247005E-04 1.31914519E-03-2.83986482E-04
23  4 7.54001600E-04 1.74326075E-03-7.70754738E-04-3.52513035E-02 1.63139678E-02
23  5-5.36725964E-02 9.76440912E-03 1.15983873E-01-1.33364694E-01
24  1 1.10144370E-02-4.51255907E-03-3.17446948E-03-3.83555280E-02 1.49835746E-01
24  2-3.61427780E-01-7.51430434E-04 5.22779924E-03-5.24740319E-03-2.82648806E-03
24  3-5.98646057E-05 1.44964078E-03 2.12655368E-03-6.43377284E-04 3.17764012E-04
24  4 2.07756150E-03 1.27133624E-04-4.15040017E-04-4.67142382E-02-1.66101832E-02
24  5-5.09602694E-02 7.34291325E-02-1.33364694E-01 4.19457557E-01
 $END

! TRAVIS-CI SMALL

! TRAVIS-CI SKIP
