!  Bofill's 3rd transition state example.
!  J.M.Bofill  J.Comput.Chem. 15, 1-11(1994)
!  The paper cites 19 steps with his method, 36 using old Baker P-RFO.
!
!  The initial hessian eigenvalues are -.277659, 0.004725
!      NSERCH:   0  E=     -115.6762236964  R.M.S.=  0.0375576
!      NSERCH:   1  E=     -115.6928515791  R.M.S.=  0.0302936
!           ...snipped...
!      NSERCH:  12  E=     -115.7210037968  R.M.S.=  0.0000861
!      NSERCH:  13  E=     -115.7210041025  R.M.S.=  0.0000268
!
!  This run takes 2 seconds on a 2.66 GHz Cloverton (28 Apr 2015)
!  results unchanged by much since at least 2005
!
 $contrl scftyp=uhf mult=2 runtyp=sadpoint coord=zmt nzvar=18 $end
 $system mwords=1 $end
 $statpt hess=read $end
 $basis  gbasis=n21 ngauss=3 $end
 $guess  guess=huckel $end
 $data
ring opening of cyclopropyl radical
C1
C
C 1 rCCa
C 2 rCCb   1 aCCC
H 1 rCH4   2 aH4CC  3 wH4CCC
H 1 rCH5   2 aH5CC  3 wH5CCC
H 3 rCH6   2 aH6CC  1 wH6CCC
H 3 rCH7   2 aH7CC  1 wH7CCC
H 2 rCH8   3 aH8CC  1 wH8CCC

rCCa=1.454
rCCb=1.454
aCCC=80.0
rCH4=1.106
rCH5=1.106
rCH6=1.106
rCH7=1.106
rCH8=1.064
aH4CC=119.6
aH5CC=119.6
aH6CC=119.6
aH7CC=119.6
aH8CC=148.5
wH4CCC=40.0
wH5CCC=-160.0
wH6CCC=108.0
wH7CCC=-108.0
wH8CCC=-170.0
 $end

---- single differenced UHF hessian ----
 $HESS
ENERGY IS     -115.6762237038 E(NUC) IS       66.3641518225
 1  1 4.42646330E-01-3.80120228E-02-1.14845655E-01-1.46622154E-01 1.31064008E-01
 1  2 3.88039649E-02 6.71102500E-04-1.32628632E-03-4.46488881E-02-5.23435644E-02
 1  3-4.60916248E-02 7.32415387E-02-2.68913432E-01-3.08358851E-02 4.30976015E-02
 1  4-1.14554044E-03 3.25446879E-03 2.81493929E-03 9.80120907E-03-7.78190261E-03
 1  5 2.56077471E-04 1.01400769E-02-7.54490682E-03 1.63455210E-03
 2  1-3.80120228E-02 3.87817334E-01-1.25711382E-01 2.29440336E-02-1.14467686E-01
 2  2 1.89028979E-02 5.12755531E-02 8.75000924E-03-3.44481559E-02-3.10762854E-02
 2  3-2.02933838E-01 1.35591151E-01-2.70891092E-02-7.07420425E-02-3.91674133E-03
 2  4-2.86494396E-03-1.09349964E-03 7.17419198E-04 2.82132521E-03 3.92188631E-05
 2  5 6.82370391E-04 1.90448049E-02-6.64949057E-03 8.81425998E-03
 3  1-1.14845655E-01-1.25711382E-01 2.04401888E-01 2.37121967E-02-1.01219723E-03
 3  2-6.17162016E-02-1.95641554E-02 1.93481576E-03 1.66224908E-02 4.27149960E-02
 3  3 1.04769336E-01-1.05578367E-01 7.74863542E-02 1.48547732E-02-6.11068795E-02
 3  4-2.96698476E-03 4.21111566E-03 2.83619046E-03 9.91836458E-04-4.46693973E-03
 3  5 7.36052489E-04-5.65819400E-03 2.94428780E-03 3.28363539E-03
 4  1-1.46622154E-01 2.29440336E-02 2.37121967E-02 4.03601371E-01 1.71612946E-01
 4  2 3.19108215E-03-1.55268098E-01-1.35137835E-01-3.47176356E-02 1.07188006E-02
 4  3 4.99568604E-03 9.75521232E-03-1.83720501E-02 2.82836288E-02-9.95727062E-03
 4  4-1.13833839E-02-1.65004700E-02 1.61975515E-03-1.03853802E-02-1.25947692E-02
 4  5-2.63134917E-03-7.20874395E-02-6.49363819E-02 8.40452762E-03
 5  1 1.31064008E-01-1.14467686E-01-1.01219723E-03 1.71612946E-01 6.95058890E-01
 5  2-2.67407708E-02-2.03014499E-01-1.64686984E-01 3.61595698E-02-4.46723703E-03
 5  3-2.50543347E-02-3.64426089E-02 6.71946675E-03 1.04035618E-02 2.39478264E-02
 5  4-1.88808756E-03-3.44307788E-03 1.46249862E-03-1.91573403E-02-2.36324785E-03
 5  5-3.10217764E-03-7.59880133E-02-3.98180820E-01 6.69839576E-03
 6  1 3.88039649E-02 1.89028979E-02-6.17162016E-02 3.19108215E-03-2.67407708E-02
 6  2 8.31413194E-02-3.46714672E-02-2.93038210E-03-3.76670366E-02-1.09469193E-02
 6  3 4.88660163E-03-6.61580131E-04 1.03398642E-02-6.31996883E-03 1.13283157E-02
 6  4-1.50975310E-02-2.21706720E-02 2.82850023E-03 9.10414917E-03 2.35646429E-02
 6  5 7.41573642E-03-1.70871115E-04 1.09870431E-02-4.62096266E-03
 7  1 6.71102500E-04 5.12755531E-02-1.95641554E-02-1.55268098E-01-2.03014499E-01
 7  2-3.46714672E-02 4.21227124E-01 1.94287658E-01 8.50953059E-02-4.12501904E-02
 7  3-9.81215419E-04-4.46210329E-02 6.38987513E-03 9.45869509E-03 3.37282271E-02
 7  4-1.14470321E-01-2.69265734E-02-1.00254468E-01-1.23978342E-01-2.93260958E-02
 7  5 9.54274514E-02 7.72059518E-03 3.26531640E-03-9.91365876E-03
 8  1-1.32628632E-03 8.75000924E-03 1.93481576E-03-1.35137835E-01-1.64686984E-01
 8  2-2.93038210E-03 1.94287658E-01 2.72678051E-01-2.73920405E-02 1.80100233E-02
 8  3-2.45438548E-03 1.19907510E-02 9.90314968E-04-4.06952416E-03-1.64282654E-03
 8  4-3.06062753E-02-4.90047013E-02-2.26566968E-02-3.88746962E-02-6.41022603E-02
 8  5 4.82401759E-02-8.42576554E-03 9.43694336E-04-5.94463417E-03
 9  1-4.46488881E-02-3.44481559E-02 1.66224908E-02-3.47176356E-02 3.61595698E-02
 9  2-3.76670366E-02 8.50953059E-02-2.73920405E-02 4.78173018E-01-6.54384772E-03
 9  3 6.25026909E-03 9.40188423E-03-5.64997193E-03-7.79404059E-04-2.40034916E-03
 9  4-1.10799069E-01-1.25730865E-02-2.36799209E-01 1.12846649E-01 3.20075210E-02
 9  5-2.23749632E-01 3.56035052E-03 5.82156264E-04-3.09263664E-03
10  1-5.23435644E-02-3.10762854E-02 4.27149960E-02 1.07188006E-02-4.46723703E-03
10  2-1.09469193E-02-4.12501904E-02 1.80100233E-02-6.54384772E-03 9.18083763E-02
10  3 3.70009078E-02-4.26326637E-02-2.61486725E-03-2.27496933E-02 1.62610441E-02
10  4-1.20880391E-03 2.80666015E-04-1.45471213E-04-2.88653331E-03 2.00231923E-03
10  5 3.07652446E-04-1.53274259E-03 6.33056902E-05 6.19905871E-04
11  1-4.60916248E-02-2.02933838E-01 1.04769336E-01 4.99568604E-03-2.50543347E-02
11  2 4.88660163E-03-9.81215419E-04-2.45438548E-03 6.25026909E-03 3.70009078E-02
11  3 2.26088070E-01-1.20941073E-01 2.48353791E-03 1.25926784E-03 2.38307757E-03
11  4 1.72069822E-04-1.86314319E-04-7.51238266E-04-1.30173520E-04 1.12355936E-03
11  5-4.78333015E-04 2.56076692E-03-6.85983582E-04 2.81392448E-03
12  1 7.32415387E-02 1.35591151E-01-1.05578367E-01 9.75521232E-03-3.64426089E-02
12  2-6.61580131E-04-4.46210329E-02 1.19907510E-02 9.40188423E-03-4.26326637E-02
12  3-1.20941073E-01 9.26826825E-02 5.75212450E-03 1.24037399E-02 3.76686383E-03
12  4-1.50628210E-03 1.20125813E-04-6.06361689E-04-2.12367776E-03 1.36966825E-03
12  5 1.24518991E-04 2.49563107E-03-1.92443969E-03 8.37736971E-04
13  1-2.68913432E-01-2.70891092E-02 7.74863542E-02-1.83720501E-02 6.71946675E-03
13  2 1.03398642E-02 6.38987513E-03 9.90314968E-04-5.64997193E-03-2.61486725E-03
13  3 2.48353791E-03 5.75212450E-03 2.88047118E-01 1.65764199E-02-8.84670502E-02
13  4-4.73561304E-04 5.88855203E-04-8.74344533E-05 5.91351185E-04-1.32183792E-03
13  5 6.11879696E-04-6.34919868E-05 5.62026341E-04-1.08884395E-05
14  1-3.08358851E-02-7.07420425E-02 1.48547732E-02 2.82836288E-02 1.04035618E-02
14  2-6.31996883E-03 9.45869509E-03-4.06952416E-03-7.79404059E-04-2.27496933E-02
14  3 1.25926784E-03 1.24037399E-02 1.65764199E-02 6.16332453E-02-1.89645694E-02
14  4 5.81365870E-05 1.16297083E-03 1.20362731E-04 1.34943031E-03-3.25963476E-04
14  5-5.14662889E-04-1.61228305E-03 6.59773344E-04-7.48970032E-04
15  1 4.30976015E-02-3.91674133E-03-6.11068795E-02-9.95727062E-03 2.39478264E-02
15  2 1.13283157E-02 3.37282271E-02-1.64282654E-03-2.40034916E-03 1.62610441E-02
15  3 2.38307757E-03 3.76686383E-03-8.84670502E-02-1.89645694E-02 4.97352611E-02
15  4 7.57362920E-04 1.44578958E-03 6.99046584E-04 2.46127140E-03-3.07195417E-03
15  5 1.83299663E-04 3.97926531E-05 1.19654804E-04-1.82156652E-03
16  1-1.14554044E-03-2.86494396E-03-2.96698476E-03-1.13833839E-02-1.88808756E-03
16  2-1.50975310E-02-1.14470321E-01-3.06062753E-02-1.10799069E-01-1.20880391E-03
16  3 1.72069822E-04-1.50628210E-03-4.73561304E-04 5.81365870E-05 7.57362920E-04
16  4 1.17927200E-01 3.50750758E-02 1.10534802E-01 1.05606721E-02 7.55827370E-04
16  5 1.61192408E-02-8.91164390E-06-4.29833943E-04 6.12536448E-04
17  1 3.25446879E-03-1.09349964E-03 4.21111566E-03-1.65004700E-02-3.44307788E-03
17  2-2.21706720E-02-2.69265734E-02-4.90047013E-02-1.25730865E-02 2.80666015E-04
17  3-1.86314319E-04 1.20125813E-04 5.88855203E-04 1.16297083E-03 1.44578958E-03
17  4 3.50750758E-02 4.73820450E-02 2.39471146E-02 4.39887438E-03 4.99018189E-03
17  5 6.56305837E-03-5.61879221E-04 3.62428144E-04-2.01988512E-03
18  1 2.81493929E-03 7.17419198E-04 2.83619046E-03 1.61975515E-03 1.46249862E-03
18  2 2.82850023E-03-1.00254468E-01-2.26566968E-02-2.36799209E-01-1.45471213E-04
18  3-7.51238266E-04-6.06361689E-04-8.74344533E-05 1.20362731E-04 6.99046584E-04
18  4 1.10534802E-01 2.39471146E-02 2.50558414E-01-1.51383656E-02-2.38872322E-03
18  5-2.20876717E-02-4.55461062E-04-8.24890294E-05-3.14550577E-04
19  1 9.80120907E-03 2.82132521E-03 9.91836458E-04-1.03853802E-02-1.91573403E-02
19  2 9.10414917E-03-1.23978342E-01-3.88746962E-02 1.12846649E-01-2.88653331E-03
19  3-1.30173520E-04-2.12367776E-03 5.91351185E-04 1.34943031E-03 2.46127140E-03
19  4 1.05606721E-02 4.39887438E-03-1.51383656E-02 1.16757957E-01 4.98022422E-02
19  5-1.08925505E-01-6.62542384E-04-1.48522041E-04-1.33387129E-03
20  1-7.78190261E-03 3.92188631E-05-4.46693973E-03-1.25947692E-02-2.36324785E-03
20  2 2.35646429E-02-2.93260958E-02-6.41022603E-02 3.20075210E-02 2.00231923E-03
20  3 1.12355936E-03 1.36966825E-03-1.32183792E-03-3.25963476E-04-3.07195417E-03
20  4 7.55827370E-04 4.99018189E-03-2.38872322E-03 4.98022422E-02 6.07650406E-02
20  5-5.13657807E-02-2.12005134E-03 2.61550987E-04 3.50030153E-03
21  1 2.56077471E-04 6.82370391E-04 7.36052489E-04-2.63134917E-03-3.10217764E-03
21  2 7.41573642E-03 9.54274514E-02 4.82401759E-02-2.23749632E-01 3.07652446E-04
21  3-4.78333015E-04 1.24518991E-04 6.11879696E-04-5.14662889E-04 1.83299663E-04
21  4 1.61192408E-02 6.56305837E-03-2.20876717E-02-1.08925505E-01-5.13657807E-02
21  5 2.40222428E-01 1.31680423E-05-1.40295691E-04-3.98637303E-04
22  1 1.01400769E-02 1.90448049E-02-5.65819400E-03-7.20874395E-02-7.59880133E-02
22  2-1.70871115E-04 7.72059518E-03-8.42576554E-03 3.56035052E-03-1.53274259E-03
22  3 2.56076692E-03 2.49563107E-03-6.34919868E-05-1.61228305E-03 3.97926531E-05
22  4-8.91164390E-06-5.61879221E-04-4.55461062E-04-6.62542384E-04-2.12005134E-03
22  5 1.31680423E-05 5.61398586E-02 6.87641060E-02 7.25963548E-05
23  1-7.54490682E-03-6.64949057E-03 2.94428780E-03-6.49363819E-02-3.98180820E-01
23  2 1.09870431E-02 3.26531640E-03 9.43694336E-04 5.82156264E-04 6.33056902E-05
23  3-6.85983582E-04-1.92443969E-03 5.62026341E-04 6.59773344E-04 1.19654804E-04
23  4-4.29833943E-04 3.62428144E-04-8.24890294E-05-1.48522041E-04 2.61550987E-04
23  5-1.40295691E-04 6.87641060E-02 4.09553201E-01-1.33435965E-02
24  1 1.63455210E-03 8.81425998E-03 3.28363539E-03 8.40452762E-03 6.69839576E-03
24  2-4.62096266E-03-9.91365876E-03-5.94463417E-03-3.09263664E-03 6.19905871E-04
24  3 2.81392448E-03 8.37736971E-04-1.08884395E-05-7.48970032E-04-1.82156652E-03
24  4 6.12536448E-04-2.01988512E-03-3.14550577E-04-1.33387129E-03 3.50030153E-03
24  5-3.98637303E-04 7.25963548E-05-1.33435965E-02 6.19973130E-03
 $END

! TRAVIS-CI SMALL

! TRAVIS-CI SKIP
