!  CH2O STO-2G isomerization test case, see figure 8 of
!  C.J.Cerjan and W.H.Miller, J.Chem.Phys. 75, 2800-2806.
!
!  Following mode 5 leads to the isomerization T.S. in 16 steps
!     NSERCH:   0  E=     -109.0237436138  R.M.S.=  0.0078187
!     NSERCH:   1  E=     -108.9986852432  R.M.S.=  0.0388943
!         ...snipped...
!     NSERCH:  15  E=     -108.8080811874  R.M.S.=  0.0000393
!     NSERCH:  16  E=     -108.8080811941  R.M.S.=  0.0000065
!  Behaviour with DXMAX=0.2 is much less satisfactory
!
!  This run takes 0 seconds on almost anything (27 Apr 2015)
!  answers unchanged since 2005.
!
 $contrl scftyp=rhf runtyp=sadpoint nzvar=6 $end
 $system mwords=1 $end
 $statpt dxmax=0.3 ifolow=5 hess=read $end
 $basis  gbasis=sto ngauss=2 $end
 $zmat   izmat(1)=1,1,2,  1,1,3,  1,1,4,
                  2,2,1,3,  2,2,1,4,  4,2,1,3,4 $end
 $guess  guess=huckel $end
 $data
CH2O STO-2G Cerjan-Miller isomerization test case
C1
CARBON       6.
OXYGEN       8.        0.0000000000        0.0000000000        1.220436
HYDROGEN     1.        0.0000000000        0.9345580000       -0.571397
HYDROGEN     1.        0.0000000000       -0.9192800000       -0.595665
 $end
 $HESS
hessian title card...
 1  1 1.97908536E-01 0.00000000E+00 0.00000000E+00-6.60829252E-02 0.00000000E+00
 1  2 0.00000000E+00-6.59128055E-02 0.00000000E+00 0.00000000E+00-6.59128055E-02
 1  3 0.00000000E+00 0.00000000E+00
 2  1 0.00000000E+00 8.16844266E-01 0.00000000E+00 0.00000000E+00-1.25476106E-01
 2  2 0.00000000E+00 0.00000000E+00-3.45684080E-01 1.45709266E-01 0.00000000E+00
 2  3-3.45684080E-01-1.45709266E-01
 3  1 0.00000000E+00 0.00000000E+00 1.51872563E+00 0.00000000E+00 0.00000000E+00
 3  2-1.17318061E+00 0.00000000E+00 1.37839140E-01-1.72772507E-01 0.00000000E+00
 3  3-1.37839140E-01-1.72772507E-01
 4  1-6.60829252E-02 0.00000000E+00 0.00000000E+00 2.20655111E-02 0.00000000E+00
 4  2 0.00000000E+00 2.20087070E-02 0.00000000E+00 0.00000000E+00 2.20087070E-02
 4  3 0.00000000E+00 0.00000000E+00
 5  1 0.00000000E+00-1.25476106E-01 0.00000000E+00 0.00000000E+00 8.84145670E-02
 5  2 0.00000000E+00 0.00000000E+00 1.85307693E-02 4.60232460E-02 0.00000000E+00
 5  3 1.85307693E-02-4.60232460E-02
 6  1 0.00000000E+00 0.00000000E+00-1.17318061E+00 0.00000000E+00 0.00000000E+00
 6  2 1.26065120E+00 0.00000000E+00 1.32227552E-02-4.37352936E-02 0.00000000E+00
 6  3-1.32227552E-02-4.37352936E-02
 7  1-6.59128055E-02 0.00000000E+00 0.00000000E+00 2.20087070E-02 0.00000000E+00
 7  2 0.00000000E+00 2.19520492E-02 0.00000000E+00 0.00000000E+00 2.19520492E-02
 7  3 0.00000000E+00 0.00000000E+00
 8  1 0.00000000E+00-3.45684080E-01 1.37839140E-01 0.00000000E+00 1.85307693E-02
 8  2 1.32227552E-02 0.00000000E+00 3.41807539E-01-1.71397204E-01 0.00000000E+00
 8  3-1.46542282E-02 2.03353082E-02
 9  1 0.00000000E+00 1.45709266E-01-1.72772507E-01 0.00000000E+00 4.60232460E-02
 9  2-4.37352936E-02 0.00000000E+00-1.71397204E-01 2.01924869E-01 0.00000000E+00
 9  3-2.03353082E-02 1.45829321E-02
10  1-6.59128055E-02 0.00000000E+00 0.00000000E+00 2.20087070E-02 0.00000000E+00
10  2 0.00000000E+00 2.19520492E-02 0.00000000E+00 0.00000000E+00 2.19520492E-02
10  3 0.00000000E+00 0.00000000E+00
11  1 0.00000000E+00-3.45684080E-01-1.37839140E-01 0.00000000E+00 1.85307693E-02
11  2-1.32227552E-02 0.00000000E+00-1.46542282E-02-2.03353082E-02 0.00000000E+00
11  3 3.41807539E-01 1.71397204E-01
12  1 0.00000000E+00-1.45709266E-01-1.72772507E-01 0.00000000E+00-4.60232460E-02
12  2-4.37352936E-02 0.00000000E+00 2.03353082E-02 1.45829321E-02 0.00000000E+00
12  3 1.71397204E-01 2.01924869E-01
 $END

! TRAVIS-CI SMALL

! TRAVIS-CI SKIP
