!  CH2...test the excruciatingly slow TRUDGE geometry optimizer
!  This uses Hilderbrandt's LC and PCC connection types.
!  To make it interesting, we test the RMP style of ROHF+MP2,
!  for which there is no analytic gradient (as of 2015).
!
!  TRUDGE ENERGY VALUE AT NSTEP=   0 IS      -39.0222654403
!  TRUDGE ENERGY VALUE AT NSTEP=  17 IS      -39.0249075603
!
!  This run takes 1 seconds on almost anything (18 Jul 2016)
!  answers have not changed in any meaningful way since 2005.
!
 $contrl scftyp=rohf mult=3 runtyp=trudge coord=hint mplevl=2 $end
 $system mwords=1 $end
 $TRUDGE OPTMIZ=GEOMETRY NPAR=2 IEX(1)=21,22 $END
 $guess  guess=huckel $end
 $mp2    ospt=rmp $end
 $data
Methylene...3-B-1 state...DZP basis of Bauschlicher/Taylor
Cnv  2

Carbon     6.0   LC 0.00 0.0 0.00 - O K
  S  6
    1 4232.61    0.002029
    2  634.882   0.015535
    3  146.097   0.075411
    4   42.4974  0.257121
    5   14.1892  0.596555
    6    1.9666  0.242517
  S  1
    1    5.1477  1.0
  S  1
    1    0.4962  1.0
  S  1
    1    0.1533  1.0
  P  4
    1   18.1557  0.018534
    2    3.9864  0.115442
    3    1.1429  0.386206
    4    0.3594  0.640089
  P  1
    1    0.1146  1.0
  D  1
    1    0.74    1.0

Hydrogen   1.0      PCC 1.10 60.0 0.0 + O K I
  S  3
    1  19.2406  0.032828
    2   2.8992  0.231208
    3   0.6534  0.817238
  S  1
    1   0.1776  1.0
  P  1
    1   1.0     1.0

 $end

! TRAVIS-CI SMALL

! TRAVIS-CI SKIP
