!  H2CO plus 4 EFP H2O plus PCM solvent outer shell...pyramidal type geometry
!  Full valence MCSCF is used here, starting with converged gas phase MOs.
!  There are 40 AOs and 38 MOs and 44,100 determinants in this run.
!
!  FINAL MCSCF ENERGY IS -114.0205275846 AFTER  10 ITERATIONS (only EFP)
!  FINAL MCSCF ENERGY IS -114.0386377301 AFTER  26 ITERATIONS (EFP+PCM)
!
!  This run takes 184 seconds on 2.66 GHz Cloverton (26 Oct 2015)
!
!  ------------------------------------------------------------------------
!  Three states are printed, their separation changes from gas phase
!  because the orbitals are optimized for S0 below, in the presence
!  of "solvent" water, causing different orbitals/CI vectors:
!                       S0           T1           S2      milliHartree delta-E
!     gas phase E= -113.984995  -113.801778  -113.777027   0.0 183.2 208.0
!      EFP only E= -114.020528  -113.822212  -113.797766   0.0 198.3 222.8
!      PCM only E= -113.990738  -113.792013  -113.751049   0.0 198.7 239.7
!     EFP & PCM E= -114.038638  -113.831114  -113.785556   0.0 207.5 253.1
!  However, the programming just adds the solvation energy as computed
!  for the S0 state into the energy for all other states.
!
!           a run with only PCM used prints
!  F.NAL MCSCF ENERGY IS -113.9849947749 AFTER   2 ITERATIONS (gas)
!  F.NAL MCSCF ENERGY IS -113.9907378811 AFTER  32 ITERATIONS (PCM)
!           a run with only EFP prints
!  F.NAL MCSCF ENERGY IS -114.0205275841 AFTER  10 ITERATIONS (EFP)
!
 $contrl scftyp=mcscf runtyp=energy ispher=1 $end
 $system parall=.t. mwords=2 $end
 $guess  guess=moread norb=38 $end
 $basis  gbasis=ccd $end
 $det    ncore=2 nact=10 nels=12 nstate=3 $end
 $data  
H2CO+4EFP at a geometry for S1 by TD-B3LYP/DH(d,p)
C1
O           8.0   2.0046394572  -1.6983458738  -1.0803502172
C           6.0   1.6864387177  -1.1433619435   0.0668605451
H           1.0   0.7867298151  -1.5283667256   0.5664801688
H           1.0   1.8451944981  -0.0589815678   0.1487405204
 $end
 $pcm   solvnt=water $end
 $efrag

FRAGNAME=H2ORHF
O1               -0.0318734156  -0.8913537364  -2.9033893527
H2                0.7196996780  -1.2740811975  -2.4796724311
H3                0.2370340132  -0.6636859560  -3.7790231977
FRAGNAME=H2ORHF
O1               -1.2226712383   0.7972895693  -1.1328423557
H2               -1.5485520039   0.2287216227  -0.4535701932
H3               -0.9007630079   0.2391241395  -1.8225559907
FRAGNAME=H2ORHF
O1               -1.0952923474  -0.1302754165   1.5115780916
H2               -1.5897419136  -0.1446448752   2.3154385267
H3               -0.5730488426   0.6557650121   1.5283298169
FRAGNAME=H2ORHF
O1                0.3618033737   1.9557685253   0.5976757318
H2                0.3923260220   2.8951697238   0.6841176787
H3               -0.1191680497   1.7716100927  -0.1932924190
 $end

--- NATURAL ORBITALS OF MCSCF --- GENERATED AT Fri Apr 12 11:07:58 2013
from the gas phase: E(MCSCF)= -113.9849947746
 $VEC   
 1  1 1.00025077E+00-2.02126721E-02-3.02693593E-02-2.06223964E-03 5.42252634E-03
 1  2 8.17704979E-03-1.07007906E-03 2.69014067E-03 3.90274918E-03-1.13865237E-04
 1  3 1.03932457E-04 9.93277979E-06 1.11705000E-04-9.09849789E-05 1.52465260E-04
 1  4-1.65723632E-03-2.52397662E-03 8.65988621E-04 2.51388206E-03 1.43978755E-03
 1  5-2.05919047E-03 8.59596057E-04 1.94487481E-04-1.87542228E-03 2.95825055E-04
 1  6 4.44073747E-04-7.39898802E-04 4.17786803E-04 2.89342786E-04-6.91700282E-04
 1  7-4.94414028E-03-1.95840475E-03-5.19873533E-04-1.15524141E-04 3.77636304E-04
 1  8-7.83369275E-04-4.87571756E-04 2.89271805E-05 3.34960597E-04 1.56710863E-04
 2  1 1.52169399E-03-4.25599209E-03-5.94383207E-03 5.88437396E-04 1.78801463E-03
 2  2 1.99757638E-03-3.81400018E-04 1.39623409E-04 1.16779959E-03 3.27639158E-05
 2  3 2.56182735E-04-2.88946651E-04 2.69256120E-05 3.77291376E-04 3.15780473E-06
 2  4 1.00089967E+00-1.24001393E-02-1.68843219E-02 1.27762264E-02 5.99869610E-03
 2  5-1.01484517E-02 4.82821128E-03 1.44288523E-03-4.61532760E-03-7.29045759E-04
 2  6 6.38168471E-04 9.08772887E-05-4.89090168E-05-7.58695300E-05 5.96935638E-04
 2  7-2.29762742E-02-5.23693431E-03-2.13305011E-03-8.86565043E-04 9.17977315E-04
 2  8-1.44613324E-03 3.41285393E-03 3.45703142E-04 1.06197751E-03-1.17778107E-04
 3  1 2.24927216E-02 1.57892698E-01 1.77723202E-01-1.72997385E-02-3.94275560E-02
 3  2-4.46423073E-02 5.45851524E-03-1.41572494E-02-4.57494234E-02 1.36388386E-03
 3  3-4.34506318E-03 2.98117932E-03-1.59701218E-03-6.02565578E-03-1.86811600E-03
 3  4 4.11821915E-02 2.46343701E-01 1.75360410E-01-2.28724102E-01-1.35838669E-01
 3  5 1.48756487E-01-7.71259033E-02-4.40253455E-02 6.11591763E-02 7.14252560E-03
 3  6-1.09111311E-02 3.76860552E-03 3.96561763E-03-8.47770530E-03-2.16779876E-03
 3  7 3.86461076E-01 1.18223693E-01 2.94794790E-02 1.32419914E-02-1.28162894E-02
 3  8-1.65742399E-02-4.25936119E-02-6.07159440E-03-8.75179496E-03 2.21461617E-03
 4  1 3.46138149E-02 4.52329474E-01 5.20026036E-01 4.39290307E-02-8.79668900E-02
 4  2-1.15115996E-01 2.61523578E-02-7.40108439E-02-8.72189131E-02-8.20428438E-05
 4  3 2.00273164E-03-1.92068879E-03 1.82449574E-03 2.65211236E-03-7.79923750E-04
 4  4-1.66722936E-02-8.69165526E-02-7.83370606E-02 1.06323492E-01 4.96168449E-02
 4  5-7.81083242E-02 3.99042379E-02 1.20426862E-02-2.86900438E-02-1.12832941E-02
 4  6 5.84557826E-04 1.06987363E-02-8.46847799E-03-1.03478814E-03 1.54250749E-02
 4  7-1.60302748E-01-3.98662787E-02-9.80630989E-03-4.06865940E-03 4.27817234E-03
 4  8 2.58678783E-02 4.12642532E-02 1.94767657E-03 5.45534666E-04-9.88885710E-04
 5  1-2.27758914E-03 2.13595537E-03-1.34317670E-02 2.53884559E-01 4.23345346E-01
 5  2-7.16358191E-02 1.81432649E-01 2.90997604E-01-5.90884962E-02-5.57565973E-03
 5  3 9.27685329E-03-3.70119356E-03-8.30580516E-04 6.97385632E-03 1.36875370E-02
 5  4-1.00555551E-03 1.74784637E-01 1.09213389E-01 8.65803113E-02 2.11865553E-01
 5  5-2.56854942E-02 4.83155848E-02 1.04535146E-01-8.87636413E-03 4.58698621E-03
 5  6-1.75272668E-02 1.29402806E-02-1.02835595E-03-1.87960235E-02-1.94701150E-02
 5  7 2.29725736E-02 4.32566566E-02 1.11836522E-03 3.06437561E-03-1.72764631E-03
 5  8 2.00528465E-01-6.75139143E-03-3.09127420E-03-2.12558813E-02 1.14968537E-04
 6  1-3.38959084E-03-1.99606866E-02-5.56636495E-02-2.94651546E-01-2.41899877E-01
 6  2 1.96314466E-01-2.20096167E-01-2.04385961E-01 1.29224392E-01-2.23082734E-03
 6  3-3.80714853E-03 6.03797587E-03-3.40800444E-03-6.84461235E-03 3.52744074E-03
 6  4 1.62915656E-03 2.19626689E-01 1.21600311E-01 1.01632593E-01 2.05036005E-01
 6  5-7.20545294E-02 3.66800929E-03 4.65965450E-02 1.68185934E-03-2.34406460E-02
 6  6 3.29262193E-02-9.48557330E-03-7.41229397E-04 2.68893208E-02 2.87363259E-02
 6  7-1.27430261E-01-1.42610223E-01 2.20987265E-03 4.70818365E-03-2.40826327E-03
 6  8 3.56192279E-01 1.60199344E-01-1.05122307E-03-2.07334958E-02-2.89692511E-03
 7  1-2.79608440E-03 7.24886089E-02-4.48229351E-02-1.09704461E-01 2.58973183E-01
 7  2 3.98283311E-01-5.81558803E-02 1.62120579E-01 2.22012892E-01-9.43161077E-03
 7  3-6.16918488E-03 1.56007957E-02-5.01591256E-03-9.15354197E-03 1.52123259E-02
 7  4 2.67424576E-03 1.23736607E-01 2.22667533E-03 7.09280853E-02-2.53377858E-01
 7  5-3.25301792E-01 5.32949405E-03-4.91951963E-02-6.33036294E-02-1.08017497E-02
 7  6-2.33143398E-02 3.41160895E-02-1.47742843E-02-1.14135311E-02 2.01412731E-02
 7  7-2.28958360E-02-1.59447750E-02 3.38189152E-05-8.22851027E-03-7.58410937E-03
 7  8-1.69612680E-01-8.93078115E-02 4.62842984E-03 4.76755565E-03-8.66700880E-03
 8  1-1.23488243E-03-2.03027817E-02-3.09503477E-02 3.69945556E-01-2.12097997E-01
 8  2 2.25131775E-01 2.45556964E-01-1.43351306E-01 1.43947295E-01-8.69326248E-03
 8  3-8.37574757E-03 1.70690101E-02 1.04584399E-02 1.35244729E-02-3.88022526E-03
 8  4 2.96701821E-03 9.15287905E-02 1.01751912E-01 2.70711154E-01-1.35639253E-01
 8  5 1.82487355E-01 1.79947063E-01-9.27650382E-02 1.27072117E-01 1.42644133E-02
 8  6 1.39428481E-02-2.82072614E-02-2.01871618E-02-2.28933555E-02 9.53241089E-03
 8  7-1.21629846E-02-3.16867534E-03 5.10783414E-03-5.30881845E-03 5.55085597E-03
 8  8 2.79572739E-03 6.99431479E-03 7.74582180E-03-1.45879325E-03 4.06014583E-03
 9  1-4.51986815E-03-9.83601230E-04 2.59071842E-02 4.98627565E-01-2.64038597E-01
 9  2 3.34209675E-01 1.02524678E-01-5.00362675E-02 8.25294129E-02-1.03066623E-03
 9  3 1.29914868E-03-2.68482449E-04 2.28989582E-03-6.74100047E-03 4.01586953E-03
 9  4-2.68310590E-02-1.38084104E-01-1.05235619E-01-4.32196549E-01 1.88182845E-01
 9  5-3.01773954E-01-2.25513775E-01 1.17688981E-01-1.47605152E-01-1.86565333E-02
 9  6-6.97499948E-03 2.56315328E-02 2.02618843E-02-1.09051902E-03-2.02374348E-03
 9  7 5.02438394E-02 9.26429705E-03-3.27161251E-03 5.82858009E-03-1.06428125E-02
 9  8 9.30094511E-02 1.64847320E-02-7.52818097E-03-1.68295833E-03-6.20371206E-03
10  1 6.45742146E-02 2.99469963E-01 2.65596407E-01-2.13646436E-01 4.07200402E-01
10  2 6.44958201E-01 3.40912190E-03-2.70139664E-02 4.03021675E-02 5.10365536E-03
10  3 1.64170477E-04-5.26782583E-03-4.04249442E-03 5.49532079E-03-6.23143446E-03
10  4-1.21199044E-01-5.25159910E-01-2.41992978E-01-1.75721066E-01 1.75175015E-01
10  5 5.97126963E-01-1.32165738E-03 8.28414012E-03 1.49053371E-01 5.53913750E-03
10  6 1.36134523E-02-1.91525899E-02 1.64245615E-02-7.53509522E-03-7.91204730E-03
10  7 5.28631557E-02 4.24427801E-02 1.89733707E-03 1.07523004E-02 1.45600797E-02
10  8 1.86080312E-01 9.91530824E-02-5.82706513E-03 3.52628884E-03 1.39668633E-02
11  1-1.14311111E-02-4.98382953E-02-5.82176093E-02 2.93363708E-01 3.98877928E-01
11  2-2.62995144E-01-1.95962713E-01-2.69814222E-01 8.33092698E-02-2.25345516E-04
11  3-1.76500792E-02 1.78754247E-02 2.75145666E-03-2.14727265E-02-2.09886594E-02
11  4-8.49858439E-02-2.76975181E-01-1.02036902E-01-1.21294684E-01-6.63305969E-01
11  5-1.43038681E-01-9.67073350E-02-2.62402996E-01 4.05302404E-02-1.57256793E-02
11  6 3.33564806E-02-1.76308013E-02-3.57082098E-02 2.94229143E-02 4.62105787E-02
11  7-9.41259962E-02-2.02595508E-01 1.02782688E-02-8.09128298E-03-1.29337187E-02
11  8 7.50830282E-01 3.45192193E-01-3.36882417E-04 2.49986239E-02-4.84520349E-03
12  1-5.39660338E-02-1.42924203E-01 6.32922162E-02-4.56489895E-01-5.12960791E-01
12  2 1.03053729E-01 4.00882114E-01 4.82888416E-01-1.57971973E-01-1.49002869E-02
12  3 2.11012547E-02-6.20096786E-03 7.52371912E-03 3.13288256E-02 4.04806290E-02
12  4-1.41128430E-01-4.59289665E-01-1.08066099E-01-4.87169242E-04-5.15436681E-01
12  5-1.71661448E-01 1.98385558E-01 1.28445575E-01-7.50794143E-02 9.26554679E-02
12  6-1.82489975E-01 8.98345075E-02-4.54713197E-02-1.71036593E-01-1.41572703E-01
12  7 2.27470998E-01 3.18834793E-01-1.32456320E-02-1.61664251E-02 7.67690145E-03
12  8 5.64529407E-01-9.89488118E-02-1.28303014E-02-1.38097459E-02-7.04624141E-03
13  1 7.10427994E-03-9.98273323E-03-1.38314637E-01 9.49311192E-02 1.11909555E-01
13  2-3.43766261E-02-1.96302036E-01-1.63926791E-01 6.83863469E-02 1.48571984E-03
13  3 6.87947149E-04-2.17366698E-03 2.08329363E-03-4.31323349E-05-2.51380752E-03
13  4 7.83667135E-02 4.09131163E-02-1.47398871E+00 2.17135284E-01 1.95555142E-01
13  5-1.23998510E-01 6.37417655E-01 4.82689149E-02-4.29495872E-01-1.65599171E-02
13  6 8.82109624E-03 7.73882087E-03-2.41532416E-02 6.21609774E-02 2.16803597E-02
13  7-2.35669847E-01 2.16008728E+00 3.10180425E-02 8.98827368E-03-3.98134781E-02
13  8 3.41918842E-02 1.00678855E-01-8.10154724E-03-3.81234104E-02 1.41722637E-02
14  1 1.46697519E-02-1.91846501E-02-3.90359657E-01-5.54705114E-03-4.17629573E-02
14  2 4.44490326E-02 7.79556517E-02 1.03015263E-01-1.37515270E-01 7.36133028E-03
14  3 8.06501597E-03-1.54263463E-02 1.13860510E-03 6.70707174E-03-1.00875987E-02
14  4 5.86152563E-02 9.98757538E-02-9.21534732E-01-4.71703811E-02 1.15987836E-01
14  5 8.50317115E-02-2.53710797E-01-1.27076665E+00-2.89890353E-01 7.37435979E-02
14  6-1.69907825E-01 9.61642273E-02-4.07868014E-02 1.36667332E-02 1.75331721E-03
14  7-2.14091219E-02-5.78406255E-01-5.21743930E-03 3.44295664E-02 9.04834523E-03
14  8-6.08922286E-01 2.55870636E+00-2.38883770E-02-1.72804306E-01-1.68365697E-02
15  1-8.88483288E-02-6.17623284E-02 1.47514561E+00 3.88866433E-02-8.39112220E-02
15  2-1.03531936E-01-1.41135978E-01 2.82555991E-01 5.28464701E-01-2.43057569E-02
15  3-1.32795939E-02 3.75853507E-02-1.18456916E-02-2.17786246E-02 3.90610577E-02
15  4 1.33283966E-01 2.62239115E-01-1.31191910E+00 9.82208691E-02-1.47226912E-01
15  5-3.13270681E-01-5.31427151E-01 6.60417723E-01 1.53825879E+00 7.62427426E-02
15  6-7.99970833E-03-6.82430343E-02-5.58441619E-03 6.05057612E-02-8.65155456E-02
15  7-1.70436767E-01-4.42943136E-02-2.33912087E-03 5.75676598E-03-6.29763077E-03
15  8-2.91617339E-01 3.99756841E-01-5.39989651E-03-3.00232571E-02-1.20993448E-02
16  1-6.26199308E-03-1.42232242E-02 3.69298337E-02-1.96858353E-02 8.27599592E-03
16  2-2.23242922E-02-2.10168238E-01 1.21821578E-01-1.07036264E-01 8.80603963E-03
16  3 9.67451329E-03-1.84805529E-02-1.11114575E-02-1.77131956E-02 6.02874656E-03
16  4-5.23085481E-02-1.54288697E-01-7.13373720E-02-6.78302426E-01 3.43858173E-01
16  5-4.80337629E-01 9.75288540E-01-5.21298901E-01 5.75209588E-01-2.41363424E-02
16  6-7.46474614E-03 3.16010885E-02 3.76933828E-02 2.67146627E-02-1.35027843E-02
16  7 9.31761945E-02 9.77331491E-02 8.48345330E-05 1.01529720E-02-4.00848484E-02
16  8 1.08128426E-01 5.75071859E-02-1.99064306E-02-1.16366719E-02-3.18735154E-02
17  1-9.63393157E-03-7.23118433E-02-3.20790843E-01-2.57174744E-04-1.82955393E-02
17  2 6.27153600E-02 1.31846682E-02-2.25644986E-01-1.77549145E-01 1.87413845E-02
17  3-7.39867585E-03-1.13427086E-02-5.26709763E-03 4.97139557E-05-2.13554542E-02
17  4-2.22443862E-01-3.78690027E-01 1.36033472E+00-4.15994909E-01-4.14007826E-01
17  5 1.60327435E-01 7.71726519E-01 1.36359135E+00-4.13424713E-01-1.05256099E-01
17  6 5.98910208E-02 4.53650783E-02-1.69650027E-01 1.66537965E-01 9.56785854E-02
17  7-6.27675462E-01 1.12832374E+00 1.54784353E-01 1.20057695E-01-1.00012483E-01
17  8-4.36534332E-01-1.31868817E+00-4.96279683E-02 1.05692892E-01 3.66717945E-02
18  1-1.75905432E-02-8.65842976E-02-2.60805146E-01-1.44595009E-01-1.39983603E-01
18  2 1.22237998E-01 5.41756530E-01 4.26697075E-01-4.40264490E-01-2.14029582E-03
18  3 9.46663094E-03-7.32633512E-03-8.30453736E-03 9.36490343E-03-1.11199465E-02
18  4-3.27327910E-01-6.73990025E-01 2.02244579E+00 2.51803088E-01 2.20453179E-01
18  5-2.22959882E-01-1.44328891E+00-1.37595930E+00 5.87421910E-01-1.08770183E-01
18  6 4.03795960E-02 6.83905870E-02-1.35796654E-01-3.85895441E-02-8.63637798E-02
18  7-6.82633742E-01-1.42152263E+00-3.87072773E-02-3.06399355E-02 1.09143323E-01
18  8 2.16108865E-01 3.01703168E-01-1.14168417E-01 2.69011940E-02-5.06197252E-02
19  1-1.32399190E-03-5.71119802E-02-3.80272344E-01 1.47332339E-01 2.23121048E-01
19  2 4.41461864E-02-2.29545486E-01-6.07326644E-01-2.45209624E-01 1.06748657E-02
19  3 3.85428094E-03-1.45291467E-02 2.03350299E-03 1.98824003E-02 3.57436734E-03
19  4-5.31004558E-01-1.17909628E+00 3.04020057E+00 2.67307412E-01-3.26437238E-02
19  5-3.20742651E-01-1.74850185E-01 6.75974197E-01 1.54221387E-01 2.20780444E-01
19  6-1.81907256E-01-3.88731876E-02 7.12160753E-02-8.00555390E-02 3.72821126E-02
19  7 2.71592636E-01-1.06295522E+00-2.72040801E-01-2.18852289E-02 3.99626331E-02
19  8-4.07895568E-01-8.73227432E-01 5.04787121E-02 5.74428690E-02 4.88375615E-02
20  1 4.56614328E-02 2.50877921E-01 5.14560885E-01 1.70004435E-01-2.82339313E-01
20  2-3.90120713E-01-4.05162470E-01 6.97597894E-01 1.20535863E+00 1.85069683E-02
20  3 1.02788748E-02-2.87858431E-02 5.71020655E-03 1.90909956E-02-3.10802879E-02
20  4-3.76368504E-01-8.38400200E-01 1.01091604E-01-9.69805745E-02 2.07471874E-01
20  5 4.85519029E-01-1.36127745E-01 1.37346836E-01 2.81128484E-01 1.18683831E-01
20  6 7.61104483E-02-1.94794279E-01 3.15756014E-02 1.41788655E-01-2.34777444E-01
20  7-3.28659753E-02-1.90319795E-01-1.33272569E-02-4.43828854E-02-2.39612761E-02
20  8-1.93835664E-02-1.73669742E-01 1.12405812E-02 2.37385931E-02-7.11609883E-02
21  1 8.03949148E-03 3.27962867E-02 5.47149160E-02-5.48285073E-01 3.26890404E-01
21  2-4.02982560E-01 7.19717692E-01-4.17967263E-01 6.34458305E-01 5.18140174E-03
21  3-1.52626393E-04-5.02877535E-03-1.06485302E-02 3.62115575E-03 4.64595679E-03
21  4 1.19916501E-02 1.79961841E-02-3.15499097E-01-1.23548995E-01 1.37363031E-01
21  5-5.95399051E-02-1.53537966E-01 2.02057873E-02-1.40493764E-01 1.52315667E-01
21  6-5.21589363E-02-1.00156730E-01-1.76560951E-01 1.62822229E-02-1.40829365E-02
21  7 6.75271033E-02 2.61841667E-02-8.93586337E-02 1.53303943E-01-3.64804263E-02
21  8 2.75226858E-02 1.18896013E-01-1.59964296E-01-1.06063208E-02 1.60256047E-02
22  1 3.57863994E-03 3.04510747E-03-3.92380710E-02 1.40478314E-01 2.10496816E-01
22  2-4.90642036E-02-4.13025707E-01-6.12792758E-01 1.31224369E-01-3.33889798E-02
22  3 4.66809189E-02-1.32919391E-02-7.29603681E-03 2.75718461E-02 2.14702565E-02
22  4 1.39253513E-02 3.38223116E-02-1.18267608E-02-4.15306311E-02-5.83129154E-02
22  5 7.25839629E-03 4.97795695E-01 6.57369861E-01-2.15177307E-01-2.23134745E-01
22  6-1.01265573E-02 2.33261302E-01-1.89537640E-01-2.78337489E-01-4.47189408E-01
22  7 1.51946435E-01 3.61820461E-01 1.49180472E-01 1.99357837E-02 2.93692540E-01
22  8-1.59814776E-01-3.29105518E-01-1.18197268E-01 2.78760097E-02-3.05686980E-01
23  1-1.24606044E-02-3.34686881E-02 2.96737935E-02-2.33943748E-01 1.33268123E-01
23  2-1.05430364E-01 7.02804783E-01-4.11060178E-01 3.05513852E-01 3.11272793E-02
23  3 3.93939418E-02-7.05212211E-02-3.14015532E-02-6.60308095E-02 1.63905029E-02
23  4-1.42993692E-01-2.86013765E-01 8.29405368E-01 4.65174016E-03-3.84010311E-02
23  5-3.60704653E-02-5.45262665E-01 4.37111956E-01-7.31449482E-03-3.25430785E-01
23  6-1.23740102E-01 4.49170887E-01 5.31842305E-01 3.15068536E-01-1.48052898E-01
23  7-1.78752920E-01-2.32374729E-01 1.15745746E-01-2.16681730E-01 1.57679773E-02
23  8-1.82517430E-01-2.74659975E-01 2.28716222E-01-3.05346834E-02-3.96245447E-02
24  1-1.79103918E-01-4.37344370E-01 1.73118428E-01-2.51459436E-02-3.07910024E-02
24  2-2.60298625E-01-1.65721111E-02 4.63990499E-02 2.29525213E-01-4.19518018E-03
24  3 2.04353685E-02-1.62401883E-02 6.90377794E-02 2.01988408E-02-3.94612140E-02
24  4-2.83496618E-01-5.45724843E-01 1.02906727E+00-7.57521132E-02 3.64804321E-02
24  5-5.44825066E-02-2.55672795E-01 1.43127215E-01-7.26459533E-02-1.27858792E-01
24  6 3.05606153E-01-1.77747361E-01 2.98557937E-01-6.66286873E-01 2.59525077E-01
24  7-4.46530890E-01-1.61151558E-01 2.16093669E-01 6.35237186E-02 2.63377740E-01
24  8-4.02546928E-01-1.61235961E-01 1.08401497E-01-1.07342541E-01 3.16513110E-01
25  1 8.26377823E-03 1.58880066E-02-2.13963613E-02-3.82083814E-03 5.68327125E-02
25  2 3.94993579E-03-1.13040983E-01-2.13253397E-01 1.14464374E-02-9.97741529E-03
25  3-2.11698419E-03 1.20943995E-02 3.93752341E-03-5.45074315E-03-1.15981707E-02
25  4-3.92030258E-02-9.88100447E-02 2.30469946E-01-2.78834133E-02-8.80124916E-02
25  5-2.17907412E-02 6.48934862E-01 1.00686972E+00-2.14852986E-01-2.00568291E-01
25  6 3.43292326E-01-1.42724036E-01-2.38012439E-02 8.94128480E-02 9.23805004E-02
25  7 4.97750812E-01 2.92937638E-01 5.09330545E-02-6.67492336E-01-3.71607975E-02
25  8-5.36355700E-01-4.15583760E-01-6.00585544E-01-6.19148797E-02 1.92371990E-01
26  1 1.56892449E-02 6.46605545E-02 4.74524110E-01-1.34524473E-01 1.41332200E-01
26  2 2.14544682E-01 5.70268674E-02-1.56079038E-02-1.72726287E-01-4.34751625E-02
26  3-1.59045170E-02 5.93796796E-02 6.37722003E-02-1.54739750E-03-1.39725848E-02
26  4-9.72910789E-02-1.95223243E-01 5.11689735E-01 2.43821843E-02-3.78940456E-02
26  5 2.30892831E-02-3.23635763E-01 3.73121177E-01 7.41006011E-01 1.16992958E-01
26  6 4.29285217E-01-5.46278175E-01 2.34608938E-01-2.51010695E-01-1.25908555E-01
26  7-4.49332500E-01-1.58020230E-01-3.99383148E-02-8.42397205E-02-4.74900078E-01
26  8-4.46759059E-01-1.13438148E-01 1.01482232E-01-9.31384793E-02-5.83150933E-01
27  1 3.78688451E-02 7.26570838E-02-2.63097465E-01-1.73010786E-02-1.56551768E-02
27  2-2.69561174E-02 1.69486822E-01 1.43884498E-01-1.11492152E-01-1.15411176E-03
27  3-7.22795386E-02 7.34336504E-02-3.54589623E-02-1.09608157E-01-1.34680331E-01
27  4-2.54781760E-02-7.41058485E-02 2.54153885E-01-3.01880680E-02-9.86934432E-02
27  5-4.85946052E-02 1.36898978E-01 1.19767917E-01-1.67269444E-01-5.44584386E-01
27  6 7.16953146E-01-1.72368760E-01-1.29172852E-01 3.99369876E-01 3.43484091E-01
27  7 5.82833516E-01-1.98779751E-01-2.18307470E-01 3.39300195E-01 3.90504812E-01
27  8-4.55072905E-01 1.03761173E-01 2.92658359E-01-1.35549338E-01-2.87470952E-01
28  1-5.90840866E-01-1.26918041E+00 3.07634067E+00-6.06915643E-02 1.51133400E-01
28  2 2.65124070E-01-2.11757193E-01 3.37349736E-01 7.56382061E-01 4.10771460E-02
28  3 8.97532598E-03-5.00524720E-02-1.51965359E-02 3.95134099E-02-5.81606378E-02
28  4 1.20949612E-01 2.01912377E-01-1.92707138E+00-1.40032167E-01 1.61307120E-01
28  5 2.74351532E-01-2.74741515E-01 4.90499996E-01 8.94610802E-01 4.38604004E-01
28  6 2.15342401E-01-6.53946405E-01-5.00886080E-03 4.49638506E-01-6.34080287E-01
28  7 9.24244455E-02 7.50932997E-02 9.09341410E-02-2.55291507E-02 2.36979501E-01
28  8 4.08389161E-02 8.19588997E-02 1.47258071E-01-2.54731506E-02 2.26042096E-01
29  1 3.75788872E-02 8.34302980E-02-1.12056483E-01-2.55170017E-02 5.15899981E-03
29  2 1.99495453E-02 1.44671748E-01 1.36264806E-01-8.70500863E-02 1.20944894E-01
29  3-1.51644941E-01 3.07000466E-02 3.38243113E-02-5.19491994E-02-1.26532387E-02
29  4-5.56098611E-03-1.62588100E-02 9.66264793E-02 4.85082129E-02 8.27922203E-02
29  5-5.91947083E-02-2.34389016E-01-2.55306367E-01 4.32827611E-02 6.54209164E-01
29  6-3.25964401E-01-3.28244763E-01 2.79609030E-01 2.64398582E-01 5.77752556E-01
29  7-1.46885736E-01-9.72472295E-02 5.03207126E-01-1.33562433E-01 6.13944224E-01
29  8 1.40229087E-01 6.35355388E-02-2.91187385E-01 1.76803049E-01-5.54413436E-01
30  1-3.94673040E-01-8.81106890E-01 1.33762421E+00 1.18730689E-01-9.00609180E-02
30  2-8.20583467E-02-1.99302164E-01 2.71024103E-01 3.98243227E-01 5.02444665E-02
30  3 4.56183793E-02-9.58628458E-02 5.34812865E-02-4.85231620E-02-4.52618329E-02
30  4 4.10726432E-02 8.76323283E-02-8.65112020E-01 8.48428889E-02 2.11208131E-02
30  5 2.54069042E-01 2.17087888E-01-8.47972041E-02 4.01061895E-01-2.68482769E-01
30  6-2.63165297E-02 2.94799299E-01 5.82210320E-01 1.75260981E-03 1.15428980E-01
30  7 5.76508284E-02 7.24502379E-02-3.90343653E-01 4.39594662E-01-2.16934045E-01
30  8 6.47854284E-02 1.06993690E-01-6.79034547E-01 1.84196120E-01-3.04024538E-01
31  1-3.62974795E-01-8.07068897E-01 1.02936649E+00 9.36834919E-03-6.60494662E-02
31  2-2.46161462E-01-6.25935840E-02 1.21420675E-01 3.00528320E-01 7.80405587E-03
31  3-5.41732880E-02 4.63692322E-02 2.36572637E-03 1.33258278E-01-7.14814292E-02
31  4 1.05787574E-01 2.88139773E-01 1.65758393E-01-2.79181273E-01 2.82506712E-01
31  5 2.80642435E-01-2.48092077E-01 3.22140220E-01 4.63271244E-01-1.19726123E-01
31  6-1.38594984E-01 2.58321108E-01-4.61884151E-01-3.23721713E-01 5.06740861E-01
31  7-1.46078734E-01-2.90791908E-01-3.02140206E-01-7.31366794E-01-1.28813610E-01
31  8-1.51858063E-01-3.02750944E-01 5.22749754E-01 4.26785447E-01-4.54671201E-01
32  1 8.41056425E-02 1.77152602E-01-2.64513372E-01-1.75005561E-02 5.40752331E-02
32  2 4.89769005E-02 3.58288819E-03-1.10120425E-01-8.70471435E-02-1.64263265E-01
32  3 7.94714961E-02 8.47917693E-02-5.35655918E-03-1.52222052E-01-1.51647461E-01
32  4 9.08748280E-02 2.17657686E-01 6.59350004E-01 5.32662878E-01 1.02602466E+00
32  5-2.01668522E-01 4.99796110E-01 8.39008617E-01-2.37086091E-01-6.09019139E-01
32  6 9.83447398E-01-3.74428259E-01 5.99130069E-02 2.60410254E-01 7.30322512E-02
32  7 6.81015463E-01 4.82040271E-01 5.36833519E-01 3.14950917E-01-2.83832473E-01
32  8-1.25222135E+00-8.20653118E-01 1.43533939E-01 1.42352684E+00 2.22950394E-01
33  1 2.23230863E-01 4.79511865E-01-6.50700616E-01-7.21722521E-02 4.54216699E-02
33  2 1.51733522E-01 1.17743263E-01-7.45488899E-02-2.50955353E-01-6.47427454E-02
33  3 8.90299701E-02-2.42872247E-02 3.09695685E-01-1.57833218E-01 1.44907126E-01
33  4 3.00202794E-01 7.69268619E-01 1.57480196E+00-6.94925603E-01-1.61771444E-02
33  5 3.78538552E-01-4.07561735E-01-1.63400176E-01 6.20918989E-02 3.31589778E-01
33  6 1.45434947E-01-4.77024726E-01 6.64139123E-01-4.30772492E-01-3.73648871E-01
33  7-1.31138045E+00-6.29822619E-01-1.08928749E+00-2.73828245E-01 7.35905957E-01
33  8-4.79004971E-01-1.81636472E-01-5.30939232E-02 5.68991958E-01 2.21592053E-01
34  1 6.59709256E-03 1.30931435E-02-2.60030728E-02 8.14140008E-03 1.99252358E-02
34  2-1.50002243E-03-3.54335582E-02-5.97031044E-02 4.28197989E-03 7.90547745E-01
34  3-6.62549389E-01-1.27998357E-01 2.67833441E-01 7.11361111E-02 3.81114996E-01
34  4 8.50508949E-05-1.76809639E-03 5.87307204E-02 1.76798697E-01 2.44188736E-01
34  5-7.33116317E-02 2.03187868E-01 2.85075507E-01-8.16491680E-02-3.83790333E-01
34  6 3.91677222E-01-7.88688825E-03-1.12842692E-01 5.17868170E-02-9.05668661E-02
34  7 3.30668140E-01 1.56299161E-01 1.20142046E-01 1.39977703E-01-2.00137538E-01
34  8-3.65562984E-01-1.75655240E-01 1.09905370E-01 2.66059593E-01 1.15352189E-01
35  1 1.15219844E-01 2.42823745E-01-3.61256248E-01-2.07814660E-02 2.12331093E-02
35  2 7.25268633E-02 4.48141102E-02-4.18748345E-02-1.40188986E-01 1.53093704E-01
35  3-2.69753051E-01 1.16659347E-01-7.91568428E-01 3.91801604E-01-3.84160170E-03
35  4 1.16030238E-01 3.11145035E-01 8.33370322E-01-2.17982064E-01 7.18490260E-02
35  5 1.33576925E-01-1.07752971E-01-7.76576526E-03 7.97935205E-03 3.84004463E-02
35  6 2.46446951E-01-2.84847397E-01 5.27135594E-01-2.55680316E-01-1.49699453E-01
35  7-5.89750669E-01-1.96880307E-01-4.33208360E-01 1.71665305E-02 2.66351503E-01
35  8-4.11501524E-01-1.32987351E-01-1.31799353E-01 3.78803724E-01 1.07942975E-01
36  1 4.22942853E-02 8.88615471E-02-1.60848257E-01-3.22656503E-02 2.58391470E-02
36  2 1.91013140E-03 2.49981790E-01-1.56139348E-01 9.37903584E-02-3.27088046E-01
36  3-3.45930047E-01 6.73018093E-01 4.43921807E-01 6.33865218E-01-2.33845076E-01
36  4-4.98499719E-03-1.90363219E-02-5.39194459E-02-5.23276583E-02 9.72865396E-03
36  5-1.11130388E-01-5.33829918E-02-1.05904028E-02-1.80191995E-01-1.76612232E-01
36  6-1.50582477E-01 3.27194709E-01 3.17164985E-01 3.46521401E-01-1.70400830E-01
36  7 7.38179520E-02 3.65404347E-02 1.51392736E-02 1.73977428E-01 4.19747624E-02
36  8 6.89763106E-02 3.54418307E-02-1.40235380E-01-4.02834849E-02 1.04022114E-01
37  1-1.48779136E-03-3.79485898E-03 2.51679504E-04 9.98027901E-03 1.18921178E-02
37  2-7.63166762E-03 1.92596232E-01 2.66607844E-01-7.50651919E-02-2.17607614E-01
37  3 5.82824169E-01-3.65216555E-01 7.08748509E-02 5.82810709E-01 6.42601442E-01
37  4-4.91816108E-03-1.43828362E-02-9.89569902E-03 1.51207293E-01 1.90238039E-01
37  5-6.72830987E-02-4.45862955E-02-6.72194925E-02 1.71322170E-02-3.25589854E-01
37  6 6.30437125E-01-3.04847271E-01-2.71604142E-03 5.31083966E-01 5.30384431E-01
37  7 4.43599551E-01-4.61721067E-02 2.96724069E-01 2.40095387E-01 6.08995269E-02
37  8-4.09299901E-01 5.14617299E-02 9.69533491E-02 2.92671378E-01-2.19466288E-01
38  1-3.02094908E-01-5.83709939E-01 1.69934682E+00-3.16848393E-03 2.86570403E-02
38  2 3.96043259E-02-2.33448879E-01 3.91533629E-01 8.39417992E-01-4.83375647E-01
38  3-2.77252298E-01 7.60627944E-01-1.86539152E-01-4.00704673E-01 7.25479079E-01
38  4-2.26010332E-01-5.83489655E-01-9.00289178E-01-1.45804720E-01 2.98770069E-01
38  5 6.16662479E-01-7.92453786E-02 1.68925087E-01 3.69852587E-01 1.88399162E-01
38  6 9.64856755E-02-2.84884838E-01 8.11568963E-02 2.30627513E-01-3.18885654E-01
38  7 6.50325453E-02 5.94303448E-02 5.85076529E-02 5.57983199E-02-4.37012094E-03
38  8 3.90570542E-02 5.84715261E-02-2.86377393E-02-5.74395137E-02 2.96505454E-02
 $end   

! TRAVIS-CI SMALL

