!  H2CO plus PCM water solvent
!  This uses the ORMAS-PT2/PCM code to compute the two lowest 
!  singlet state energies (S0 -> S1 excitation) with state-averaged 
!  approximate FORS references
!  The S0 -> S1 excitation is of n -> pi* character
!
!  The ORMAS space is split into 3 parts (not including 2 core orbitals):
!      1) valence sigma + pi bonds + oxygen 2s lone pair (5)
!      2) oxygen in-plane p lone pair + pi antibond (2)
!      3) anti-bonding sigma orbitals (3)
!
!  The occuptation restrictions given in $ormas represent MR-CISD(2,2)
!  The guess orbitals are from gas-phase FORS run
!  Energies below are from a serial run
!
!  E(OR-PT2(Approx. FORS)/PCM)-S0 = -114.203911485 | E(S0-S1) = 3.94 eV
!  E(OR-PT2(Approx. FORS)/PCM)-S1 = -114.059056927 |
!
!  For comparison, when using the exact FORS reference, the energies are:
!
!  E(MRMP2(FORS)/PCM)-S0 =          -114.209455619 | E(S0-S1) = 3.98 eV
!  E(MRMP2(FORS)/PCM)-S1 =          -114.063324190 |
!
!  In C2V point group, the S0 and S1 states have difference irreps, therefore,
!  the MCQDPT2 and MRMP2 energies will be identical.
!  In this case, the molecule has very nearly C2V symmetry since it distorts
!  slightly during the MP2/CCD PCM optimizaton. However, it is very nearly C2V
!  so the MCQDPT2 and MRMP2 energies are the same to the decimal places above
!
 $contrl scftyp=mcscf mplevl=2 runtyp=energy ispher=1 $end
 $system mwords=100 memddi=100 $end
 $guess  guess=moread norb=38 $end
 $basis  gbasis=ccd $end

 $det    ncore=2 nact=10 nels=12 nstate=3 wstate(1)=1,1 $end
 $mcscf  fullnr=.true. maxit=200 $end
 $mcscf  cistep=ormas $end
 $ormas  nspace=3 mstart(1)=3,8,10 mine(1)=8,0,0 maxe(1)=10,4,2 $end

 $data  
H2CO at MP2/CCD PCM optimized geometry
C1
 O           8.0   0.0000484310   0.0000000000  -0.6168340782
 C           6.0   0.0001272461  -0.0000000000   0.6023054011
 H           1.0   0.9420211439   0.0000000000   1.1953812781
 H           1.0  -0.9421968209   0.0000000000   1.1955499589
 $end
 $pcm   solvnt=water $end


--- OPTIMIZED MCSCF MO-S --- GENERATED AT Thu Dec  3 15:00:38 2015
H2CO at MP2/CCD PCM optimized geometry                                          
E(MCSCF)=     -114.0107427815, E(NUC)=       30.9648085331
 $VEC   
 1  1 1.00024818E+00-2.14810502E-02-3.22166739E-02-1.19131646E-03 0.00000000E+00
 1  2 1.27156812E-02-4.88205161E-04 0.00000000E+00 6.66993667E-03-5.81426563E-05
 1  3-3.02661845E-04 3.60804501E-04 0.00000000E+00-1.16669856E-04 0.00000000E+00
 1  4-1.01431466E-03-2.21113193E-03 3.09496273E-04-3.18222692E-03 0.00000000E+00
 1  5-1.88254340E-03-1.01198685E-03 0.00000000E+00-1.37594071E-03 1.06606909E-03
 1  6 4.52363749E-04-1.51843284E-03 0.00000000E+00-7.03171330E-05 0.00000000E+00
 1  7-5.12162968E-03-2.21089476E-03 4.24147774E-04 0.00000000E+00 5.57318089E-04
 1  8-6.67167196E-04-3.72534304E-04-1.64929527E-04 0.00000000E+00 3.67256824E-04
 2  1 1.14913955E-03-3.29739250E-03-5.95746535E-03-7.93914302E-04 0.00000000E+00
 2  2 3.03130035E-03 5.95936670E-04 0.00000000E+00 9.64032226E-04-1.00702226E-04
 2  3 7.76650868E-05 2.30371394E-05 0.00000000E+00-2.95333233E-04 0.00000000E+00
 2  4 1.00154423E+00-7.63129307E-03-1.32935543E-02-1.01568710E-02 0.00000000E+00
 2  5-8.79706363E-03-3.25328013E-03 0.00000000E+00-4.04202448E-03-1.12966123E-04
 2  6-7.62451423E-04 8.75417546E-04 0.00000000E+00-5.13583875E-04 0.00000000E+00
 2  7-1.72823155E-02-4.24468114E-03 1.78136480E-03 0.00000000E+00 9.80884357E-04
 2  8-1.50339125E-03 2.99598938E-03-9.51779650E-04 0.00000000E+00 3.32412068E-04
 3  1 3.34459848E-02 4.24449309E-01 4.02390152E-01 2.27768146E-03 0.00000000E+00
 3  2 1.12126027E-01 1.02134940E-03 0.00000000E+00 1.79385901E-02-6.90417661E-03
 3  3-7.16608507E-03 1.40702617E-02 0.00000000E+00 1.95222031E-04 0.00000000E+00
 3  4 1.57982386E-03 2.00182674E-01 7.74697795E-02 5.18570080E-03 0.00000000E+00
 3  5-1.69080894E-01 1.46510469E-03 0.00000000E+00-1.37239892E-02-2.53973726E-02
 3  6-1.09701308E-02 3.63675034E-02 0.00000000E+00-5.34992991E-05 0.00000000E+00
 3  7 4.36376371E-02 2.79629440E-03-7.00683586E-03 0.00000000E+00-9.04311442E-03
 3  8 3.55043157E-02-7.35784198E-04 6.18094382E-03 0.00000000E+00-8.49289181E-03
 4  1-1.34150502E-02-1.90917596E-01-2.51249018E-01 5.56468917E-03 0.00000000E+00
 4  2 1.81187350E-01 3.07276415E-04 0.00000000E+00 1.07837741E-01-5.82453790E-03
 4  3-4.37378249E-03 1.01983204E-02 0.00000000E+00 3.95585119E-04 0.00000000E+00
 4  4 2.17887446E-02 3.54703934E-01 2.36642341E-01 1.08454962E-02 0.00000000E+00
 4  5 1.38620246E-01 8.03867968E-03 0.00000000E+00 7.28069923E-02 6.99740237E-03
 4  6-1.17152996E-03-5.82587240E-03 0.00000000E+00-8.06606204E-04 0.00000000E+00
 4  7 2.37261047E-01 3.44648062E-02-2.48320371E-02 0.00000000E+00-1.22964268E-02
 4  8 2.19975009E-01 2.75167685E-02 2.10928483E-02 0.00000000E+00-1.00798571E-02
 5  1 1.62062425E-02 4.37160446E-02 9.87259865E-02 3.24097364E-01 0.00000000E+00
 5  2-1.95525039E-01 1.90402312E-01 0.00000000E+00-1.11091061E-01 5.00431644E-03
 5  3 4.58515022E-03-9.58946666E-03 0.00000000E+00 1.80991566E-02 0.00000000E+00
 5  4 1.94627625E-02-3.36568810E-02 2.23313131E-02 3.65586331E-01 0.00000000E+00
 5  5 1.48124947E-01 1.34358268E-01 0.00000000E+00 2.15948093E-02 9.02363418E-03
 5  6 1.45199985E-03-1.04756340E-02 0.00000000E+00-1.28562069E-02 0.00000000E+00
 5  7 2.64025058E-01 7.77046601E-02-1.90583599E-02 0.00000000E+00-8.53765586E-03
 5  8-1.79528791E-01-3.75754553E-02-8.76988133E-03 0.00000000E+00 1.08824721E-02
 6  1-2.13737413E-02-1.06628783E-01-2.37088759E-01 1.42006062E-01 0.00000000E+00
 6  2 4.61780929E-01 8.60519146E-02 0.00000000E+00 2.61181605E-01-1.17390449E-02
 6  3-1.04604213E-02 2.21994661E-02 0.00000000E+00 7.49747660E-03 0.00000000E+00
 6  4 6.76793720E-04 4.39289245E-02-5.50128732E-02 1.47823601E-01 0.00000000E+00
 6  5-3.68927674E-01 5.33914442E-02 0.00000000E+00-4.96415755E-02-2.19974664E-02
 6  6-3.05707792E-03 2.50545444E-02 0.00000000E+00-5.73939701E-03 0.00000000E+00
 6  7-4.57395635E-02-3.86618486E-02 6.59184942E-03 0.00000000E+00-7.16148639E-03
 6  8-2.16780401E-01-7.60800964E-02-1.56154132E-02 0.00000000E+00-4.44857681E-04
 7  1 0.00000000E+00 0.00000000E+00 0.00000000E+00 0.00000000E+00 5.02510035E-01
 7  2 0.00000000E+00 0.00000000E+00 3.16577400E-01 0.00000000E+00 0.00000000E+00
 7  3 0.00000000E+00 0.00000000E+00-9.13427104E-05 0.00000000E+00 2.75943159E-02
 7  4 0.00000000E+00 0.00000000E+00 0.00000000E+00 0.00000000E+00 3.56187004E-01
 7  5 0.00000000E+00 0.00000000E+00 2.13380584E-01 0.00000000E+00 0.00000000E+00
 7  6 0.00000000E+00 0.00000000E+00-4.08116999E-04 0.00000000E+00-4.92046740E-02
 7  7 0.00000000E+00 0.00000000E+00 0.00000000E+00 9.39984059E-03 0.00000000E+00
 7  8 0.00000000E+00 0.00000000E+00 0.00000000E+00 9.11329311E-03 0.00000000E+00
 8  1-2.06457229E-03 1.79153943E-03 6.90178116E-03 5.36439271E-01 0.00000000E+00
 8  2-6.75222407E-03 4.02008991E-01 0.00000000E+00-2.45797959E-03-1.18047948E-06
 8  3 1.85720912E-04-1.84540432E-04 0.00000000E+00 8.65896995E-03 0.00000000E+00
 8  4-8.29073635E-03 1.22481053E-02 4.89424979E-04-1.97825196E-01 0.00000000E+00
 8  5 1.34976276E-02-1.73226929E-02 0.00000000E+00 2.02484351E-03 4.01525196E-04
 8  6 4.32556503E-04-8.34081699E-04 0.00000000E+00-7.17402965E-02 0.00000000E+00
 8  7-2.57119850E-01-2.04180925E-01 5.01869501E-03 0.00000000E+00 7.39297888E-03
 8  8 2.63954929E-01 1.99244316E-01 3.80627436E-03 0.00000000E+00-6.29752588E-03
 9  1 0.00000000E+00 0.00000000E+00 0.00000000E+00 0.00000000E+00 6.99532266E-01
 9  2 0.00000000E+00 0.00000000E+00 7.77067619E-02 0.00000000E+00 0.00000000E+00
 9  3 0.00000000E+00 0.00000000E+00-1.50283903E-03 0.00000000E+00-7.96029646E-03
 9  4 0.00000000E+00 0.00000000E+00 0.00000000E+00 0.00000000E+00-6.05657962E-01
 9  5 0.00000000E+00 0.00000000E+00-2.91735975E-01 0.00000000E+00 0.00000000E+00
 9  6 0.00000000E+00 0.00000000E+00 3.69314158E-03 0.00000000E+00 4.45389384E-02
 9  7 0.00000000E+00 0.00000000E+00 0.00000000E+00-1.14823074E-02 0.00000000E+00
 9  8 0.00000000E+00 0.00000000E+00 0.00000000E+00-8.34893313E-03 0.00000000E+00
10  1-7.51568293E-03 1.52051787E-02 7.27034149E-02-2.15763377E-01 0.00000000E+00
10  2 1.73339072E-01 2.80591225E-02 0.00000000E+00-2.39283238E-03 6.29923856E-04
10  3-8.94422958E-03 8.31430572E-03 0.00000000E+00 1.06142039E-02 0.00000000E+00
10  4-1.78320326E-01-6.38433630E-01-2.31176081E-01 6.14668809E-01 0.00000000E+00
10  5-2.94347597E-01 1.48190269E-01 0.00000000E+00-3.52093449E-02-2.19274640E-02
10  6 4.73011177E-03 1.71973523E-02 0.00000000E+00 6.88677075E-02 0.00000000E+00
10  7 8.05558106E-02-1.91881610E-02-6.03191055E-05 0.00000000E+00-5.24451984E-03
10  8 9.08186121E-01 2.91927933E-01-1.83038380E-02 0.00000000E+00 1.16985263E-02
11  1 5.96665701E-02 2.61018493E-01 2.59556276E-01 4.94035295E-01 0.00000000E+00
11  2 6.90188741E-01-3.38448618E-01 0.00000000E+00-1.67180043E-02-2.13903799E-03
11  3 8.18969013E-03-6.05065214E-03 0.00000000E+00-3.65423907E-02 0.00000000E+00
11  4-1.34719839E-01-5.29259418E-01-1.81225608E-01-1.46995607E-01 0.00000000E+00
11  5 5.31068319E-01-2.19714693E-01 0.00000000E+00 7.32874876E-02 2.99460897E-02
11  6-1.17179765E-02-1.82281131E-02 0.00000000E+00 1.57969240E-01 0.00000000E+00
11  7 2.20788646E-01 2.96844728E-01 6.68010952E-03 0.00000000E+00 2.25220065E-02
11  8-1.12973668E-02-1.65012331E-01 2.63435032E-02 0.00000000E+00 2.80486788E-03
12  1 9.48573004E-02 3.12488837E-01 1.07367693E-01-6.53481083E-01 0.00000000E+00
12  2 4.52941653E-01 5.06945426E-01 0.00000000E+00 2.54513456E-02 4.52804597E-03
12  3 1.33235539E-02-1.78515998E-02 0.00000000E+00 4.57451059E-02 0.00000000E+00
12  4 3.06335852E-02 4.39309453E-02-3.78475474E-02-6.19157251E-02 0.00000000E+00
12  5 6.93118386E-01 2.57397184E-01 0.00000000E+00 9.63237088E-02 3.67476675E-02
12  6-3.93299972E-03-3.28146678E-02 0.00000000E+00-2.76201313E-01 0.00000000E+00
12  7-2.34702723E-01-3.26743083E-01-2.75791223E-02 0.00000000E+00-1.74039658E-04
12  8-2.71051089E-01 2.18320661E-01-1.75156339E-02 0.00000000E+00 1.60900657E-02
13  1 1.75783672E-02-4.08829592E-03-3.31830551E-01-1.70480042E-01 0.00000000E+00
13  2 4.67840330E-03 2.59106113E-01 0.00000000E+00 2.16111545E-03 6.34958528E-03
13  3 3.40970930E-03-9.75929459E-03 0.00000000E+00 1.98575671E-03 0.00000000E+00
13  4 7.79381445E-02 6.62180082E-02-1.35198108E+00-2.86940191E-01 0.00000000E+00
13  5-7.48893290E-03-3.08217431E-01 0.00000000E+00-7.93089426E-01-7.05138066E-02
13  6 6.40890202E-02 6.42478640E-03 0.00000000E+00-5.55101114E-02 0.00000000E+00
13  7-3.82564220E-01 2.06967501E+00-4.36445033E-02 0.00000000E+00-4.44750727E-02
13  8 1.39329375E-02 3.05213633E-01 6.28194167E-02 0.00000000E+00-1.19466050E-02
14  1 5.09513180E-02 9.61531310E-03-1.02854766E+00 8.08674691E-02 0.00000000E+00
14  2 8.01539826E-02-2.03462804E-01 0.00000000E+00-3.06189364E-01 2.04095054E-02
14  3 2.05172726E-02-4.09267781E-02 0.00000000E+00-1.92386203E-03 0.00000000E+00
14  4-1.00982331E-02-3.30398238E-02-2.68543338E-02 2.06975249E-02 0.00000000E+00
14  5 2.22363510E-01 8.96147812E-01 0.00000000E+00-1.34694988E+00-1.08408639E-01
14  6 1.94423708E-02 8.89662685E-02 0.00000000E+00 9.73313108E-02 0.00000000E+00
14  7 9.76161646E-02-6.73291580E-01-1.09090998E-02 0.00000000E+00 3.14593425E-02
14  8-4.83650519E-01 2.09932556E+00 9.90666573E-02 0.00000000E+00-7.24915913E-02
15  1 7.86838231E-02 5.87626047E-02-1.37309833E+00-3.75428798E-02 0.00000000E+00
15  2 1.13436057E-01 9.18581298E-02 0.00000000E+00-5.30263634E-01 2.57202401E-02
15  3 2.35634668E-02-4.92837069E-02 0.00000000E+00 1.64944862E-03 0.00000000E+00
15  4-1.34128060E-01-2.64325017E-01 1.77156786E+00 4.90254482E-02 0.00000000E+00
15  5 1.94575629E-01-5.34824498E-01 0.00000000E+00-1.31243631E+00 3.14842406E-02
15  6-1.52374939E-01 1.20890699E-01 0.00000000E+00-6.31049990E-02 0.00000000E+00
15  7 1.72798317E-01 1.88046739E-01 2.95863433E-02 0.00000000E+00-1.32091572E-02
15  8 5.19769956E-01-1.35854584E+00-9.61307446E-02 0.00000000E+00 5.62797498E-02
16  1 0.00000000E+00 0.00000000E+00 0.00000000E+00 0.00000000E+00-6.71028261E-03
16  2 0.00000000E+00 0.00000000E+00-2.89467240E-01 0.00000000E+00 0.00000000E+00
16  3 0.00000000E+00 0.00000000E+00-7.64583839E-05 0.00000000E+00-3.60016594E-02
16  4 0.00000000E+00 0.00000000E+00 0.00000000E+00 0.00000000E+00-8.89684467E-01
16  5 0.00000000E+00 0.00000000E+00 1.23608492E+00 0.00000000E+00 0.00000000E+00
16  6 0.00000000E+00 0.00000000E+00 7.58759516E-04 0.00000000E+00 5.11732481E-02
16  7 0.00000000E+00 0.00000000E+00 0.00000000E+00-2.82167653E-02 0.00000000E+00
16  8 0.00000000E+00 0.00000000E+00 0.00000000E+00-2.82875777E-02 0.00000000E+00
17  1 6.62990746E-03 5.57235636E-02 2.87994664E-01-6.52996832E-02 0.00000000E+00
17  2-5.74813693E-02-1.19207780E-01 0.00000000E+00 2.42704030E-01-1.76625186E-03
17  3-1.78954504E-02 1.96617023E-02 0.00000000E+00-1.53709189E-02 0.00000000E+00
17  4 2.39684611E-01 4.33892001E-01-1.51641169E+00-6.28596902E-01 0.00000000E+00
17  5-2.11638516E-02 1.74810682E+00 0.00000000E+00-2.09400154E-01 1.68326863E-01
17  6-1.09656376E-01-5.86704868E-02 0.00000000E+00 1.96231271E-01 0.00000000E+00
17  7 5.46657378E-01-1.06337956E+00 1.81584753E-01 0.00000000E+00 6.07564159E-02
17  8 4.40845615E-01 1.45894085E+00 8.20782136E-02 0.00000000E+00-1.13610138E-01
18  1-5.48591005E-03-8.32266583E-02-5.09447138E-01 1.93459036E-02 0.00000000E+00
18  2 1.29951750E-01-3.08308473E-01 0.00000000E+00-5.91190945E-01-2.58902256E-03
18  3 1.72760595E-02-1.46870369E-02 0.00000000E+00-1.16971325E-02 0.00000000E+00
18  4-5.24281560E-01-1.13098102E+00 3.42645508E+00-4.27543606E-01 0.00000000E+00
18  5-4.18434760E-01 1.52307407E+00 0.00000000E+00 6.69035048E-01-4.63120305E-02
18  6-1.26927007E-02 5.90047313E-02 0.00000000E+00 1.07347992E-01 0.00000000E+00
18  7-3.91931422E-01-1.86038870E+00 1.76779600E-01 0.00000000E+00 1.40001548E-01
18  8-6.19802515E-02-2.00394667E-01-1.90102673E-02 0.00000000E+00 6.77853808E-02
19  1-2.64988979E-02-1.16303823E-01-1.84771464E-01 4.10330914E-01 0.00000000E+00
19  2 1.96707458E-01-1.18075114E+00 0.00000000E+00-5.91927839E-01-9.26647496E-03
19  3-1.32741824E-02 2.25406573E-02 0.00000000E+00 2.35672891E-02 0.00000000E+00
19  4 3.68903276E-01 8.27470185E-01-8.98040959E-01-3.71234717E-02 0.00000000E+00
19  5-9.40657457E-02 1.61987840E+00 0.00000000E+00-3.45345253E-01-9.79848674E-02
19  6-4.54279097E-02 1.43412777E-01 0.00000000E+00-2.78574165E-01 0.00000000E+00
19  7-4.74388575E-01-1.90174725E-01-1.00025951E-01 0.00000000E+00-1.00931127E-01
19  8 4.13946648E-01 9.40802782E-01 5.59279898E-02 0.00000000E+00 8.24980566E-02
20  1 1.99601791E-02 1.82711831E-01 6.72650363E-01 2.56854043E-01 0.00000000E+00
20  2-4.13640307E-01-6.98801263E-01 0.00000000E+00 1.38491406E+00 1.78694160E-02
20  3 2.23967115E-02-4.02661275E-02 0.00000000E+00 1.27558559E-02 0.00000000E+00
20  4-3.62011782E-01-7.67063646E-01-2.26821744E-01-4.88978745E-02 0.00000000E+00
20  5 5.39425204E-01 9.76367513E-01 0.00000000E+00 2.55827230E-01 9.12064823E-02
20  6 1.54935902E-01-2.46142384E-01 0.00000000E+00-1.51132605E-01 0.00000000E+00
20  7-2.70073761E-01-4.34836246E-01-2.97188447E-03 0.00000000E+00-9.06218039E-02
20  8 2.15546473E-01 2.85970677E-01-1.28859450E-02 0.00000000E+00 4.66780190E-03
21  1 0.00000000E+00 0.00000000E+00 0.00000000E+00 0.00000000E+00-7.75317310E-01
21  2 0.00000000E+00 0.00000000E+00 1.22994871E+00 0.00000000E+00 0.00000000E+00
21  3 0.00000000E+00 0.00000000E+00-9.94277538E-04 0.00000000E+00-2.15514454E-02
21  4 0.00000000E+00 0.00000000E+00 0.00000000E+00 0.00000000E+00-2.35284334E-01
21  5 0.00000000E+00 0.00000000E+00-3.56847340E-01 0.00000000E+00 0.00000000E+00
21  6 0.00000000E+00 0.00000000E+00-2.04675345E-02 0.00000000E+00-4.81384862E-04
21  7 0.00000000E+00 0.00000000E+00 0.00000000E+00-1.33901480E-01 0.00000000E+00
21  8 0.00000000E+00 0.00000000E+00 0.00000000E+00-1.14859235E-01 0.00000000E+00
22  1 0.00000000E+00 0.00000000E+00 0.00000000E+00 0.00000000E+00-2.40577836E-02
22  2 0.00000000E+00 0.00000000E+00 3.75141803E-02 0.00000000E+00 0.00000000E+00
22  3 0.00000000E+00 0.00000000E+00 4.08322228E-02 0.00000000E+00-6.84983587E-04
22  4 0.00000000E+00 0.00000000E+00 0.00000000E+00 0.00000000E+00-5.54585284E-03
22  5 0.00000000E+00 0.00000000E+00-1.15668220E-02 0.00000000E+00 0.00000000E+00
22  6 0.00000000E+00 0.00000000E+00 6.56810143E-01 0.00000000E+00 6.02484010E-04
22  7 0.00000000E+00 0.00000000E+00 0.00000000E+00 3.38162769E-01 0.00000000E+00
22  8 0.00000000E+00 0.00000000E+00 0.00000000E+00-3.44910427E-01 0.00000000E+00
23  1 0.00000000E+00 0.00000000E+00 0.00000000E+00 0.00000000E+00-5.83482157E-02
23  2 0.00000000E+00 0.00000000E+00 6.69285133E-01 0.00000000E+00 0.00000000E+00
23  3 0.00000000E+00 0.00000000E+00-9.38125397E-05 0.00000000E+00-9.53319112E-02
23  4 0.00000000E+00 0.00000000E+00 0.00000000E+00 0.00000000E+00 1.70414110E-02
23  5 0.00000000E+00 0.00000000E+00-4.87966925E-01 0.00000000E+00 0.00000000E+00
23  6 0.00000000E+00 0.00000000E+00-5.98046296E-04 0.00000000E+00 8.74157904E-01
23  7 0.00000000E+00 0.00000000E+00 0.00000000E+00 2.84376911E-01 0.00000000E+00
23  8 0.00000000E+00 0.00000000E+00 0.00000000E+00 2.85083020E-01 0.00000000E+00
24  1 4.01655437E-02 9.42232103E-02 2.05299076E-01-2.81551950E-02 0.00000000E+00
24  2 1.95606222E-01 8.69210840E-02 0.00000000E+00-2.59655793E-01 4.07461924E-02
24  3-5.60606810E-02 1.53144886E-02 0.00000000E+00 3.73315417E-02 0.00000000E+00
24  4-1.66278055E-01-3.60382556E-01 1.03134583E+00 7.74950997E-02 0.00000000E+00
24  5-9.99395314E-02-8.24436246E-01 0.00000000E+00 8.40914061E-01 5.45441150E-01
24  6-3.45587869E-01-1.99853281E-01 0.00000000E+00-3.73502757E-01 0.00000000E+00
24  7-9.50833494E-03-5.05466429E-02 3.93849737E-01 0.00000000E+00-5.28390887E-01
24  8-8.17282904E-01-4.94821228E-01 9.84212219E-02 0.00000000E+00-1.22035960E-01
25  1-1.49610030E-02-2.34913142E-02 3.18608405E-01 6.77896004E-02 0.00000000E+00
25  2 1.11669924E-01-2.31913118E-01 0.00000000E+00-8.56929358E-02 4.44063660E-02
25  3-4.67939485E-02 2.38758259E-03 0.00000000E+00-1.69444328E-02 0.00000000E+00
25  4-1.07284121E-01-1.87497773E-01 5.31210602E-01-4.82918755E-02 0.00000000E+00
25  5 3.23759583E-02 1.01645647E+00 0.00000000E+00 6.12997016E-01 4.33472671E-01
25  6-3.26258529E-01-1.07214142E-01 0.00000000E+00 3.08783685E-01 0.00000000E+00
25  7-8.93638633E-01-3.91535944E-01-3.44454677E-01 0.00000000E+00 3.96223565E-02
25  8 4.47248278E-02 1.60037182E-01-3.97476747E-01 0.00000000E+00-5.70513392E-01
26  1 2.36460418E-01 5.54380652E-01-1.19220899E-01 3.08853169E-02 0.00000000E+00
26  2 3.12544286E-01-9.13881608E-02 0.00000000E+00-2.78023515E-01-1.02463302E-01
26  3 4.55849508E-02 5.68783509E-02 0.00000000E+00 1.42390668E-02 0.00000000E+00
26  4 2.10860264E-01 3.80909310E-01-5.98380438E-01-5.13937747E-03 0.00000000E+00
26  5 7.01509429E-02 1.43895857E-01 0.00000000E+00 1.72094642E-01-4.13869952E-01
26  6 8.88311352E-01-4.74441400E-01 0.00000000E+00-3.83362216E-02 0.00000000E+00
26  7 2.66815282E-01-3.75966797E-02 1.91750443E-01 0.00000000E+00-2.14961824E-01
26  8 3.08572945E-01 7.65130598E-02-3.18996479E-01 0.00000000E+00-3.66955345E-01
27  1-1.77433260E-02-2.71779999E-02 2.70441569E-01 1.42798529E-02 0.00000000E+00
27  2 5.57192515E-02 3.56811009E-01 0.00000000E+00 5.52917911E-02-4.05371383E-03
27  3 3.72919873E-03 3.24515103E-04 0.00000000E+00-1.99786908E-01 0.00000000E+00
27  4 3.00932049E-02 8.47304555E-02-2.83046167E-01-3.55796185E-02 0.00000000E+00
27  5 1.01111101E-01-1.92994708E-01 0.00000000E+00 1.36692637E-01-2.83180914E-03
27  6 9.96744544E-02-9.68426453E-02 0.00000000E+00 8.20374319E-01 0.00000000E+00
27  7-4.58540692E-01 3.58173349E-01 1.20904096E-01 0.00000000E+00-6.40587938E-01
27  8 3.41034676E-01-2.70212076E-01 1.52994738E-01 0.00000000E+00 4.48705322E-01
28  1 0.00000000E+00 0.00000000E+00 0.00000000E+00 0.00000000E+00-1.79863083E-01
28  2 0.00000000E+00 0.00000000E+00 8.81356273E-02 0.00000000E+00 0.00000000E+00
28  3 0.00000000E+00 0.00000000E+00-4.43494345E-04 0.00000000E+00 7.91499528E-02
28  4 0.00000000E+00 0.00000000E+00 0.00000000E+00 0.00000000E+00-2.42566448E-01
28  5 0.00000000E+00 0.00000000E+00-3.38164739E-01 0.00000000E+00 0.00000000E+00
28  6 0.00000000E+00 0.00000000E+00-3.22059986E-03 0.00000000E+00-6.71234156E-01
28  7 0.00000000E+00 0.00000000E+00 0.00000000E+00 7.68059813E-01 0.00000000E+00
28  8 0.00000000E+00 0.00000000E+00 0.00000000E+00 7.63109124E-01 0.00000000E+00
29  1-6.65952954E-01-1.45636210E+00 3.59559486E+00-2.59328948E-02 0.00000000E+00
29  2 3.38292640E-01 1.21069001E-02 0.00000000E+00 9.22555955E-01 4.30085104E-02
29  3 5.49615908E-02-9.79701011E-02 0.00000000E+00 1.07296664E-02 0.00000000E+00
29  4 1.10532724E-02 5.04289447E-03-1.98215550E+00 1.41488596E-02 0.00000000E+00
29  5 4.84244128E-01-1.38494626E-02 0.00000000E+00 1.19576351E+00 4.45843298E-01
29  6 4.36058638E-01-8.81901937E-01 0.00000000E+00-4.58918926E-02 0.00000000E+00
29  7 7.51221721E-02 6.66616458E-04-9.10598786E-03 0.00000000E+00 1.69249839E-01
29  8 2.98064080E-02 2.35672673E-02 1.67588169E-02 0.00000000E+00 1.16917334E-01
30  1 0.00000000E+00 0.00000000E+00 0.00000000E+00 0.00000000E+00-2.66253613E-03
30  2 0.00000000E+00 0.00000000E+00 1.31434132E-03 0.00000000E+00 0.00000000E+00
30  3 0.00000000E+00 0.00000000E+00 1.69802048E-01 0.00000000E+00 2.83666501E-04
30  4 0.00000000E+00 0.00000000E+00 0.00000000E+00 0.00000000E+00 9.54241631E-04
30  5 0.00000000E+00 0.00000000E+00-9.02851358E-04 0.00000000E+00 0.00000000E+00
30  6 0.00000000E+00 0.00000000E+00 9.23366606E-01 0.00000000E+00-2.12033397E-03
30  7 0.00000000E+00 0.00000000E+00 0.00000000E+00-7.40881642E-01 0.00000000E+00
30  8 0.00000000E+00 0.00000000E+00 0.00000000E+00 7.45369792E-01 0.00000000E+00
31  1-2.17392020E-01-4.83704426E-01 2.93009962E-01-3.10168300E-03 0.00000000E+00
31  2-2.12345854E-01-2.48394322E-04 0.00000000E+00 4.81995087E-02 1.22295333E-01
31  3-7.88098727E-02-4.34854603E-02 0.00000000E+00 2.78841923E-02 0.00000000E+00
31  4 1.98026668E-01 5.76217389E-01 1.26815453E+00-2.22738383E-01 0.00000000E+00
31  5 5.73325884E-01-2.06977407E-01 0.00000000E+00 5.32636540E-01 8.03959784E-03
31  6-6.46068534E-01 6.38028936E-01 0.00000000E+00-1.77728520E-01 0.00000000E+00
31  7-4.29466277E-01-3.54140499E-01 7.86732296E-01 0.00000000E+00-1.25432747E-03
31  8-7.72770408E-01-6.50694339E-01-1.18456188E+00 0.00000000E+00 2.59507464E-01
32  1-1.79621751E-01-3.81065697E-01 4.48396990E-01 8.87341489E-02 0.00000000E+00
32  2-1.35543705E-01-9.76809519E-02 0.00000000E+00 1.59938044E-01-5.23365180E-02
32  3 9.36310147E-02-4.12944966E-02 0.00000000E+00-1.72435294E-01 0.00000000E+00
32  4-9.80938198E-03 2.14437830E-02-1.68206838E-01 1.18206205E+00 0.00000000E+00
32  5 8.84471551E-02 1.00939029E+00 0.00000000E+00 1.92144085E-01-3.33362390E-01
32  6-5.90175592E-02 3.92379949E-01 0.00000000E+00 9.48786911E-01 0.00000000E+00
32  7-9.64467275E-01-6.77659494E-01 1.00720185E+00 0.00000000E+00 3.31000502E-01
32  8 9.65463242E-01 6.16617513E-01 7.73195348E-01 0.00000000E+00-8.14995822E-01
33  1-4.19700213E-01-8.90983182E-01 1.11489858E+00-5.93539817E-02 0.00000000E+00
33  2-2.82347137E-01 6.95320604E-02 0.00000000E+00 4.05600122E-01-3.33144092E-01
33  3 4.43131910E-01-1.09987818E-01 0.00000000E+00 6.89648529E-02 0.00000000E+00
33  4-2.32777270E-01-5.47866454E-01-1.10853369E+00-4.10938348E-01 0.00000000E+00
33  5-3.22922122E-01-3.33165281E-01 0.00000000E+00 2.34085791E-01-9.55383407E-01
33  6 1.72693740E-01 7.82689667E-01 0.00000000E+00-3.32238588E-01 0.00000000E+00
33  7 9.19047900E-01 3.68552064E-01-5.08200913E-01 0.00000000E+00-9.06208923E-01
33  8 2.22448535E-01-1.79863926E-02-3.39031058E-02 0.00000000E+00-5.63224326E-01
34  1 0.00000000E+00 0.00000000E+00 0.00000000E+00 0.00000000E+00 1.68633373E-03
34  2 0.00000000E+00 0.00000000E+00-3.26435176E-04 0.00000000E+00 0.00000000E+00
34  3 0.00000000E+00 0.00000000E+00 9.92358120E-01 0.00000000E+00-1.31732869E-04
34  4 0.00000000E+00 0.00000000E+00 0.00000000E+00 0.00000000E+00-1.24018918E-03
34  5 0.00000000E+00 0.00000000E+00-2.59370169E-04 0.00000000E+00 0.00000000E+00
34  6 0.00000000E+00 0.00000000E+00-3.32112557E-01 0.00000000E+00 1.39423643E-04
34  7 0.00000000E+00 0.00000000E+00 0.00000000E+00 1.65907434E-01 0.00000000E+00
34  8 0.00000000E+00 0.00000000E+00 0.00000000E+00-1.65874529E-01 0.00000000E+00
35  1 2.01664169E-01 4.17344967E-01-6.00748606E-01 1.79730603E-02 0.00000000E+00
35  2 1.23619491E-01-2.72943867E-02 0.00000000E+00-2.34436365E-01-8.05915686E-01
35  3 7.28671060E-01 7.72446261E-02 0.00000000E+00-1.91441560E-02 0.00000000E+00
35  4 1.26664698E-01 3.36457346E-01 1.08293799E+00 7.10113192E-02 0.00000000E+00
35  5 2.78078018E-01 4.04894088E-02 0.00000000E+00 1.82895349E-02 8.43117817E-01
35  6-4.80232305E-01-3.62885512E-01 0.00000000E+00 4.42439251E-02 0.00000000E+00
35  7-6.42330185E-01-2.14400206E-01 2.99867009E-01 0.00000000E+00 5.00477410E-01
35  8-5.23690766E-01-1.81764561E-01-2.53250688E-01 0.00000000E+00 4.68825248E-01
36  1 0.00000000E+00 0.00000000E+00 0.00000000E+00 0.00000000E+00-1.56107662E-02
36  2 0.00000000E+00 0.00000000E+00 3.71142209E-01 0.00000000E+00 0.00000000E+00
36  3 0.00000000E+00 0.00000000E+00 1.00439877E-04 0.00000000E+00 1.09250254E+00
36  4 0.00000000E+00 0.00000000E+00 0.00000000E+00 0.00000000E+00-1.85501718E-01
36  5 0.00000000E+00 0.00000000E+00-1.44075425E-01 0.00000000E+00 0.00000000E+00
36  6 0.00000000E+00 0.00000000E+00 6.68996429E-05 0.00000000E+00 6.18845794E-01
36  7 0.00000000E+00 0.00000000E+00 0.00000000E+00-8.65583929E-02 0.00000000E+00
36  8 0.00000000E+00 0.00000000E+00 0.00000000E+00-8.64655612E-02 0.00000000E+00
37  1 2.01627084E-03 5.70523315E-03 9.00949810E-03 6.95619317E-02 0.00000000E+00
37  2 6.22760599E-03 4.20030871E-01 0.00000000E+00 6.53885328E-03-9.39069630E-03
37  3-2.30657172E-03 1.16972680E-02 0.00000000E+00 1.10352245E+00 0.00000000E+00
37  4 4.32612014E-03 1.48704054E-02 6.47931615E-03 2.73636141E-01 0.00000000E+00
37  5 2.99279255E-02-8.03884953E-03 0.00000000E+00 5.43402596E-03 1.43528001E-02
37  6-3.68828742E-03-1.06645127E-02 0.00000000E+00 1.20550361E+00 0.00000000E+00
37  7-6.02996960E-01 2.60713507E-02 4.42348100E-01 0.00000000E+00 1.79017255E-02
37  8 5.56234698E-01-3.25337143E-02 4.32537266E-01 0.00000000E+00-5.06463891E-03
38  1-3.02268078E-01-5.75535276E-01 1.94140893E+00-1.15599019E-02 0.00000000E+00
38  2 1.17706324E-01 6.78865298E-03 0.00000000E+00 1.06828848E+00-5.75626371E-01
38  3-6.09266085E-01 1.18489246E+00 0.00000000E+00-7.89532823E-03 0.00000000E+00
38  4-3.77292494E-01-8.58490808E-01-9.60037119E-01-1.34170878E-02 0.00000000E+00
38  5 8.36339963E-01-5.18426105E-03 0.00000000E+00 4.01436169E-01 1.50757445E-01
38  6 2.82770909E-01-4.33528354E-01 0.00000000E+00-2.26670421E-02 0.00000000E+00
38  7 1.02740595E-01 4.98379002E-02-8.66997392E-02 0.00000000E+00-3.20126834E-02
38  8 7.12874057E-02 5.00054474E-02 7.15966096E-02 0.00000000E+00-2.82566265E-02
 $END   

! TRAVIS-CI SMALL
