!
! Computes the excited-to-excited transition dipole moments and oscillator 
! strengths of the PNA molecule with B3LYP/3-31G surrounded by eight EFP1 water ! molecules. Below are some of the expected results:
!
!  1  ->  2           0.259         -1.1973 -0.9464  1.6708   2.2629    0.0325
!  1  ->  3           0.594         -0.0290  1.1915  0.7967   1.4336    0.0299
!  2  ->  5           1.273          0.0283 -0.9036 -0.2484   0.9376    0.0274
!  4  ->  5           0.496         -0.8593 -0.7915  1.0327   1.5593    0.0295
!
 $CONTRL ispher=1 scftyp=rhf dfttyp=b3lyp tddft=excite $end
 $tddft mult=1 nstate=5 $end
 $basis gbasis=n21 ngauss=3 $end
 $system memory=100000000 $end
 $DATA
 
 C1
  O 8 -2.4207921899 -2.9472621598 2.2613159474
  O 8 -2.4649807810 -1.0911444340 3.4592195826
  N 7 0.7669115064 0.9723075400 -1.4232445998
  N 7 -2.1024537947 -1.7531682752 2.4497733952
  C 6 -1.3447011257 -1.0482848174 1.4789633281
  C 6 0.0457201158 0.3747405211 -0.4334238240
  C 6 -1.2388406887 0.3530855438 1.5605383227
  C 6 -0.7397264241 -1.7795245663 0.4677321711
  C 6 -0.5096710489 1.0544258009 0.6628727993
  C 6 -0.1090871637 -1.0666791166 -0.5377620964
  H 1 1.3936139141 0.3046451056 -1.8876023678
  H 1 0.7688971132 1.9474994236 -1.4333123346
  H 1 -1.7495971154 0.9420736138 2.3201302402
  H 1 -0.8615825081 -2.8492080484 0.5263339694
  H 1 -0.4752592577 2.1532145396 0.6062206602
  H 1 0.4158477576 -1.5930212699 -1.3141317077
 $END
 $EFRAG
 coord=cart
 FRAGNAME=H2ODFT
O1  4.254523335271 0.985281054840 -0.936405327581
H2  5.133456008047 0.646848937902 -0.998205636685
H3  3.673757678663 0.272599926687 -1.150122619656
 FRAGNAME=H2ODFT
O1  1.475203512691 -1.510872695106 -3.907431895296
H2  2.235259862725 -0.960615217803 -3.805413983980
H3  1.471873382255 -1.805346437834 -4.804176410673
 FRAGNAME=H2ODFT
O1  -0.174490551492 -4.940060109166 0.944060159003
H2  0.036368836199 -5.859941478372 0.959308756876
H3  -1.065213814213 -4.870930547637 0.639578455946
 FRAGNAME=H2ODFT
O1  -3.187138611022 -4.099124363991 4.741187597374
H2  -3.465055802108 -3.256878167209 5.064080720523
H3  -2.666266709969 -3.936047116089 3.971138985933
 FRAGNAME=H2ODFT
O1  -0.439963086342 0.472706061950 -4.441368843612
H2  0.173372950262 0.057248794786 -3.856481053484
H3  -1.239144135538 0.594923350764 -3.954283484976
 FRAGNAME=H2ODFT
O1  2.814028538513 -1.410590429359 -1.512648319007
H2  3.433987576884 -1.801146499476 -2.107620554887
H3  3.052554010021 -1.697246124662 -0.645578929382
 FRAGNAME=H2ODFT
O1  -4.886301394477 -0.517559998552 3.613898115905
H2  -5.414944122085 0.105027668552 4.086970773325
H3  -4.495012181523 -1.085923863569 4.257894656772
 FRAGNAME=H2ODFT
O1  -3.036137204416 2.020215631394 4.719178665146
H2  -2.884750436498 1.366570834418 4.055319053672
H3  -2.871438109985 1.605413091402 5.550858963681
 $END
! TRANSITION        EXCITATION            TRANSITION DIPOLE, A.U.     OSCILLATOR
!                       EV              X       Y       Z       DIP    STRENGTH

! TRAVIS-CI SMALL
! 

