!   Sn(CH3)2...test of (2e,2o) MCSCF hessian when ECP is used.
!   custom basis/potential has 56 AOs, 53 MOs, 2 core, 10 occ. in RHF
!
!   this test does the analytical calculation:

!   analytic residual FREQ: 0.37, 0.00, 0.00, 0.32, 0.46, 0.60
!   analytic   true   FREQ: 74.11, 101.57, 175.24, 496.27, 499.38, 629.36,
!              true   FREQ: 670.44, 723.53, 863.90, 1371.82, 1383.16,
!              true   FREQ: 1594.05, 1601.42, 1602.92, 1614.35, 3170.75,
!              true   FREQ: 3172.34, 3234.97, 3238.97, 3272.18, 3272.62
!
!   seminum. residual FREQ: 56.79, 22.50, 15.61, 0.25, 2.93, 6.57       
!   seminum.   true   FREQ: 73.15, 102.19, 174.07, 496.07, 499.55, 643.17,
!              true   FREQ: 670.93, 724.43, 863.45, 1372.43, 1383.90,
!              true   FREQ: 1594.65, 1601.47, 1603.35, 1614.54, 3169.44,
!              true   FREQ: 3171.72, 3235.41, 3240.14, 3272.16, 3272.84
!
!   the frequency at 629/643 is a bit more different than one'd expect?
!
!   this run takes 9 seconds on 2.66 GHz Cloverton ( 6 Apr 2015)
!   results have not changed much since 2012
!
 $contrl scftyp=mcscf runtyp=hessian pp=read ispher=1 $end
 $system mwords=5 $end
 $basis  basnam(1)=Sn-bas,C-bas,C-bas,
                   H-bas,H-bas,H-bas,H-bas,H-bas,H-bas $end
 $guess  guess=moread norb=53 $end
 $det    ncore=10 nact=2 nels=2 $end
 $statpt opttol=1d-5 nstep=200 $end
 $force  method=analytic $end
 $data
Sn(CH3)2
Cnv 2

SN         50.0   0.0000000000   0.0000000000  -0.2962638671
C           6.0   0.0000000000   1.6209851834   1.1834299904
H           1.0   0.0000000000   2.6033060496   0.7235562940
H           1.0   0.8758990437   1.5413886052   1.8247085158
 $end

 $end
 $sn-bas
sbkjc
d 1 ; 1 0.183 1.0
 
 $end
 $c-bas
n31 6
d 1 ; 1 0.80 1.0

 $end
 $h-bas
n31 6

 $end
 $ecp
Sn-ecp SBKJC
C-ecp none
C-ecp none
H-ecp none
H-ecp none
H-ecp none
H-ecp none
H-ecp none
H-ecp none
 $end

RHF geometry is positive definite,
SN         50.0   0.0000000000   0.0000000000  -0.3096006124
C           6.0   1.6124202739   0.0000000000   1.1833146321
H           1.0   2.5978309315   0.0000000000   0.7307373090
H           1.0   1.5269408209   0.8756142105   1.8245098738
MCSCF geometry is positive definite,
SN         50.0   0.0000000000   0.0000000000  -0.2962638671
C           6.0   0.0000000000   1.6209851834   1.1834299904
H           1.0   0.0000000000   2.6033060496   0.7235562940
H           1.0   0.8758990437   1.5413886052   1.8247085158

--- OPTIMIZED MCSCF MO-S --- GENERATED AT Fri Jul 27 17:37:04 2012
E(MCSCF)=      -82.4959196116, E(NUC)=       47.8737134287
 $VEC   
 1  1 0.00000000E+00 0.00000000E+00-2.49099385E-03 0.00000000E+00 0.00000000E+00
 1  2 0.00000000E+00 2.03645179E-04 0.00000000E+00 0.00000000E+00 0.00000000E+00
 1  3 0.00000000E+00 0.00000000E+00 0.00000000E+00-1.20635805E-03 7.04459650E-01
 1  4 1.81634459E-02 0.00000000E+00-8.21208002E-05 2.37529748E-04-1.21298621E-02
 1  5 0.00000000E+00-2.79915376E-04-2.00763744E-04 7.63650570E-05-1.62810829E-05
 1  6-6.00839740E-05 0.00000000E+00 0.00000000E+00 1.93490591E-04-7.04459650E-01
 1  7-1.81634459E-02 0.00000000E+00-8.21208002E-05-2.37529748E-04 1.21298621E-02
 1  8 0.00000000E+00-2.79915376E-04 2.00763744E-04-7.63650570E-05 1.62810829E-05
 1  9 6.00839740E-05 0.00000000E+00 0.00000000E+00 1.93490591E-04-8.13844607E-05
 1 10 2.14863704E-03 8.13844607E-05-2.14863704E-03-3.06308647E-05 2.46877396E-03
 1 11-3.06308647E-05 2.46877396E-03 3.06308647E-05-2.46877396E-03 3.06308647E-05
 1 12-2.46877396E-03
 2  1 1.65000346E-03 0.00000000E+00 0.00000000E+00 1.66170006E-03 9.57884242E-04
 2  2 0.00000000E+00 0.00000000E+00 9.00363602E-05-5.09609036E-04 3.60442168E-04
 2  3 1.49166867E-04 0.00000000E+00 0.00000000E+00 0.00000000E+00 7.04431478E-01
 2  4 1.77341745E-02 0.00000000E+00-2.36595358E-04 1.94897751E-04-1.08022469E-02
 2  5 0.00000000E+00 1.91159353E-04-5.29245910E-05 8.89380603E-05-6.91042012E-05
 2  6-1.98338591E-05 0.00000000E+00 0.00000000E+00 1.46078675E-04 7.04431478E-01
 2  7 1.77341745E-02 0.00000000E+00 2.36595358E-04 1.94897751E-04-1.08022469E-02
 2  8 0.00000000E+00-1.91159353E-04-5.29245910E-05 8.89380603E-05-6.91042012E-05
 2  9-1.98338591E-05 0.00000000E+00 0.00000000E+00-1.46078675E-04-8.29841865E-05
 2 10 2.15012283E-03-8.29841865E-05 2.15012283E-03-8.12773092E-05 1.91063279E-03
 2 11-8.12773092E-05 1.91063279E-03-8.12773092E-05 1.91063279E-03-8.12773092E-05
 2 12 1.91063279E-03
 3  1 1.16753031E-01 0.00000000E+00 0.00000000E+00 8.06320622E-02-4.11663289E-02
 3  2 0.00000000E+00 0.00000000E+00-1.34329635E-02-1.00685743E-02 4.31346393E-03
 3  3 5.75511039E-03 0.00000000E+00 0.00000000E+00 0.00000000E+00-1.36498123E-01
 3  4 2.55513147E-01 0.00000000E+00-1.42948801E-02 2.21491859E-02 2.61110762E-01
 3  5 0.00000000E+00-5.61266157E-03-1.43889288E-03 2.34406599E-03-9.36125340E-04
 3  6-1.40794065E-03 0.00000000E+00 0.00000000E+00 4.20951780E-03-1.36498123E-01
 3  7 2.55513147E-01 0.00000000E+00 1.42948801E-02 2.21491859E-02 2.61110762E-01
 3  8 0.00000000E+00 5.61266157E-03-1.43889288E-03 2.34406599E-03-9.36125340E-04
 3  9-1.40794065E-03 0.00000000E+00 0.00000000E+00-4.20951780E-03 9.72598439E-02
 3 10 2.89526662E-02 9.72598439E-02 2.89526662E-02 1.00470359E-01 3.92776480E-02
 3 11 1.00470359E-01 3.92776480E-02 1.00470359E-01 3.92776480E-02 1.00470359E-01
 3 12 3.92776480E-02
 4  1 0.00000000E+00 0.00000000E+00-6.51394387E-02 0.00000000E+00 0.00000000E+00
 4  2 0.00000000E+00 4.19599617E-03 0.00000000E+00 0.00000000E+00 0.00000000E+00
 4  3 0.00000000E+00 0.00000000E+00 0.00000000E+00-1.87262922E-02-1.38440551E-01
 4  4 2.56269658E-01 0.00000000E+00-3.50095397E-02 2.94551626E-02 2.74967699E-01
 4  5 0.00000000E+00-8.30723360E-03 1.38065761E-02 3.33490629E-03-1.95633073E-03
 4  6-1.37857556E-03 0.00000000E+00 0.00000000E+00 5.48780140E-03 1.38440551E-01
 4  7-2.56269658E-01 0.00000000E+00-3.50095397E-02-2.94551626E-02-2.74967699E-01
 4  8 0.00000000E+00-8.30723360E-03-1.38065761E-02-3.33490629E-03 1.95633073E-03
 4  9 1.37857556E-03 0.00000000E+00 0.00000000E+00 5.48780140E-03 1.06744510E-01
 4 10 3.41599696E-02-1.06744510E-01-3.41599696E-02 1.04417920E-01 2.91612790E-02
 4 11 1.04417920E-01 2.91612790E-02-1.04417920E-01-2.91612790E-02-1.04417920E-01
 4 12-2.91612790E-02
 5  1 1.07550982E-01 0.00000000E+00 0.00000000E+00 9.30219848E-02-1.92266899E-02
 5  2 0.00000000E+00 0.00000000E+00 8.07139491E-04-3.33867207E-03-5.93624358E-03
 5  3 9.27491565E-03 0.00000000E+00 0.00000000E+00 0.00000000E+00 4.90875449E-03
 5  4-9.19194995E-03 0.00000000E+00 2.50950388E-01 1.58483539E-01-1.40108518E-02
 5  5 0.00000000E+00 1.38731579E-01 7.84376388E-02 1.42100301E-02-1.91828002E-02
 5  6 4.97277015E-03 0.00000000E+00 0.00000000E+00-1.26867817E-02 4.90875449E-03
 5  7-9.19194995E-03 0.00000000E+00-2.50950388E-01 1.58483539E-01-1.40108518E-02
 5  8 0.00000000E+00-1.38731579E-01 7.84376388E-02 1.42100301E-02-1.91828002E-02
 5  9 4.97277015E-03 0.00000000E+00 0.00000000E+00 1.26867817E-02-1.99577374E-01
 5 10-1.61867262E-01-1.99577374E-01-1.61867262E-01 7.29560446E-02 6.80791660E-02
 5 11 7.29560446E-02 6.80791660E-02 7.29560446E-02 6.80791660E-02 7.29560446E-02
 5 12 6.80791660E-02
 6  1 0.00000000E+00 5.18252615E-02 0.00000000E+00 0.00000000E+00 0.00000000E+00
 6  2 1.21769725E-02 0.00000000E+00 0.00000000E+00 0.00000000E+00 0.00000000E+00
 6  3 0.00000000E+00 0.00000000E+00 1.40943094E-02 0.00000000E+00 0.00000000E+00
 6  4 0.00000000E+00 2.95487201E-01 0.00000000E+00 0.00000000E+00 0.00000000E+00
 6  5 1.61354022E-01 0.00000000E+00 0.00000000E+00 0.00000000E+00 0.00000000E+00
 6  6 0.00000000E+00 3.65505599E-03 2.49251548E-02 0.00000000E+00 0.00000000E+00
 6  7 0.00000000E+00 2.95487201E-01 0.00000000E+00 0.00000000E+00 0.00000000E+00
 6  8 1.61354022E-01 0.00000000E+00 0.00000000E+00 0.00000000E+00 0.00000000E+00
 6  9 0.00000000E+00-3.65505599E-03 2.49251548E-02 0.00000000E+00 0.00000000E+00
 6 10 0.00000000E+00 0.00000000E+00 0.00000000E+00-1.63640970E-01-1.40524564E-01
 6 11 1.63640970E-01 1.40524564E-01-1.63640970E-01-1.40524564E-01 1.63640970E-01
 6 12 1.40524564E-01
 7  1 0.00000000E+00 0.00000000E+00 5.15753237E-02 0.00000000E+00 0.00000000E+00
 7  2 0.00000000E+00 7.70848363E-03 0.00000000E+00 0.00000000E+00 0.00000000E+00
 7  3 0.00000000E+00 0.00000000E+00 0.00000000E+00 4.88576988E-03-1.63985594E-03
 7  4 1.13259324E-03 0.00000000E+00 1.91425257E-01 2.35626045E-01 9.35353218E-03
 7  5 0.00000000E+00 1.08736191E-01 1.30113931E-01 1.82427811E-02-2.33592285E-02
 7  6 5.11644746E-03 0.00000000E+00 0.00000000E+00-9.93146351E-03 1.63985594E-03
 7  7-1.13259324E-03 0.00000000E+00 1.91425257E-01-2.35626045E-01-9.35353218E-03
 7  8 0.00000000E+00 1.08736191E-01-1.30113931E-01-1.82427811E-02 2.33592285E-02
 7  9-5.11644746E-03 0.00000000E+00 0.00000000E+00-9.93146351E-03-1.86761166E-01
 7 10-1.54382059E-01 1.86761166E-01 1.54382059E-01 1.04256378E-01 8.57339431E-02
 7 11 1.04256378E-01 8.57339431E-02-1.04256378E-01-8.57339431E-02-1.04256378E-01
 7 12-8.57339431E-02
 8  1 0.00000000E+00 0.00000000E+00 0.00000000E+00 0.00000000E+00 0.00000000E+00
 8  2 0.00000000E+00 0.00000000E+00 0.00000000E+00 0.00000000E+00 0.00000000E+00
 8  3 0.00000000E+00-6.28873367E-03 0.00000000E+00 0.00000000E+00 0.00000000E+00
 8  4 0.00000000E+00 3.02031246E-01 0.00000000E+00 0.00000000E+00 0.00000000E+00
 8  5 1.77754456E-01 0.00000000E+00 0.00000000E+00 0.00000000E+00 0.00000000E+00
 8  6 0.00000000E+00 2.90454031E-03 2.59950162E-02 0.00000000E+00 0.00000000E+00
 8  7 0.00000000E+00-3.02031246E-01 0.00000000E+00 0.00000000E+00 0.00000000E+00
 8  8-1.77754456E-01 0.00000000E+00 0.00000000E+00 0.00000000E+00 0.00000000E+00
 8  9 0.00000000E+00 2.90454031E-03-2.59950162E-02 0.00000000E+00 0.00000000E+00
 8 10 0.00000000E+00 0.00000000E+00 0.00000000E+00-1.67356026E-01-1.38195073E-01
 8 11 1.67356026E-01 1.38195073E-01 1.67356026E-01 1.38195073E-01-1.67356026E-01
 8 12-1.38195073E-01
 9  1 4.18449914E-01 0.00000000E+00 0.00000000E+00 2.81983473E-01-1.08313052E-01
 9  2 0.00000000E+00 0.00000000E+00 7.65666455E-04-2.56337743E-02 1.58485109E-02
 9  3 9.78526344E-03 0.00000000E+00 0.00000000E+00 0.00000000E+00-6.37247188E-03
 9  4 4.24753395E-03 0.00000000E+00 1.40490402E-01-2.48946624E-01 5.29791152E-02
 9  5 0.00000000E+00 1.04606279E-01-1.78007623E-01-1.12572016E-02 1.23062008E-02
 9  6-1.04899920E-03 0.00000000E+00 0.00000000E+00-7.85291449E-03-6.37247188E-03
 9  7 4.24753395E-03 0.00000000E+00-1.40490402E-01-2.48946624E-01 5.29791152E-02
 9  8 0.00000000E+00-1.04606279E-01-1.78007623E-01-1.12572016E-02 1.23062008E-02
 9  9-1.04899920E-03 0.00000000E+00 0.00000000E+00 7.85291449E-03-1.85853962E-03
 9 10 9.20855990E-03-1.85853962E-03 9.20855990E-03-8.76618883E-02-6.70762184E-02
 9 11-8.76618883E-02-6.70762184E-02-8.76618883E-02-6.70762184E-02-8.76618883E-02
 9 12-6.70762184E-02
10  1 0.00000000E+00 0.00000000E+00 3.95223383E-01 0.00000000E+00 0.00000000E+00
10  2 0.00000000E+00 6.55091302E-03 0.00000000E+00 0.00000000E+00 0.00000000E+00
10  3 0.00000000E+00 0.00000000E+00 0.00000000E+00 6.44713079E-02 2.82305498E-02
10  4-4.31631885E-02 0.00000000E+00-2.51367939E-01 1.91176987E-01-1.22621106E-01
10  5 0.00000000E+00-1.91493735E-01 1.45730651E-01 1.44472212E-03 2.81710130E-03
10  6-4.26182342E-03 0.00000000E+00 0.00000000E+00 1.05036935E-02-2.82305498E-02
10  7 4.31631885E-02 0.00000000E+00-2.51367939E-01-1.91176987E-01 1.22621106E-01
10  8 0.00000000E+00-1.91493735E-01-1.45730651E-01-1.44472212E-03-2.81710130E-03
10  9 4.26182342E-03 0.00000000E+00 0.00000000E+00 1.05036935E-02 7.97922454E-02
10 10 8.83537226E-02-7.97922454E-02-8.83537226E-02 3.65525195E-02 4.51072491E-02
10 11 3.65525195E-02 4.51072491E-02-3.65525195E-02-4.51072491E-02-3.65525195E-02
10 12-4.51072491E-02
11  1 6.71310595E-01 0.00000000E+00 0.00000000E+00-4.37014087E-01 2.49495396E-01
11  2 0.00000000E+00 0.00000000E+00-1.03269477E-01 4.59563261E-02-2.84433216E-02
11  3-1.75130045E-02 0.00000000E+00 0.00000000E+00 0.00000000E+00 2.20043258E-02
11  4-3.95231986E-02 0.00000000E+00-5.16769979E-02 6.70001039E-02-9.52967821E-02
11  5 0.00000000E+00-5.91031087E-02 7.80362684E-02 4.11960783E-04-4.11291443E-03
11  6 3.70095365E-03 0.00000000E+00 0.00000000E+00-3.15561826E-03 2.20043258E-02
11  7-3.95231986E-02 0.00000000E+00 5.16769979E-02 6.70001039E-02-9.52967821E-02
11  8 0.00000000E+00 5.91031087E-02 7.80362684E-02 4.11960783E-04-4.11291443E-03
11  9 3.70095365E-03 0.00000000E+00 0.00000000E+00 3.15561826E-03-1.10792764E-02
11 10-1.62671359E-02-1.10792764E-02-1.62671359E-02 1.10715719E-02 3.11821659E-02
11 11 1.10715719E-02 3.11821659E-02 1.10715719E-02 3.11821659E-02 1.10715719E-02
11 12 3.11821659E-02
12  1 0.00000000E+00 9.37587416E-01 0.00000000E+00 0.00000000E+00 0.00000000E+00
12  2 2.23486088E-03 0.00000000E+00 0.00000000E+00 0.00000000E+00 0.00000000E+00
12  3 0.00000000E+00 0.00000000E+00-3.61367641E-01 0.00000000E+00 0.00000000E+00
12  4 0.00000000E+00-3.28705464E-02 0.00000000E+00 0.00000000E+00 0.00000000E+00
12  5-3.62924589E-02 0.00000000E+00 0.00000000E+00 0.00000000E+00 0.00000000E+00
12  6 0.00000000E+00 2.79907338E-03-5.66962029E-03 0.00000000E+00 0.00000000E+00
12  7 0.00000000E+00-3.28705464E-02 0.00000000E+00 0.00000000E+00 0.00000000E+00
12  8-3.62924589E-02 0.00000000E+00 0.00000000E+00 0.00000000E+00 0.00000000E+00
12  9 0.00000000E+00-2.79907338E-03-5.66962029E-03 0.00000000E+00 0.00000000E+00
12 10 0.00000000E+00 0.00000000E+00 0.00000000E+00 2.31879898E-02 2.13690899E-02
12 11-2.31879898E-02-2.13690899E-02 2.31879898E-02 2.13690899E-02-2.31879898E-02
12 12-2.13690899E-02
13  1 0.00000000E+00 0.00000000E+00 1.03646528E-01 0.00000000E+00 0.00000000E+00
13  2 0.00000000E+00 1.26503306E+00 0.00000000E+00 0.00000000E+00 0.00000000E+00
13  3 0.00000000E+00 0.00000000E+00 0.00000000E+00-2.18658652E-03-5.04052979E-02
13  4 5.69016569E-02 0.00000000E+00 3.33783268E-02-7.99300800E-02 4.53666054E-01
13  5 0.00000000E+00 9.69884434E-02-2.02632464E-01-3.18103840E-03 8.72963533E-03
13  6-5.54859693E-03 0.00000000E+00 0.00000000E+00 2.76055940E-03 5.04052979E-02
13  7-5.69016569E-02 0.00000000E+00 3.33783268E-02 7.99300800E-02-4.53666054E-01
13  8 0.00000000E+00 9.69884434E-02 2.02632464E-01 3.18103840E-03-8.72963533E-03
13  9 5.54859693E-03 0.00000000E+00 0.00000000E+00 2.76055940E-03 1.64578189E-02
13 10 1.10400182E-01-1.64578189E-02-1.10400182E-01-2.19529718E-02 8.84113508E-03
13 11-2.19529718E-02 8.84113508E-03 2.19529718E-02-8.84113508E-03 2.19529718E-02
13 12-8.84113508E-03
14  1 3.21945683E-01 0.00000000E+00 0.00000000E+00-1.11386888E-01 5.03935208E-01
14  2 0.00000000E+00 0.00000000E+00 1.40365352E+00 2.57755550E-02-1.72324580E-02
14  3-8.54309699E-03 0.00000000E+00 0.00000000E+00 0.00000000E+00 6.19761620E-02
14  4-5.68874295E-02 0.00000000E+00-7.13359697E-02 1.61339902E-02-6.12841559E-01
14  5 0.00000000E+00-3.10172319E-01 2.74259164E-02-3.40420233E-03 5.69266077E-03
14  6-2.28845845E-03 0.00000000E+00 0.00000000E+00-1.32933162E-03 6.19761620E-02
14  7-5.68874295E-02 0.00000000E+00 7.13359697E-02 1.61339902E-02-6.12841559E-01
14  8 0.00000000E+00 3.10172319E-01 2.74259164E-02-3.40420233E-03 5.69266077E-03
14  9-2.28845845E-03 0.00000000E+00 0.00000000E+00 1.32933162E-03 1.80069020E-02
14 10-6.77936758E-02 1.80069020E-02-6.77936758E-02 6.08755388E-03-8.27724893E-03
14 11 6.08755388E-03-8.27724893E-03 6.08755388E-03-8.27724893E-03 6.08755388E-03
14 12-8.27724893E-03
15  1 0.00000000E+00-8.96051465E-01 0.00000000E+00 0.00000000E+00 0.00000000E+00
15  2 1.42196309E+00 0.00000000E+00 0.00000000E+00 0.00000000E+00 0.00000000E+00
15  3 0.00000000E+00 0.00000000E+00 8.10209218E-02 0.00000000E+00 0.00000000E+00
15  4 0.00000000E+00-7.43159849E-02 0.00000000E+00 0.00000000E+00 0.00000000E+00
15  5-2.93436363E-01 0.00000000E+00 0.00000000E+00 0.00000000E+00 0.00000000E+00
15  6 0.00000000E+00-3.30379034E-03-3.22297297E-03 0.00000000E+00 0.00000000E+00
15  7 0.00000000E+00-7.43159849E-02 0.00000000E+00 0.00000000E+00 0.00000000E+00
15  8-2.93436363E-01 0.00000000E+00 0.00000000E+00 0.00000000E+00 0.00000000E+00
15  9 0.00000000E+00 3.30379034E-03-3.22297297E-03 0.00000000E+00 0.00000000E+00
15 10 0.00000000E+00 0.00000000E+00 0.00000000E+00 4.13619031E-03-1.45237599E-01
15 11-4.13619031E-03 1.45237599E-01 4.13619031E-03-1.45237599E-01-4.13619031E-03
15 12 1.45237599E-01
16  1 1.09109695E-01 0.00000000E+00 0.00000000E+00-7.13831676E-01-1.86201356E-01
16  2 0.00000000E+00 0.00000000E+00 8.21539768E-01 3.74195734E-02-9.72751288E-03
16  3-2.76920605E-02 0.00000000E+00 0.00000000E+00 0.00000000E+00-8.27234633E-02
16  4 2.75131166E-02 0.00000000E+00-8.14530911E-02 6.24980650E-03 1.47449233E+00
16  5 0.00000000E+00-4.56989945E-01-1.80613538E-01 5.48105699E-03-1.05252730E-02
16  6 5.04421598E-03 0.00000000E+00 0.00000000E+00-1.21397517E-03-8.27234633E-02
16  7 2.75131166E-02 0.00000000E+00 8.14530911E-02 6.24980650E-03 1.47449233E+00
16  8 0.00000000E+00 4.56989945E-01-1.80613538E-01 5.48105699E-03-1.05252730E-02
16  9 5.04421598E-03 0.00000000E+00 0.00000000E+00 1.21397517E-03-3.64179332E-02
16 10-1.21716301E+00-3.64179332E-02-1.21716301E+00 3.65438838E-02-4.98520042E-01
16 11 3.65438838E-02-4.98520042E-01 3.65438838E-02-4.98520042E-01 3.65438838E-02
16 12-4.98520042E-01
17  1 0.00000000E+00 0.00000000E+00 1.10772042E+00 0.00000000E+00 0.00000000E+00
17  2 0.00000000E+00-7.67485217E-01 0.00000000E+00 0.00000000E+00 0.00000000E+00
17  3 0.00000000E+00 0.00000000E+00 0.00000000E+00-2.04021944E-01 5.63597854E-04
17  4 6.93459905E-02 0.00000000E+00 2.09267952E-01-5.21052081E-02-4.04945386E-01
17  5 0.00000000E+00 6.09670714E-01 1.12278219E-01 8.33022083E-03 1.36897903E-03
17  6-9.69919985E-03 0.00000000E+00 0.00000000E+00 1.32678872E-02-5.63597854E-04
17  7-6.93459905E-02 0.00000000E+00 2.09267952E-01 5.21052081E-02 4.04945386E-01
17  8 0.00000000E+00 6.09670714E-01-1.12278219E-01-8.33022083E-03-1.36897903E-03
17  9 9.69919985E-03 0.00000000E+00 0.00000000E+00 1.32678872E-02 3.42347712E-02
17 10 7.93241754E-01-3.42347712E-02-7.93241754E-01-2.41035877E-03-1.28837964E-01
17 11-2.41035877E-03-1.28837964E-01 2.41035877E-03 1.28837964E-01 2.41035877E-03
17 12 1.28837964E-01
18  1-3.08425404E-01 0.00000000E+00 0.00000000E+00-2.56266087E-01-2.72463691E-01
18  2 0.00000000E+00 0.00000000E+00-3.47088164E-01-1.36188776E-01 1.16381953E-01
18  3 1.98068237E-02 0.00000000E+00 0.00000000E+00 0.00000000E+00 2.43842896E-02
18  4 6.62295072E-02 0.00000000E+00 6.50054378E-02-2.32078913E-01-9.17882555E-01
18  5 0.00000000E+00-1.30753525E-01-8.47659589E-01 1.14844057E-02-1.65941655E-02
18  6 5.10975979E-03 0.00000000E+00 0.00000000E+00 5.26204650E-03 2.43842896E-02
18  7 6.62295072E-02 0.00000000E+00-6.50054378E-02-2.32078913E-01-9.17882555E-01
18  8 0.00000000E+00 1.30753525E-01-8.47659589E-01 1.14844057E-02-1.65941655E-02
18  9 5.10975979E-03 0.00000000E+00 0.00000000E+00-5.26204650E-03-5.73284396E-02
18 10-3.53849122E-01-5.73284396E-02-3.53849122E-01 2.86336331E-02 1.05361581E+00
18 11 2.86336331E-02 1.05361581E+00 2.86336331E-02 1.05361581E+00 2.86336331E-02
18 12 1.05361581E+00
19  1 0.00000000E+00-4.75156343E-01 0.00000000E+00 0.00000000E+00 0.00000000E+00
19  2 4.93435392E-01 0.00000000E+00 0.00000000E+00 0.00000000E+00 0.00000000E+00
19  3 0.00000000E+00 0.00000000E+00 3.11230912E-02 0.00000000E+00 0.00000000E+00
19  4 0.00000000E+00 1.98677736E-01 0.00000000E+00 0.00000000E+00 0.00000000E+00
19  5 1.01094602E+00 0.00000000E+00 0.00000000E+00 0.00000000E+00 0.00000000E+00
19  6 0.00000000E+00-6.78153546E-03-6.12641240E-03 0.00000000E+00 0.00000000E+00
19  7 0.00000000E+00 1.98677736E-01 0.00000000E+00 0.00000000E+00 0.00000000E+00
19  8 1.01094602E+00 0.00000000E+00 0.00000000E+00 0.00000000E+00 0.00000000E+00
19  9 0.00000000E+00 6.78153546E-03-6.12641240E-03 0.00000000E+00 0.00000000E+00
19 10 0.00000000E+00 0.00000000E+00 0.00000000E+00 3.42723306E-02 1.15831931E+00
19 11-3.42723306E-02-1.15831931E+00 3.42723306E-02 1.15831931E+00-3.42723306E-02
19 12-1.15831931E+00
20  1 0.00000000E+00 0.00000000E+00 2.44248167E-02 0.00000000E+00 0.00000000E+00
20  2 0.00000000E+00-4.53083935E-01 0.00000000E+00 0.00000000E+00 0.00000000E+00
20  3 0.00000000E+00 0.00000000E+00 0.00000000E+00 1.15853160E-01-7.80941642E-02
20  4 4.12366979E-02 0.00000000E+00-4.43152948E-03 1.76067091E-01 1.53362404E+00
20  5 0.00000000E+00 1.39808819E-01 7.57278574E-01-4.34705205E-03 9.49603985E-05
20  6 4.25209165E-03 0.00000000E+00 0.00000000E+00-4.92785481E-04 7.80941642E-02
20  7-4.12366979E-02 0.00000000E+00-4.43152948E-03-1.76067091E-01-1.53362404E+00
20  8 0.00000000E+00 1.39808819E-01-7.57278574E-01 4.34705205E-03-9.49603985E-05
20  9-4.25209165E-03 0.00000000E+00 0.00000000E+00-4.92785481E-04 1.90130222E-02
20 10-8.04148517E-02-1.90130222E-02 8.04148517E-02-1.19414562E-02-1.20012452E+00
20 11-1.19414562E-02-1.20012452E+00 1.19414562E-02 1.20012452E+00 1.19414562E-02
20 12 1.20012452E+00
21  1 0.00000000E+00 0.00000000E+00 0.00000000E+00 0.00000000E+00 0.00000000E+00
21  2 0.00000000E+00 0.00000000E+00 0.00000000E+00 0.00000000E+00 0.00000000E+00
21  3 0.00000000E+00-2.16577252E-01 0.00000000E+00 0.00000000E+00 0.00000000E+00
21  4 0.00000000E+00 1.72201000E-01 0.00000000E+00 0.00000000E+00 0.00000000E+00
21  5 9.83203064E-01 0.00000000E+00 0.00000000E+00 0.00000000E+00 0.00000000E+00
21  6 0.00000000E+00-5.32861440E-04-1.58233944E-02 0.00000000E+00 0.00000000E+00
21  7 0.00000000E+00-1.72201000E-01 0.00000000E+00 0.00000000E+00 0.00000000E+00
21  8-9.83203064E-01 0.00000000E+00 0.00000000E+00 0.00000000E+00 0.00000000E+00
21  9 0.00000000E+00-5.32861440E-04 1.58233944E-02 0.00000000E+00 0.00000000E+00
21 10 0.00000000E+00 0.00000000E+00 0.00000000E+00 7.20311104E-02 1.07626756E+00
21 11-7.20311104E-02-1.07626756E+00-7.20311104E-02-1.07626756E+00 7.20311104E-02
21 12 1.07626756E+00
22  1 6.97492828E-02 0.00000000E+00 0.00000000E+00 1.27262733E+00 5.14785102E-01
22  2 0.00000000E+00 0.00000000E+00-7.34777381E-01 2.57397119E-01-1.36748509E-01
22  3-1.20648609E-01 0.00000000E+00 0.00000000E+00 0.00000000E+00 9.64397336E-03
22  4-2.18903056E-02 0.00000000E+00-1.42374045E-01 6.03962027E-03 9.44928722E-02
22  5 0.00000000E+00-7.32951119E-01-1.46460750E-01 1.81278131E-03 4.61762051E-03
22  6-6.43040183E-03 0.00000000E+00 0.00000000E+00-1.84730232E-02 9.64397336E-03
22  7-2.18903056E-02 0.00000000E+00 1.42374045E-01 6.03962027E-03 9.44928722E-02
22  8 0.00000000E+00 7.32951119E-01-1.46460750E-01 1.81278131E-03 4.61762051E-03
22  9-6.43040183E-03 0.00000000E+00 0.00000000E+00 1.84730232E-02-3.74197625E-02
22 10-8.96042941E-01-3.74197625E-02-8.96042941E-01-1.99111293E-04 2.46429993E-01
22 11-1.99111293E-04 2.46429993E-01-1.99111293E-04 2.46429993E-01-1.99111293E-04
22 12 2.46429993E-01
23  1 0.00000000E+00 0.00000000E+00-1.06290155E+00 0.00000000E+00 0.00000000E+00
23  2 0.00000000E+00 1.16272436E+00 0.00000000E+00 0.00000000E+00 0.00000000E+00
23  3 0.00000000E+00 0.00000000E+00 0.00000000E+00 1.28673960E-01 5.95895774E-02
23  4-7.19896053E-02 0.00000000E+00 1.32941835E-01 1.27824360E-01-1.00745209E+00
23  5 0.00000000E+00 5.92013358E-01 4.17759004E-01-1.27938249E-02 4.46443275E-04
23  6 1.23473816E-02 0.00000000E+00 0.00000000E+00-8.73653313E-03-5.95895774E-02
23  7 7.19896053E-02 0.00000000E+00 1.32941835E-01-1.27824360E-01 1.00745209E+00
23  8 0.00000000E+00 5.92013358E-01-4.17759004E-01 1.27938249E-02-4.46443275E-04
23  9-1.23473816E-02 0.00000000E+00 0.00000000E+00-8.73653313E-03 7.62470062E-03
23 10 1.63329302E+00-7.62470062E-03-1.63329302E+00-7.63074654E-03 9.32289956E-02
23 11-7.63074654E-03 9.32289956E-02 7.63074654E-03-9.32289956E-02 7.63074654E-03
23 12-9.32289956E-02
24  1 0.00000000E+00 4.25952331E-01 0.00000000E+00 0.00000000E+00 0.00000000E+00
24  2-4.65383795E-02 0.00000000E+00 0.00000000E+00 0.00000000E+00 0.00000000E+00
24  3 0.00000000E+00 0.00000000E+00 9.29716036E-01 0.00000000E+00 0.00000000E+00
24  4 0.00000000E+00-1.09654164E-01 0.00000000E+00 0.00000000E+00 0.00000000E+00
24  5-1.54627227E-01 0.00000000E+00 0.00000000E+00 0.00000000E+00 0.00000000E+00
24  6 0.00000000E+00 2.66080505E-02-2.75915880E-02 0.00000000E+00 0.00000000E+00
24  7 0.00000000E+00-1.09654164E-01 0.00000000E+00 0.00000000E+00 0.00000000E+00
24  8-1.54627227E-01 0.00000000E+00 0.00000000E+00 0.00000000E+00 0.00000000E+00
24  9 0.00000000E+00-2.66080505E-02-2.75915880E-02 0.00000000E+00 0.00000000E+00
24 10 0.00000000E+00 0.00000000E+00 0.00000000E+00 1.03614474E-01-1.37248741E-01
24 11-1.03614474E-01 1.37248741E-01 1.03614474E-01-1.37248741E-01-1.03614474E-01
24 12 1.37248741E-01
25  1 2.99827195E-02 0.00000000E+00 0.00000000E+00 7.84195299E-02 1.51789103E-01
25  2 0.00000000E+00 0.00000000E+00 3.09303169E-02-1.41491263E-02 8.10913778E-01
25  3-7.96764651E-01 0.00000000E+00 0.00000000E+00 0.00000000E+00 3.79488497E-03
25  4-6.21678035E-04 0.00000000E+00 1.63993148E-01 1.60957389E-01-5.07111888E-02
25  5 0.00000000E+00 7.39273048E-02 2.54624893E-01 1.13041593E-02-4.47008512E-02
25  6 3.33966919E-02 0.00000000E+00 0.00000000E+00-1.20043277E-02 3.79488497E-03
25  7-6.21678035E-04 0.00000000E+00-1.63993148E-01 1.60957389E-01-5.07111888E-02
25  8 0.00000000E+00-7.39273048E-02 2.54624893E-01 1.13041593E-02-4.47008512E-02
25  9 3.33966919E-02 0.00000000E+00 0.00000000E+00 1.20043277E-02-1.78006538E-01
25 10 4.44035548E-01-1.78006538E-01 4.44035548E-01 7.84408971E-02-2.63594752E-01
25 11 7.84408971E-02-2.63594752E-01 7.84408971E-02-2.63594752E-01 7.84408971E-02
25 12-2.63594752E-01
26  1 0.00000000E+00 0.00000000E+00 0.00000000E+00 0.00000000E+00 0.00000000E+00
26  2 0.00000000E+00 0.00000000E+00 0.00000000E+00 0.00000000E+00 0.00000000E+00
26  3 0.00000000E+00 9.42972996E-01 0.00000000E+00 0.00000000E+00 0.00000000E+00
26  4 0.00000000E+00 2.45807774E-01 0.00000000E+00 0.00000000E+00 0.00000000E+00
26  5 4.02116460E-01 0.00000000E+00 0.00000000E+00 0.00000000E+00 0.00000000E+00
26  6 0.00000000E+00-1.13924706E-02 3.00024544E-02 0.00000000E+00 0.00000000E+00
26  7 0.00000000E+00-2.45807774E-01 0.00000000E+00 0.00000000E+00 0.00000000E+00
26  8-4.02116460E-01 0.00000000E+00 0.00000000E+00 0.00000000E+00 0.00000000E+00
26  9 0.00000000E+00-1.13924706E-02-3.00024544E-02 0.00000000E+00 0.00000000E+00
26 10 0.00000000E+00 0.00000000E+00 0.00000000E+00-8.91829393E-02 5.74920225E-01
26 11 8.91829393E-02-5.74920225E-01 8.91829393E-02-5.74920225E-01-8.91829393E-02
26 12 5.74920225E-01
27  1-3.95858741E-01 0.00000000E+00 0.00000000E+00-8.01377972E-01-9.65613382E-01
27  2 0.00000000E+00 0.00000000E+00-3.64203817E-01 1.17178561E+00-6.85108344E-01
27  3-4.86677263E-01 0.00000000E+00 0.00000000E+00 0.00000000E+00-1.73511061E-02
27  4 3.84633465E-02 0.00000000E+00 1.19853288E-01 9.27905883E-03 6.36541323E-02
27  5 0.00000000E+00 7.03409546E-01-5.95603038E-01 2.93598469E-02-2.04998974E-02
27  6-8.85994945E-03 0.00000000E+00 0.00000000E+00 2.08442683E-02-1.73511061E-02
27  7 3.84633465E-02 0.00000000E+00-1.19853288E-01 9.27905883E-03 6.36541323E-02
27  8 0.00000000E+00-7.03409546E-01-5.95603038E-01 2.93598469E-02-2.04998974E-02
27  9-8.85994945E-03 0.00000000E+00 0.00000000E+00-2.08442683E-02 2.61595966E-02
27 10 5.26384849E-01 2.61595966E-02 5.26384849E-01 8.63142109E-02 2.92168707E-01
27 11 8.63142109E-02 2.92168707E-01 8.63142109E-02 2.92168707E-01 8.63142109E-02
27 12 2.92168707E-01
28  1 0.00000000E+00 0.00000000E+00 1.16445688E+00 0.00000000E+00 0.00000000E+00
28  2 0.00000000E+00 3.13083717E-01 0.00000000E+00 0.00000000E+00 0.00000000E+00
28  3 0.00000000E+00 0.00000000E+00 0.00000000E+00 1.41184712E+00-1.49887811E-02
28  4-4.36179733E-03 0.00000000E+00-1.30283553E-01 1.02300608E-01 3.25580339E-01
28  5 0.00000000E+00 9.76627268E-01-9.74248045E-01 1.86081984E-02-9.28129348E-03
28  6-9.32690491E-03 0.00000000E+00 0.00000000E+00 4.59518001E-02 1.49887811E-02
28  7 4.36179733E-03 0.00000000E+00-1.30283553E-01-1.02300608E-01-3.25580339E-01
28  8 0.00000000E+00 9.76627268E-01 9.74248045E-01-1.86081984E-02 9.28129348E-03
28  9 9.32690491E-03 0.00000000E+00 0.00000000E+00 4.59518001E-02 1.45117709E-01
28 10 2.34630994E-01-1.45117709E-01-2.34630994E-01 1.34232139E-01 2.77071687E-01
28 11 1.34232139E-01 2.77071687E-01-1.34232139E-01-2.77071687E-01-1.34232139E-01
28 12-2.77071687E-01
29  1 4.62095755E-02 0.00000000E+00 0.00000000E+00-3.96845279E-01-1.08139894E+00
29  2 0.00000000E+00 0.00000000E+00-6.82650510E-01 2.23108819E-01 4.27774472E-01
29  3-6.50883291E-01 0.00000000E+00 0.00000000E+00 0.00000000E+00 2.38873177E-02
29  4-2.01884669E-01 0.00000000E+00-6.15582289E-01-4.10282608E-03-7.14863248E-02
29  5 0.00000000E+00 1.33213836E+00 4.00390534E-02-2.43953570E-02 1.35518764E-03
29  6 2.30401693E-02 0.00000000E+00 0.00000000E+00 4.89654331E-02 2.38873177E-02
29  7-2.01884669E-01 0.00000000E+00 6.15582289E-01-4.10282608E-03-7.14863248E-02
29  8 0.00000000E+00-1.33213836E+00 4.00390534E-02-2.43953570E-02 1.35518764E-03
29  9 2.30401693E-02 0.00000000E+00 0.00000000E+00-4.89654331E-02 2.76156688E-01
29 10 5.18976512E-01 2.76156688E-01 5.18976512E-01 8.08644803E-03 2.82306704E-01
29 11 8.08644803E-03 2.82306704E-01 8.08644803E-03 2.82306704E-01 8.08644803E-03
29 12 2.82306704E-01
30  1-2.49150831E-01 0.00000000E+00 0.00000000E+00-1.19208683E-01 9.06671772E-01
30  2 0.00000000E+00 0.00000000E+00 2.60826587E-01 1.43122373E-01 3.95803849E-01
30  3-5.38926223E-01 0.00000000E+00 0.00000000E+00 0.00000000E+00-4.17411220E-02
30  4 2.10712142E-01 0.00000000E+00 1.30263936E-01-5.64769175E-01 3.42501850E-01
30  5 0.00000000E+00 7.59430268E-02 1.23127809E+00-5.59689803E-02 2.45963807E-02
30  6 3.13725996E-02 0.00000000E+00 0.00000000E+00 9.83482428E-03-4.17411220E-02
30  7 2.10712142E-01 0.00000000E+00-1.30263936E-01-5.64769175E-01 3.42501850E-01
30  8 0.00000000E+00-7.59430268E-02 1.23127809E+00-5.59689803E-02 2.45963807E-02
30  9 3.13725996E-02 0.00000000E+00 0.00000000E+00-9.83482428E-03 9.37266025E-02
30 10 7.84385603E-03 9.37266025E-02 7.84385603E-03-2.36786238E-01-4.79334851E-01
30 11-2.36786238E-01-4.79334851E-01-2.36786238E-01-4.79334851E-01-2.36786238E-01
30 12-4.79334851E-01