!  lanthanide test from Tom Cundari, 69 AOs and 9 occupied MOs,
!  on an olefin polymerization catalyst model.
!  This run has a d basis and g potentials.
!
!  The job is an OPTIMIZE, followed by HSSEND,
!  and Tom chose to start with HCORE and his usual damping.
!  We can guess this is Tom's La core potential,
!  explicitly entered in the input, prior to its publication.
!
!  NSERCH=0: FINAL E= -31.6275892665, RMS grad=0.0029845
!  NSERCH=7: FINAL E= -31.6279485704, RMS grad=0.0000007
!  with FREQ= 90.51, 230.92, 336.11, 337.66, 512.62, 1567.01 
!
!  This run takes 10 seconds on a 2.66 GHz Cloverton ( 6 Apr 2015)
!  answers have not changed much since 2005.
!   
 $contrl scftyp=rhf runtyp=optimize pp=read $end
 $system mwords=1 $end
 $scf    soscf=.F. diis=.True. damp=.True. extrap=.True. dirscf=.False. $end
 $guess  guess=hcore $end
 $statpt hssend=.true. opttol=1.0e-05 $end
 $data
Lu(Cl)2(H) 
Cnv 2

LU         71.0    .0000000000    .0000000000    .2755470772
  L 4
  1   5.88100   0.0099517   0.0099517
  2   4.15800  -0.0124862  -0.0124862
  3   1.23000  -0.0367221  -0.0367221
  4   0.44772  -0.7071933  -0.7071933
  L 1 ; 1  0.804625   1.0   1.0
  L 1 ; 1  0.104300   1.0   1.0
  L 1 ; 1  0.042620   1.0   1.0
  d 3 
  1   3.07139  -0.0150478
  2   1.50220   0.0907305
  3   0.61570   0.3426683
  d 1 ; 1  0.23900     1.0000000  
  d 1 ; 1  0.08635     1.0000000 

H           1.0    .0000000000    .0000000000   2.2304024919
  n311 6
  p 1 ; 1 1.1   1.0
  s 1 ; 1 0.036 1.0

CL         17.0    .0000000000   2.0619218727   -.8600164406
  sbkjc
  d 1 ; 1 0.75  1.0

 $end
 $ECP
LU GEN 68  4 
1   U(g) 
      -4.07694820     1     .667962795    
3   U(s-g) 
       14.9186968     2     .726379110    
       28.4974846     0     3.51216970    
      -2.25106937     0     .225315332    
3   U(p-g) 
       3.21036313     2     .446590937    
       6.67345234     0     .298511313    
      -.602286603     0     .0500000008   
2   U(d-g) 
      -.569516418     2     .367841661    
       2.79402090     0     .976356461    
1   U(f-g) 
       16.3365429     2     1.44246393    
H-ECP  NONE
CL-ECP SBKJC
CL-ECP SBKJC
 $end

! TRAVIS-CI SMALL

! TRAVIS-CI SKIP
