!     multi-center multi-function multi-potential ECP hessian test
!
!     The molecule contains one third row atom, S, with a d potential
!                         one fourth row atom, Se, with a f potential
!                          one fifth row atom, Sn, with a f potential
!                  two sixth row atoms, Bi and At, with a g potential
!     The heavy atoms all have d functions, and for good measure the 
!     hydrogens have p shells.  Thus every kind of s/p/d one, two, and
!     three center energy, gradient, and hessian integral should occur.
!
!     There are 90 AOs, 85 MOs in the variation space, and 16 occ. MOs.
!
!     FINAL E= -40.9270015740, 14 iters, dE/dZ(Se) = -0.000007161
!     residual FREQ=   .24  .13   .08   .09   .26   .41
!         true FREQ=            36.04    43.58    58.22    71.60
!         true FREQ=   85.58    93.26   131.98   140.22   162.96
!         true FREQ=  219.45   388.03   428.49   431.77   698.06
!         true FREQ=  721.84   797.11   798.14  2038.84  2042.40
!         true FREQ= 2048.70  2584.04
!
!     This run takes 44 seconds on 2.66 GHz Cloverton ( 6 Apr 2015)
!     answers haven't changed much since 2003
!
 $contrl scftyp=rhf runtyp=hessian pp=sbkjc nzvar=21 ispher=1 $end
 $system timlim=999 mwords=10 $end
 $statpt opttol=0.00001 nstep=40 $end
 $cphf   cphf=ao $end
 $guess  guess=huckel $end
 $basis  gbasis=sbkjc ndfunc=1 npfunc=1 $end
 $zmat   izmat(1)=1,1,2,  1,2,3,  1,2,4,  1,2,5,
           1,1,6,  1,6,7,  1,1,8,  1,1,9
           2,2,1,6,  2,8,1,6,  2,9,1,6,
           3,2,1,6,7,  3,8,1,6,7,  3,9,1,6,7
           2,3,2,1,  2,4,2,1,  2,5,2,1,   2,7,6,1,
           3,3,2,1,6,  3,4,2,1,6,  3,5,2,1,6  $end
 $data
ECP test on artificial molecule...Bi(SnH3)(SeH)At=S...RHF/SBKJC(d) geometry
C1
BI         83.0    .4241618657    .7733015034   -.4018727253
SN         50.0   1.1026044541   1.1448814817   2.3968824068
H           1.0   1.1851359240   -.4151965946   3.0369538127
H           1.0   2.5891517895   1.9438360011   2.3853934202
H           1.0   -.1621954485   2.0661898234   3.0252369247
SE         34.0   2.0346950995  -1.1088895498  -1.2571579934
H           1.0   2.2553165079   -.3932811096  -2.5099827036
AT         85.0  -2.1148588775   -.6138440794   -.2008075914
S          16.0    .3941703329   2.5921551933  -1.8625010952
 $end

! TRAVIS-CI SMALL

! TRAVIS-CI SKIP
