!  A bodacious test input on Xe2F3 +1 ion, from Jerry.
!  This input turned up the bug in subroutine RECUR in April 2008.
!  
!  This is not at an optimized geometry so residuals are not 0,
!  but we do have full linear symmetry apparent in the values,
!  and translation residuals vanish.
!
!  VIB 0 energy= -954.2408657625, 12 iters
!      FREQUENCY:        87.00 I     87.00 I     42.24       42.24         .37
!      FREQUENCY:          .37         .38      120.14      120.14      147.02
!      FREQUENCY:       230.88      230.88      449.85      791.72      799.61
!
!  this run takes 704 seconds on 2.66 GHz Cloverton ( 6 Apr 2015)
!
 $contrl scftyp=rhf RUNTYP=hessian pp=read ispher=1 icharg=+1 icut=11 $end
 $system mwords=25 $end
 $guess  guess=huckel norb=88 $end
 $scf    dirscf=.t. fdiff=.f. diis=.t. conv=2.5e-07  $end
 $force  method=fullnum nvib=2 $end

 $ecp
 F-ECP none
XE-ECP GEN 28    4
 1      ----- G POTENTIAL     -----
      0.00000000  2        1.00000000
 3      ----- S-G POTENTIAL   -----
     49.99796200  2       40.00518400
    281.01330300  2       17.81221400
     61.53825500  2        9.30415000
 4      ----- P-G POTENTIAL   -----
     67.43914200  2       15.70177200
    134.87471100  2       15.25860800
     14.66330000  2        9.29218400
     29.35473000  2        8.55900300
 6      ----- D-G POTENTIAL   -----
     35.43690800  2       15.18560000
     53.19577200  2       14.28450000
      9.04623200  2        7.12188900
     13.22368100  2        6.99196300
      0.08485300  2        0.62394600
      0.04415500  2        0.64728400
 4      ----- F-G POTENTIAL   -----
    -23.08929500  2       20.88155700
    -30.07447500  2       20.78344300
     -0.28822700  2        5.25338900
     -0.38692400  2        5.36118800
XE-ECP 
 F-ECP none
 F-ECP none
 $END

 $DATA
Xe-F-Xe +1 ion...Jerry's bug, without outside F atoms.
Dnh 4

F           9.0   0.0000000000   0.0000000000   0.0000000000
  ccd

XE         54.0   0.0000000000   0.0000000000   2.1930807219
 S   6
  1        2058.320000         0.9380000000E-03
  2        307.4270000         0.4420000000E-02
  3        15.78150000         0.3543950000    
  4        9.544700000        -0.8885140000    
  5        2.229690000         0.9496240000    
  6        1.112000000         0.3810660000    
 S   6
  1        2058.320000        -0.4380000000E-03
  2        307.4270000        -0.2277000000E-02
  3        15.78150000        -0.1557960000    
  4        9.544700000         0.4175780000    
  5        2.229690000        -0.6793250000    
  6        1.112000000        -0.3183090000    
 S   1
  1       0.3554300000          1.000000000    
 S   1
  1       0.1377260000          1.000000000    
 P   5
  1        20.17250000         0.6874000000E-01
  2        11.81220000        -0.2446140000    
  3        2.934600000         0.6676480000    
  4        1.318900000         0.4501800000    
  5       0.3858160000         0.2868900000E-01
 P   5
  1        20.17250000        -0.2296700000E-01
  2        11.81220000         0.8811500000E-01
  3        2.934600000        -0.3233110000    
  4        1.318900000        -0.1542280000    
  5       0.3858160000         0.6228820000    
 P   1
  1       0.1269610000          1.000000000    
 D   5
  1        52.66660000         0.4807000000E-02
  2        14.34640000        -0.4517000000E-02
  3        4.815970000         0.3015100000    
  4        2.214960000         0.5120370000    
  5       0.9611280000         0.2990900000    
 D   1
  1       0.3412000000          1.000000000    

F           9.0   0.0000000000   0.0000000000   4.0447959858
  ccd

 $END
!

           central F atom is moved, like 1st numerical hessian point.
           be sure to comment out the d-a-t-a above to use the below:

--- $contrl runtyp=energy units=bohr $end
--- $DATA
Jerry's pesky [F-Xe-F-Xe-F] +1 ion
C1
F           9.0     0.0200000000        0.0000000000        0.0000000000
  ccd

XE         54.0     0.0000000000        0.0000000000       -4.1443216333
 S   6
  1        2058.320000         0.9380000000E-03
  2        307.4270000         0.4420000000E-02
  3        15.78150000         0.3543950000    
  4        9.544700000        -0.8885140000    
  5        2.229690000         0.9496240000    
  6        1.112000000         0.3810660000    
 S   6
  1        2058.320000        -0.4380000000E-03
  2        307.4270000        -0.2277000000E-02
  3        15.78150000        -0.1557960000    
  4        9.544700000         0.4175780000    
  5        2.229690000        -0.6793250000    
  6        1.112000000        -0.3183090000    
 S   1
  1       0.3554300000          1.000000000    
 S   1
  1       0.1377260000          1.000000000    
 P   5
  1        20.17250000         0.6874000000E-01
  2        11.81220000        -0.2446140000    
  3        2.934600000         0.6676480000    
  4        1.318900000         0.4501800000    
  5       0.3858160000         0.2868900000E-01
 P   5
  1        20.17250000        -0.2296700000E-01
  2        11.81220000         0.8811500000E-01
  3        2.934600000        -0.3233110000    
  4        1.318900000        -0.1542280000    
  5       0.3858160000         0.6228820000    
 P   1
  1       0.1269610000          1.000000000    
 D   5
  1        52.66660000         0.4807000000E-02
  2        14.34640000        -0.4517000000E-02
  3        4.815970000         0.3015100000    
  4        2.214960000         0.5120370000    
  5       0.9611280000         0.2990900000    
 D   1
  1       0.3412000000          1.000000000    

XE         54.0     0.0000000000        0.0000000000        4.1443216333
 S   6
  1        2058.320000         0.9380000000E-03
  2        307.4270000         0.4420000000E-02
  3        15.78150000         0.3543950000    
  4        9.544700000        -0.8885140000    
  5        2.229690000         0.9496240000    
  6        1.112000000         0.3810660000    
 S   6
  1        2058.320000        -0.4380000000E-03
  2        307.4270000        -0.2277000000E-02
  3        15.78150000        -0.1557960000    
  4        9.544700000         0.4175780000    
  5        2.229690000        -0.6793250000    
  6        1.112000000        -0.3183090000    
 S   1
  1       0.3554300000          1.000000000    
 S   1
  1       0.1377260000          1.000000000    
 P   5
  1        20.17250000         0.6874000000E-01
  2        11.81220000        -0.2446140000    
  3        2.934600000         0.6676480000    
  4        1.318900000         0.4501800000    
  5       0.3858160000         0.2868900000E-01
 P   5
  1        20.17250000        -0.2296700000E-01
  2        11.81220000         0.8811500000E-01
  3        2.934600000        -0.3233110000    
  4        1.318900000        -0.1542280000    
  5       0.3858160000         0.6228820000    
 P   1
  1       0.1269610000          1.000000000    
 D   5
  1        52.66660000         0.4807000000E-02
  2        14.34640000        -0.4517000000E-02
  3        4.815970000         0.3015100000    
  4        2.214960000         0.5120370000    
  5       0.9611280000         0.2990900000    
 D   1
  1       0.3412000000          1.000000000    

F           9.0     0.0000000000        0.0000000000       -7.6435560894
  ccd

F           9.0     0.0000000000        0.0000000000        7.6435560894
  ccd

 $END

! TRAVIS-CI MEDIUM

