!   mixture of three waters and three methanols, all treated by EFP2.
!   Based on Ivana's February 2005 input.
!   EFP charge-transfer cutoff.
!
!    In this input file the CT cut-off
!    is set to 7.0 bohr (same for all fragment pairs).
!
!    Baseline:
!    Full CT: E(EFP)=-0.0711318137 E(CT)=-0.0032523244
!    No CT:   E(EFP)=-0.0678794894
!
!    This input file:
!                 CHARGE TRANSFER ENRGY =  -0.0032482033
!                 FINAL EFP ENERGY      =  -0.0711276927
!
!    The results for different cutoffs are:
!
!     cutoff   E(CT)      E(EFP)
!     (bohr)    (au)       (au)
!     ===============================
!      3.0  0.0000000000 -0.0678794894
!      3.4  0.0000000000 -0.0678794894
!      3.8  0.0000000000 -0.0678794894
!      4.2  0.0000000000 -0.0678794894
!      4.6  0.0000000000 -0.0678794894
!      5.0  0.0000000000 -0.0678794894
!      5.4 -0.0009445755 -0.0688240649
!      5.8 -0.0021936132 -0.0700731026
!      6.2 -0.0021936132 -0.0700731026
!      6.6 -0.0030179104 -0.0708973998
!      7.0 -0.0032482033 -0.0711276927
!      7.4 -0.0032523244 -0.0711318137
!      7.8 -0.0032523244 -0.0711318137
!      8.2 -0.0032523244 -0.0711318137
!      8.6 -0.0032523244 -0.0711318137
!      9.0 -0.0032523244 -0.0711318137
!      9.4 -0.0032523244 -0.0711318137
!      9.8 -0.0032523244 -0.0711318137
!     10.2 -0.0032523244 -0.0711318137
!     10.6 -0.0032523244 -0.0711318137
!     11.0 -0.0032523244 -0.0711318137
!     11.4 -0.0032523244 -0.0711318137
!     11.8 -0.0032523244 -0.0711318137
!     12.2 -0.0032523244 -0.0711318137
!     12.6 -0.0032523244 -0.0711318137
!     13.0 -0.0032523244 -0.0711318137
!     13.4 -0.0032523244 -0.0711318137

 $contrl runtyp=energy coord=fragonly $end
 $system mwords=1 $end

 $efparm
   ctcut(1)=7.0,7.0,7.0
 $end

 $efrag 
coord=cart polmethd=frgscf >
iscrelec=0 iscrpol=1 iscrdisp=1
FRAGNAME=WATER 
O1                5.4498258717  -2.5448828943   7.8791372991
H2                4.8122108565  -2.0928857634   8.4083103711
H3                4.9677014960  -3.1117250547   7.2985130612
FRAGNAME=WATER 
O1                4.5791936928  -3.5740305319   5.3552578591
H2                4.0920680158  -4.3319225022   5.0738563837
H3                5.4301291183  -3.6330684905   4.9511515921
FRAGNAME=WATER 
O1                6.7008854474  -1.8452822841   5.4250745571
H2                6.4993971555  -1.9096445176   6.3449323859
H3                7.5743334883  -1.4930405131   5.3626829810
FRAGNAME=MEOH  
O1                3.9824779836   -.6403260710   5.0611643385
H2                4.6957684926  -1.2296984627   4.8832319688
C3                4.4557926471    .5430765172   5.6434286166
H4                3.5970174713   1.1748557850   5.8230456777
H5                4.9515331544    .3552272602   6.5925372229
H6                5.1413668049   1.0703579115   4.9847818631
FRAGNAME=MEOH  
O1                2.5061161894  -2.2789453865   7.1032783513
H2                3.0757736815  -2.0288922351   6.3956295277
C3                1.4832719422  -1.3354973275   7.2681890910
H4                 .8666482663  -1.6749730836   8.0888190855
H5                1.8771679183   -.3527627310   7.5150327932
H6                 .8623733979  -1.2544708372   6.3794974425
FRAGNAME=MEOH  
O1                1.9422498983  -4.7078073089   5.3911410622
H2                2.0688092519  -4.2387439335   6.1984609334
C3                1.3098411317  -3.8928928366   4.4427351887
H4                1.1928686288  -4.4825159381   3.5440894486
H5                 .3260218008  -3.5735978419   4.7774042356
H6                1.9047028659  -3.0145302867   4.2050970423
 $end


          MAKEFP EFFECTIVE FRAGMENT POTENTIAL DATA FOLLOWS...
          WATER   EFP GENERATED AT Tue Oct 13 11:25:44 2015
 $WATER   
EFP DATA FOR WATER: SCFTYP=RHF ... GENERATED WITH BASIS SET=6-311++G(3df,2p)
 COORDINATES (BOHR)
O1      0.0000000000   0.0000000000  -0.1191510000  15.9949100  8.0
H2     -1.4310420000   0.0000000000   0.9455100000   1.0078250  1.0
H3      1.4310420000   0.0000000000   0.9455100000   1.0078250  1.0
BO21      -0.7155210000   0.0000000000   0.4131795000   0.0000000  0.0
BO31       0.7155210000   0.0000000000   0.4131795000   0.0000000  0.0
 STOP
 MONOPOLES 
O1     -8.1585723387   8.00000
H2     -0.6421042955   1.00000
H3     -0.6421042955   1.00000
BO21      -0.2786095352   0.00000
BO31      -0.2786095352   0.00000
 STOP
 DIPOLES 
O1       0.0000000000    0.0000000000    0.7905581460
H2      -0.0943988696    0.0000000000    0.0480688172
H3       0.0943988696    0.0000000000    0.0480688172
BO21        0.2436609068    0.0000000000   -0.2882226879
BO31       -0.2436609068    0.0000000000   -0.2882226879
 STOP
 QUADRUPOLES 
O1      -3.5401779635   -4.7017824004   -3.9031034886    0.0000000000 >
            0.0000000000    0.0000000000
H2      -0.3698244170   -0.3782321839   -0.3623573019    0.0000000000 >
           -0.0084273328    0.0000000000
H3      -0.3698244170   -0.3782321839   -0.3623573019    0.0000000000 >
            0.0084273328    0.0000000000
BO21        0.0787475159   -0.0786701551    0.0221347333    0.0000000000 >
           -0.1054714825    0.0000000000
BO31        0.0787475159   -0.0786701551    0.0221347333    0.0000000000 >
            0.1054714825    0.0000000000
 STOP
 OCTUPOLES  
O1         0.000000000      0.000000000      1.952530680      0.000000000 >
              0.729013181      0.000000000      0.595774120      0.000000000 >
              0.000000000      0.000000000
H2        -0.143449369      0.000000000      0.049798592      0.000000000 >
              0.011606478     -0.051159412      0.019293990     -0.043713813 >
              0.000000000      0.000000000
H3         0.143449369      0.000000000      0.049798592      0.000000000 >
              0.011606478      0.051159412      0.019293990      0.043713813 >
              0.000000000      0.000000000
BO21          0.633498005      0.000000000     -0.796931860      0.000000000 >
             -0.297635680      0.191493520     -0.258444740      0.224077274 >
              0.000000000      0.000000000
BO31         -0.633498005      0.000000000     -0.796931860      0.000000000 >
             -0.297635680     -0.191493520     -0.258444740     -0.224077274 >
              0.000000000      0.000000000
 STOP
 POLARIZABLE POINTS
CT1   0.7509159586  -0.0000008719   0.4895849787
    2.6950656475    0.7888387623    1.7812525476   -0.0000016409 >
    1.2939025275   -0.0000019176   -0.0000021704    1.1584046785 >
   -0.0000014607
CT2  -0.7509159038  -0.0000005615   0.4895851557
    2.6950646911    0.7888386828    1.7812528389    0.0000010569 >
   -1.2939027668   -0.0000012350    0.0000013978   -1.1584049235 >
   -0.0000009408
CT3   0.0000000939   0.4968331223  -0.3896449382
    1.4539153145    2.7053572937    1.8564789885    0.0000002261 >
   -0.0000004099   -1.0890395813    0.0000002990   -0.0000004197 >
   -0.9944863675
CT4  -0.0000001487  -0.4968316889  -0.3896478132
    1.4539208835    2.7053413555    1.8564910531    0.0000003580 >
    0.0000006492    1.0890427339    0.0000004735    0.0000006647 >
    0.9944887690
 STOP
 DYNAMIC POLARIZABLE POINTS
CT  1   0.7509159586  -0.0000008719   0.4895849787 -- FOR W= 0.002792I A.U.
    2.6948450603    0.7887375303    1.7811603745   -0.0000016413 >
    1.2941252777   -0.0000019176   -0.0000021698    1.1582022651 >
   -0.0000014609
CT  2  -0.7509159038  -0.0000005615   0.4895851557
    2.6948441043    0.7887374509    1.7811606659    0.0000010571 >
   -1.2941255171   -0.0000012350    0.0000013975   -1.1582025100 >
   -0.0000009409
CT  3   0.0000000939   0.4968331223  -0.3896449382
    1.4541571277    2.7053681075    1.8564270511    0.0000002261 >
   -0.0000004100   -1.0890599503    0.0000002989   -0.0000004196 >
   -0.9944143926
CT  4  -0.0000001487  -0.4968316889  -0.3896478132
    1.4541626997    2.7053521694    1.8564391152    0.0000003581 >
    0.0000006493    1.0890631030    0.0000004734    0.0000006646 >
    0.9944167944
CT  1   0.7509159586  -0.0000008719   0.4895849787 -- FOR W= 0.015107I A.U.
    2.6935140855    0.7886194637    1.7802984456   -0.0000016405 >
    1.2931867092   -0.0000019146   -0.0000021657    1.1570998673 >
   -0.0000014597
CT  2  -0.7509159038  -0.0000005615   0.4895851557
    2.6935131299    0.7886193842    1.7802987365    0.0000010566 >
   -1.2931869483   -0.0000012331    0.0000013949   -1.1571001120 >
   -0.0000009402
CT  3   0.0000000939   0.4968331223  -0.3896449382
    1.4536562618    2.7031080898    1.8553912018    0.0000002260 >
   -0.0000004097   -1.0873980097    0.0000002983   -0.0000004192 >
   -0.9934894822
CT  4  -0.0000001487  -0.4968316889  -0.3896478132
    1.4536618279    2.7030921703    1.8554032528    0.0000003579 >
    0.0000006489    1.0874011574    0.0000004725    0.0000006639 >
    0.9934918821
CT  1   0.7509159586  -0.0000008719   0.4895849787 -- FOR W= 0.039002I A.U.
    2.6857410270    0.7879304848    1.7752732230   -0.0000016358 >
    1.2877090724   -0.0000018974   -0.0000021420    1.1506841736 >
   -0.0000014531
CT  2  -0.7509159038  -0.0000005615   0.4895851557
    2.6857400737    0.7879304054    1.7752735109    0.0000010536 >
   -1.2877093106   -0.0000012221    0.0000013796   -1.1506844169 >
   -0.0000009359
CT  3   0.0000000939   0.4968331223  -0.3896449382
    1.4507290789    2.6899884571    1.8493593370    0.0000002253 >
   -0.0000004080   -1.0777805572    0.0000002951   -0.0000004167 >
   -0.9881080988
CT  4  -0.0000001487  -0.4968316889  -0.3896478132
    1.4507346112    2.6899726461    1.8493713120    0.0000003569 >
    0.0000006461    1.0777836768    0.0000004673    0.0000006600 >
    0.9881104879
CT  1   0.7509159586  -0.0000008719   0.4895849787 -- FOR W= 0.077996I A.U.
    2.6587698643    0.7855451780    1.7579466716   -0.0000016195 >
    1.2687521488   -0.0000018399   -0.0000020631    1.1287149287 >
   -0.0000014305
CT  2  -0.7509159038  -0.0000005615   0.4895851557
    2.6587689188    0.7855450986    1.7579469496    0.0000010430 >
   -1.2687523834   -0.0000011850    0.0000013288   -1.1287151671 >
   -0.0000009214
CT  3   0.0000000939   0.4968331223  -0.3896449382
    1.4405445737    2.6454737196    1.8286579425    0.0000002231 >
   -0.0000004020   -1.0455368115    0.0000002842   -0.0000004083 >
   -0.9696983616
CT  4  -0.0000001487  -0.4968316889  -0.3896478132
    1.4405499887    2.6454582759    1.8286696580    0.0000003533 >
    0.0000006367    1.0455398364    0.0000004501    0.0000006467 >
    0.9697007135
CT  1   0.7509159586  -0.0000008719   0.4895849787 -- FOR W= 0.138651I A.U.
    2.5848358634    0.7790073633    1.7112556955   -0.0000015748 >
    1.2171872610   -0.0000016971   -0.0000018715    1.0707003147 >
   -0.0000013708
CT  2  -0.7509159038  -0.0000005615   0.4895851557
    2.5848349397    0.7790072839    1.7112559480    0.0000010143 >
   -1.2171874862   -0.0000010930    0.0000012054   -1.0707005402 >
   -0.0000008829
CT  3   0.0000000939   0.4968331223  -0.3896449382
    1.4123970381    2.5306170775    1.7736062668    0.0000002169 >
   -0.0000003858   -0.9651675556    0.0000002578   -0.0000003862 >
   -0.9212138121
CT  4  -0.0000001487  -0.4968316889  -0.3896478132
    1.4124021368    2.5306025757    1.7736173026    0.0000003436 >
    0.0000006111    0.9651703457    0.0000004083    0.0000006117 >
    0.9212160658
CT  1   0.7509159586  -0.0000008719   0.4895849787 -- FOR W= 0.233223I A.U.
    2.4103930612    0.7630809121    1.6048275963   -0.0000014700 >
    1.0979436899   -0.0000014261   -0.0000015286    0.9451304534 >
   -0.0000012409
CT  2  -0.7509159038  -0.0000005615   0.4895851557
    2.4103921901    0.7630808328    1.6048277980    0.0000009468 >
   -1.0979438932   -0.0000009185    0.0000009845   -0.9451306512 >
   -0.0000007992
CT  3   0.0000000939   0.4968331223  -0.3896449382
    1.3445152697    2.2916071852    1.6519721326    0.0000002025 >
   -0.0000003484   -0.8113723511    0.0000002106   -0.0000003388 >
   -0.8168867970
CT  4  -0.0000001487  -0.4968316889  -0.3896478132
    1.3445196513    2.2915946117    1.6519817264    0.0000003207 >
    0.0000005518    0.8113746957    0.0000003335    0.0000005365 >
    0.8168888372
CT  1   0.7509159586  -0.0000008719   0.4895849787 -- FOR W= 0.385897I A.U.
    2.0589900168    0.7253561747    1.3994277491   -0.0000012604 >
    0.8690986455   -0.0000010521   -0.0000011132    0.7298051918 >
   -0.0000010147
CT  2  -0.7509159038  -0.0000005615   0.4895851557
    2.0589892572    0.7253560966    1.3994278794    0.0000008118 >
   -0.8690988070   -0.0000006776    0.0000007170   -0.7298053428 >
   -0.0000006535
CT  3   0.0000000939   0.4968331223  -0.3896449382
    1.2001748565    1.8930156863    1.4302581130    0.0000001736 >
   -0.0000002766   -0.5949554694    0.0000001534   -0.0000002587 >
   -0.6394952387
CT  4  -0.0000001487  -0.4968316889  -0.3896478132
    1.2001779282    1.8930061906    1.4302653378    0.0000002750 >
    0.0000004381    0.5949571991    0.0000002429    0.0000004098 >
    0.6394969068
CT  1   0.7509159586  -0.0000008719   0.4895849787 -- FOR W= 0.649114I A.U.
    1.4956583674    0.6348379615    1.0705327891   -0.0000009237 >
    0.5405099533   -0.0000006803   -0.0000007754    0.4564819697 >
   -0.0000007092
CT  2  -0.7509159038  -0.0000005615   0.4895851557
    1.4956578001    0.6348378891    1.0705328603    0.0000005949 >
   -0.5405100546   -0.0000004381    0.0000004994   -0.4564820634 >
   -0.0000004568
CT  3   0.0000000939   0.4968331223  -0.3896449382
    0.9402859464    1.3607089491    1.0959467146    0.0000001273 >
   -0.0000001735   -0.3726557140    0.0000001068   -0.0000001604 >
   -0.4140290255
CT  4  -0.0000001487  -0.4968316889  -0.3896478132
    0.9402873575    1.3607031220    1.0959511365    0.0000002015 >
    0.0000002748    0.3726568323    0.0000001692    0.0000002541 >
    0.4140301914
CT  1   0.7509159586  -0.0000008719   0.4895849787 -- FOR W= 1.153904I A.U.
    0.8343504848    0.4468025670    0.6476340914   -0.0000005138 >
    0.2331063097   -0.0000003806   -0.0000004949    0.2118299216 >
   -0.0000003882
CT  2  -0.7509159038  -0.0000005615   0.4895851557
    0.8343501609    0.4468025132    0.6476341338    0.0000003309 >
   -0.2331063546   -0.0000002451    0.0000003187   -0.2118299662 >
   -0.0000002500
CT  3   0.0000000939   0.4968331223  -0.3896449382
    0.5742293177    0.7851001523    0.6671544620    0.0000000708 >
   -0.0000000769   -0.1903428412    0.0000000682   -0.0000000764 >
   -0.2045166628
CT  4  -0.0000001487  -0.4968316889  -0.3896478132
    0.5742295996    0.7850974071    0.6671565381    0.0000001121 >
    0.0000001218    0.1903434669    0.0000001080    0.0000001210 >
    0.2045173009
CT  1   0.7509159586  -0.0000008719   0.4895849787 -- FOR W= 2.307592I A.U.
    0.3068512991    0.1995741636    0.2584299475   -0.0000001810 >
    0.0630077859   -0.0000001545   -0.0000002116    0.0634902240 >
   -0.0000001409
CT  2  -0.7509159038  -0.0000005615   0.4895851557
    0.3068511798    0.1995741403    0.2584299692    0.0000001166 >
   -0.0630077990   -0.0000000995    0.0000001363   -0.0634902390 >
   -0.0000000907
CT  3   0.0000000939   0.4968331223  -0.3896449382
    0.2280061050    0.3066476864    0.2636371371    0.0000000249 >
   -0.0000000225   -0.0664134506    0.0000000292   -0.0000000257 >
   -0.0677708675
CT  4  -0.0000001487  -0.4968316889  -0.3896478132
    0.2280061058    0.3066467569    0.2636378083    0.0000000395 >
    0.0000000356    0.0664137047    0.0000000462    0.0000000407 >
    0.0677710991
CT  1   0.7509159586  -0.0000008719   0.4895849787 -- FOR W= 5.957643I A.U.
    0.0570745663    0.0419037871    0.0508310620   -0.0000000320 >
    0.0088392501   -0.0000000307   -0.0000000418    0.0094241630 >
   -0.0000000256
CT  2  -0.7509159038  -0.0000005615   0.4895851557
    0.0570745447    0.0419037829    0.0508310672    0.0000000206 >
   -0.0088392523   -0.0000000198    0.0000000269   -0.0094241657 >
   -0.0000000165
CT  3   0.0000000939   0.4968331223  -0.3896449382
    0.0456331364    0.0607067924    0.0520543436    0.0000000044 >
   -0.0000000037   -0.0117157647    0.0000000058   -0.0000000047 >
   -0.0117709583
CT  4  -0.0000001487  -0.4968316889  -0.3896478132
    0.0456331349    0.0607066240    0.0520544630    0.0000000070 >
    0.0000000059    0.0117158152    0.0000000091    0.0000000074 >
    0.0117710004
CT  1   0.7509159586  -0.0000008719   0.4895849787 -- FOR W=32.239080I A.U.
    0.0021254742    0.0016277999    0.0019269168   -0.0000000012 >
    0.0002894224   -0.0000000012   -0.0000000016    0.0003127874 >
   -0.0000000009
CT  2  -0.7509159038  -0.0000005615   0.4895851557
    0.0021254735    0.0016277998    0.0019269170    0.0000000007 >
   -0.0002894225   -0.0000000007    0.0000000010   -0.0003127875 >
   -0.0000000006
CT  3   0.0000000939   0.4968331223  -0.3896449382
    0.0017804265    0.0023474229    0.0020225923    0.0000000002 >
   -0.0000000001   -0.0004317606    0.0000000002   -0.0000000002 >
   -0.0004323846
CT  4  -0.0000001487  -0.4968316889  -0.3896478132
    0.0017804266    0.0023474167    0.0020225968    0.0000000003 >
    0.0000000002    0.0004317625    0.0000000003    0.0000000003 >
    0.0004323861
 STOP
 DIPOLE-QUADRUPOLE DYNAMIC POLARIZABLE POINTS
CT  1   0.7509159586  -0.0000008719   0.4895849787 -- FOR W= 0.002792I A.U.
   -0.4663639632    0.0000040630    0.0012868959    0.0000034677 >
    0.2421927435    0.0000019011   -0.1518132431    0.0000024670 >
    0.1243525090    0.0000025914    0.2222598271    0.0000018596 >
    0.2222598271   -0.0000018296    0.1954777086    0.0000019859 >
    0.1954777086    0.0000001689   -0.5744122665    0.0000036873 >
   -0.3482124555    0.0000033507    0.3856890757    0.0000022747 >
   -0.4480311662    0.0000026101    0.3418233299
CT  2  -0.7509159038  -0.0000005615   0.4895851557
    0.4663618620    0.0000026168    0.0012864454    0.0000022334 >
   -0.2421920939   -0.0000012244   -0.1518136761   -0.0000015889 >
   -0.1243510255    0.0000016690   -0.2222599449   -0.0000011977 >
   -0.2222599449   -0.0000011784    0.1954777128   -0.0000012790 >
    0.1954777128    0.0000001088   -0.5744121762   -0.0000023749 >
    0.3482130099   -0.0000021580    0.3856894392    0.0000014651 >
    0.4480317524    0.0000016811    0.3418228586
CT  3   0.0000000939   0.4968331223  -0.3896449382
   -0.0000000383   -0.4141243844    0.4898482013   -0.4141243844 >
    0.0000002439    0.0000005577    0.4898482013    0.0000005931 >
   -0.0000001457    1.0306870255   -0.0000005412    0.0000005047 >
   -0.0000004869   -0.7560208882    2.0105382017    0.0000004755 >
    2.0810727736   -0.3299834418   -0.4695557891    0.0000004643 >
   -0.0000007035    0.0000004438    0.1056089683   -0.9999472454 >
   -0.0000006978   -1.0552645499    0.2934122490
CT  4  -0.0000001487  -0.4968316889  -0.3896478132
    0.0000000607    0.4141285429    0.4898567673    0.4141285429 >
   -0.0000003863    0.0000008833    0.4898567673    0.0000009393 >
    0.0000002308   -1.0306805594    0.0000008572    0.0000007994 >
    0.0000007712    0.7559955674    2.0105332213    0.0000007531 >
    2.0810681493    0.3300031435   -0.4695617879    0.0000007354 >
    0.0000011141    0.0000007029    0.1056004220    0.9999597905 >
    0.0000011052    1.0552779420    0.2934264379
CT  1   0.7509159586  -0.0000008719   0.4895849787 -- FOR W= 0.015107I A.U.
   -0.4662999112    0.0000040573    0.0014130525    0.0000034657 >
    0.2420618113    0.0000018997   -0.1518716195    0.0000024633 >
    0.1242990769    0.0000025881    0.2221874081    0.0000018600 >
    0.2221874081   -0.0000018306    0.1954146529    0.0000019866 >
    0.1954146529    0.0000001682   -0.5739320231    0.0000036821 >
   -0.3479784096    0.0000033477    0.3855144926    0.0000022729 >
   -0.4479174326    0.0000026069    0.3417022025
CT  2  -0.7509159038  -0.0000005615   0.4895851557
    0.4662978112    0.0000026132    0.0014126024    0.0000022321 >
   -0.2420611619   -0.0000012235   -0.1518720522   -0.0000015865 >
   -0.1242975942    0.0000016669   -0.2221875259   -0.0000011979 >
   -0.2221875259   -0.0000011790    0.1954146571   -0.0000012795 >
    0.1954146571    0.0000001083   -0.5739319334   -0.0000023715 >
    0.3479789632   -0.0000021561    0.3855148561    0.0000014639 >
    0.4479180182    0.0000016790    0.3417017318
CT  3   0.0000000939   0.4968331223  -0.3896449382
   -0.0000000385   -0.4135866494    0.4894727528   -0.4135866494 >
    0.0000002437    0.0000005572    0.4894727528    0.0000005924 >
   -0.0000001457    1.0294669609   -0.0000005405    0.0000005036 >
   -0.0000004866   -0.7552135222    2.0079172642    0.0000004746 >
    2.0779025646   -0.3291399726   -0.4687583931    0.0000004638 >
   -0.0000007027    0.0000004435    0.1055604410   -0.9988479006 >
   -0.0000006971   -1.0537344344    0.2932126518
CT  4  -0.0000001487  -0.4968316889  -0.3896478132
    0.0000000610    0.4135908034    0.4894813092    0.4135908034 >
   -0.0000003860    0.0000008825    0.4894813092    0.0000009383 >
    0.0000002308   -1.0294605056    0.0000008560    0.0000007976 >
    0.0000007706    0.7551882331    2.0079122934    0.0000007516 >
    2.0778979492    0.3291596484   -0.4687643861    0.0000007346 >
    0.0000011129    0.0000007024    0.1055519043    0.9988604329 >
    0.0000011041    1.0537478089    0.2932268260
CT  1   0.7509159586  -0.0000008719   0.4895849787 -- FOR W= 0.039002I A.U.
   -0.4659129606    0.0000040245    0.0021320214    0.0000034543 >
    0.2413035826    0.0000018912   -0.1522092535    0.0000024422 >
    0.1239814678    0.0000025692    0.2217655710    0.0000018619 >
    0.2217655710   -0.0000018363    0.1950470185    0.0000019906 >
    0.1950470185    0.0000001636   -0.5711373855    0.0000036516 >
   -0.3466148603    0.0000033304    0.3844880319    0.0000022619 >
   -0.4472427705    0.0000025882    0.3409906285
CT  2  -0.7509159038  -0.0000005615   0.4895851557
    0.4659108673    0.0000025920    0.0021315732    0.0000022248 >
   -0.2413029342   -0.0000012181   -0.1522096846   -0.0000015729 >
   -0.1239799902    0.0000016547   -0.2217656889   -0.0000011992 >
   -0.2217656889   -0.0000011827    0.1950470225   -0.0000012821 >
    0.1950470225    0.0000001053   -0.5711372989   -0.0000023519 >
    0.3466154095   -0.0000021450    0.3844883955    0.0000014568 >
    0.4472433523    0.0000016670    0.3409901612
CT  3   0.0000000939   0.4968331223  -0.3896449382
   -0.0000000394   -0.4104556114    0.4872850347   -0.4104556114 >
    0.0000002425    0.0000005546    0.4872850347    0.0000005888 >
   -0.0000001460    1.0223896770   -0.0000005363    0.0000004973 >
   -0.0000004844   -0.7505259363    1.9927245116    0.0000004692 >
    2.0595528829   -0.3242744276   -0.4641464881    0.0000004610 >
   -0.0000006983    0.0000004418    0.1052845268   -0.9924572091 >
   -0.0000006931   -1.0448678960    0.2920335900
CT  4  -0.0000001487  -0.4968316889  -0.3896478132
    0.0000000625    0.4104597399    0.4872935351    0.4104597399 >
   -0.0000003840    0.0000008783    0.4872935351    0.0000009325 >
    0.0000002312   -1.0223832840    0.0000008495    0.0000007876 >
    0.0000007672    0.7505008306    1.9927195962    0.0000007430 >
    2.0595483191    0.3242939539   -0.4641524474    0.0000007301 >
    0.0000011059    0.0000006998    0.1052760456    0.9924696675 >
    0.0000010978    1.0448811680    0.2920476790
CT  1   0.7509159586  -0.0000008719   0.4895849787 -- FOR W= 0.077996I A.U.
   -0.4644031858    0.0000039142    0.0043967449    0.0000034145 >
    0.2387554840    0.0000018623   -0.1533375301    0.0000023713 >
    0.1228076127    0.0000025054    0.2203152305    0.0000018669 >
    0.2203152305   -0.0000018533    0.1937787251    0.0000020022 >
    0.1937787251    0.0000001483   -0.5615712661    0.0000035489 >
   -0.3419267023    0.0000032709    0.3808379325    0.0000022244 >
   -0.4447667915    0.0000025250    0.3384676086
CT  2  -0.7509159038  -0.0000005615   0.4895851557
    0.4644011157    0.0000025210    0.0043963034    0.0000021992 >
   -0.2387548393   -0.0000011994   -0.1533379559   -0.0000015272 >
   -0.1228061528    0.0000016136   -0.2203153484   -0.0000012024 >
   -0.2203153484   -0.0000011937    0.1937787285   -0.0000012895 >
    0.1937787285    0.0000000955   -0.5615711899   -0.0000022857 >
    0.3419272366   -0.0000021067    0.3808382965    0.0000014326 >
    0.4447673602    0.0000016263    0.3384671528
CT  3   0.0000000939   0.4968331223  -0.3896449382
   -0.0000000424   -0.3997152027    0.4797587501   -0.3997152027 >
    0.0000002381    0.0000005454    0.4797587501    0.0000005764 >
   -0.0000001465    0.9984460936   -0.0000005224    0.0000004762 >
   -0.0000004769   -0.7346111554    1.9414611471    0.0000004511 >
    1.9979797279   -0.3081600890   -0.4487173778    0.0000004515 >
   -0.0000006831    0.0000004361    0.1044189617   -0.9706676527 >
   -0.0000006794   -1.0149928036    0.2877798353
CT  4  -0.0000001487  -0.4968316889  -0.3896478132
    0.0000000672    0.3997192429    0.4797670581    0.3997192429 >
   -0.0000003771    0.0000008637    0.4797670581    0.0000009128 >
    0.0000002320   -0.9984399091    0.0000008274    0.0000007541 >
    0.0000007553    0.7345866693    1.9414564168    0.0000007144 >
    1.9979753361    0.3081791111   -0.4487232227    0.0000007151 >
    0.0000010819    0.0000006907    0.1044106698    0.9706798582 >
    0.0000010761    1.0150057296    0.2877936336
CT  1   0.7509159586  -0.0000008719   0.4895849787 -- FOR W= 0.138651I A.U.
   -0.4590142475    0.0000036395    0.0089048405    0.0000033053 >
    0.2323770605    0.0000017857   -0.1560942380    0.0000021952 >
    0.1190605684    0.0000023446    0.2164198718    0.0000018693 >
    0.2164198718   -0.0000018823    0.1903415860    0.0000020189 >
    0.1903415860    0.0000001116   -0.5363391218    0.0000032890 >
   -0.3294033127    0.0000031130    0.3701870513    0.0000021246 >
   -0.4369799313    0.0000023642    0.3311511490
CT  2  -0.7509159038  -0.0000005615   0.4895851557
    0.4590122406    0.0000023441    0.0089044174    0.0000021288 >
   -0.2323764267   -0.0000011501   -0.1560946488   -0.0000014138 >
   -0.1190591566    0.0000015101   -0.2164199898   -0.0000012039 >
   -0.2164199898   -0.0000012123    0.1903415879   -0.0000013003 >
    0.1903415879    0.0000000719   -0.5363390718   -0.0000021183 >
    0.3294038082   -0.0000020050    0.3701874151    0.0000013684 >
    0.4369804655    0.0000015227    0.3311507229
CT  3   0.0000000939   0.4968331223  -0.3896449382
   -0.0000000489   -0.3712404183    0.4596231496   -0.3712404183 >
    0.0000002259    0.0000005209    0.4596231496    0.0000005445 >
   -0.0000001464    0.9372037741   -0.0000004877    0.0000004249 >
   -0.0000004573   -0.6934713273    1.8113285730    0.0000004072 >
    1.8440850864   -0.2694220055   -0.4105093505    0.0000004269 >
   -0.0000006436    0.0000004204    0.1026240910   -0.9138392145 >
   -0.0000006433   -0.9395287732    0.2751287461
CT  4  -0.0000001487  -0.4968316889  -0.3896478132
    0.0000000774    0.3712442212    0.4596309434    0.3712442212 >
   -0.0000003579    0.0000008250    0.4596309434    0.0000008623 >
    0.0000002318   -0.9371981051    0.0000007725    0.0000006730 >
    0.0000007242    0.6934484163    1.8113242985    0.0000006449 >
    1.8440811171    0.2694397505   -0.4105148970    0.0000006761 >
    0.0000010193    0.0000006658    0.1026162929    0.9138507568 >
    0.0000010189    0.9395408186    0.2751417854
CT  1   0.7509159586  -0.0000008719   0.4895849787 -- FOR W= 0.233223I A.U.
   -0.4401048850    0.0000031131    0.0113609290    0.0000030472 >
    0.2201685301    0.0000016181   -0.1607639179    0.0000018610 >
    0.1077138553    0.0000020273    0.2073951387    0.0000018266 >
    0.2073951387   -0.0000018733    0.1822430759    0.0000019922 >
    0.1822430759    0.0000000480   -0.4819016152    0.0000027758 >
   -0.3015629602    0.0000027671    0.3420877232    0.0000019052 >
   -0.4137854598    0.0000020412    0.3119387389
CT  2  -0.7509159038  -0.0000005615   0.4895851557
    0.4401030248    0.0000020051    0.0113605483    0.0000019626 >
   -0.2201679253   -0.0000010422   -0.1607642924   -0.0000011986 >
   -0.1077125552    0.0000013057   -0.2073952566   -0.0000011765 >
   -0.2073952566   -0.0000012065    0.1822430751   -0.0000012831 >
    0.1822430751    0.0000000309   -0.4819016148   -0.0000017878 >
    0.3015633761   -0.0000017822    0.3420880808    0.0000012271 >
    0.4137859204    0.0000013147    0.3119383747
CT  3   0.0000000939   0.4968331223  -0.3896449382
   -0.0000000564   -0.3094213765    0.4147135490   -0.3094213765 >
    0.0000001967    0.0000004669    0.4147135490    0.0000004788 >
   -0.0000001399    0.8126601989   -0.0000004212    0.0000003337 >
   -0.0000004152   -0.6075225574    1.5513637227    0.0000003282 >
    1.5472540836   -0.2019146240   -0.3387131677    0.0000003759 >
   -0.0000005600    0.0000003838    0.1001762713   -0.7944879621 >
   -0.0000005656   -0.7912649446    0.2426465355
CT  4  -0.0000001487  -0.4968316889  -0.3896478132
    0.0000000893    0.3094246460    0.4147202047    0.3094246460 >
   -0.0000003116    0.0000007395    0.4147202047    0.0000007583 >
    0.0000002216   -0.8126554983    0.0000006671    0.0000005284 >
    0.0000006576    0.6075028043    1.5513602957    0.0000005197 >
    1.5472508954    0.2019298307   -0.3387180882    0.0000005953 >
    0.0000008869    0.0000006079    0.1001695123    0.7944980916 >
    0.0000008958    0.7912752283    0.2426579762
CT  1   0.7509159586  -0.0000008719   0.4895849787 -- FOR W= 0.385897I A.U.
   -0.3836947984    0.0000023651   -0.0064859714    0.0000025309 >
    0.2028543712    0.0000013227   -0.1633824874    0.0000013968 >
    0.0785465428    0.0000015469    0.1881184858    0.0000016281 >
    0.1881184858   -0.0000016678    0.1646552857    0.0000017783 >
    0.1646552857   -0.0000000174   -0.3892032544    0.0000020206 >
   -0.2514081933    0.0000021607    0.2786128270    0.0000015174 >
   -0.3537020778    0.0000015449    0.2674869435
CT  2  -0.7509159038  -0.0000005615   0.4895851557