!    test EFP2-EFP2 Charge Transfer cutoff
!    Based on input from Peng Xu, February 2012.
!
!    In this input file the CT cut-off
!    is set to 7.0 bohr (same for all fragment pairs).
!
!    Baseline:
!    Full CT: E(EFP)=-0.9365735284 E(CT)=-0.0245176770 
!    No CT:   E(EFP)=-0.9120558514
!
!    This input file:
!                 CHARGE TRANSFER ENRGY =  -0.0205795348
!                 FINAL EFP ENERGY      =  -0.9326353861
!
!    The results for different cutoffs are:
!
!     cutoff   E(CT)      E(EFP)
!     (bohr)    (au)       (au)
!     ===============================
!     3.0  0.0000000000 -0.9120558514
!     3.4  0.0000000000 -0.9120558514
!     3.8  0.0000000000 -0.9120558514
!     4.2  0.0000000000 -0.9120558514
!     4.6  0.0000000000 -0.9120558514
!     5.0  0.0000000000 -0.9120558514
!     5.4  0.0000000000 -0.9120558514
!     5.8  0.0000000000 -0.9120558514
!     6.2 -0.0021031988 -0.9141590502
!     6.6 -0.0165960420 -0.9286518934
!     7.0 -0.0205795348 -0.9326353861
!     7.4 -0.0229339432 -0.9349897945
!     7.8 -0.0245176770 -0.9365735284
!     8.2 -0.0245176770 -0.9365735284
!     8.6 -0.0245176770 -0.9365735284
!     9.0 -0.0245176770 -0.9365735284
!     9.4 -0.0245176770 -0.9365735284
!     9.8 -0.0245176770 -0.9365735284
!    10.2 -0.0245176770 -0.9365735284
!    10.6 -0.0245176770 -0.9365735284
!    11.0 -0.0245176770 -0.9365735284
!    11.4 -0.0245176770 -0.9365735284
!    11.8 -0.0245176770 -0.9365735284
!    12.2 -0.0245176770 -0.9365735284
!    12.6 -0.0245176770 -0.9365735284
!    13.0 -0.0245176770 -0.9365735284
!    13.4 -0.0245176770 -0.9365735284
!

 $contrl runtyp=energy coord=fragonly $end
 $system mwords=2 $end

 $efparm
   ! CT cutoff interfragment radius (bohr)
   ctcut(1)=7.0,7.0,7.0
 $end

 $efrag
iscrelec=0 iscrpol=0 iscrdisp=0 
FRAGNAME=NH4+
A01N                2.2702672421   1.7639962817  -1.4076460741
A02H                2.9547708400   2.2164404761  -0.8299009786
A03H                1.4508312623   2.3349209885  -1.5059354481
FRAGNAME=NO3-
A01N                1.6079418793  -1.4351958601  -2.2537753766
A02O                1.0522361158  -2.2956793733  -2.8554630080
A03O                1.2284842047  -1.0992408862  -1.1147543914
FRAGNAME=NH4+
A01N                1.5334644348  -1.4411155839   1.8412945384
A02H                0.9467919777  -2.1383142797   2.2617344590
A03H                1.5228235720  -1.5199675739   0.8409144693
FRAGNAME=NO3-
A01N                2.0793286801   1.9335369512   1.7535765359
A02O                2.0943565343   3.0639369423   1.3885576299
A03O                3.0439034375   1.1746094986   1.5348361987
FRAGNAME=NH4+
A01N               -1.8073006170  -1.6051950205  -1.4885910521
A02H               -2.1371698072  -0.6772432474  -1.6812880796
A03H               -1.9652216607  -2.2114201579  -2.2725828720
FRAGNAME=NO3-
A01N               -1.6731284840  -1.6171658746   1.9713709441
A02O               -1.2700120319  -1.3758206395   3.0624797295
A03O               -2.5753438068  -0.9304798430   1.4530153891
FRAGNAME=NH4+
A01N               -1.7437001920   2.0028646316   1.6347066931
A02H               -2.3128723475   2.6362542717   2.1656501377
A03H               -2.1764381957   1.0996329862   1.5714487943
FRAGNAME=NO3-
A01N               -1.1337623976   1.7724866207  -1.7736169334
A02O               -0.6224408195   1.3600656332  -2.7634290119
A03O               -0.5851511689   2.6569334605  -1.0873209453
 $end

          RUNTYP=MAKEFP EFFECTIVE FRAGMENT POTENTIAL DATA FOLLOWS...
          NH4+    EFP GENERATED AT Wed Nov 16 15:49:45 2011
 $NH4+    
EFP DATA FOR NH4+     SCFTYP=RHF     ... GENERATED WITH BASIS SET=XXX
 COORDINATES (BOHR)
A01N      -0.0894007557   1.1583948588   0.2723010511  14.0030700  7.0
A02H       1.2997195703   2.3079398431  -0.3151483455   1.0078250  1.0
A03H      -1.4740744061   2.1446960963   1.1127033364   1.0078250  1.0
A04H      -0.7700206116   0.0341126389  -1.1713664051   1.0078250  1.0
A05H       0.5831419057  -0.2725585008   1.4145032756   1.0078250  1.0
BO21       0.6051594073   1.7331673510  -0.0214236472   0.0000000  0.0
BO31      -0.7817375809   1.6515454775   0.6925021938   0.0000000  0.0
BO41      -0.4297106837   0.5962537488  -0.4495326770   0.0000000  0.0
BO51       0.2468705750   0.4429181790   0.8434021633   0.0000000  0.0
 STOP
 MONOPOLES 
A01N      -6.5988232180   7.00000
A02H      -0.6037638238   1.00000
A03H      -0.6039528049   1.00000
A04H      -0.5953954388   1.00000
A05H      -0.5956732787   1.00000
BO21      -0.2612047525   0.00000
BO31      -0.2539707215   0.00000
BO41      -0.2364889916   0.00000
BO51      -0.2507269702   0.00000
 STOP
 DIPOLES 
A01N        0.0003810108    0.0200159241    0.0026411263
A02H        0.0715226817    0.0618350568   -0.0298759098
A03H       -0.0712789631    0.0534125172    0.0435346079
A04H       -0.0285896833   -0.0617471157   -0.0621058316
A05H        0.0281146807   -0.0745608284    0.0460460398
BO21       -0.0826828784   -0.0684056335    0.0351666678
BO31        0.0873732234   -0.0547088695   -0.0522538603
BO41        0.0564848181    0.0527800946    0.1160916153
BO51       -0.0516084039    0.0865998884   -0.0903013073
 STOP
 QUADRUPOLES 
A01N       -3.5629392362   -3.5243980104   -3.5863471548    0.0019331537 >
           -0.0166144606    0.0072208235
A02H       -0.3133379175   -0.3145778378   -0.3140507829   -0.0001675741 >
           -0.0005686625    0.0000499194
A03H       -0.3135314041   -0.3147139601   -0.3143052401    0.0002808700 >
           -0.0005152048   -0.0001568684
A04H       -0.3110879108   -0.3153420353   -0.3072914648   -0.0003246545 >
            0.0027177213   -0.0009116355
A05H       -0.3110491760   -0.3152479178   -0.3072847764   -0.0003732304 >
            0.0027419016   -0.0010480754
BO21       -0.0755426099   -0.0832323071   -0.0942512993    0.0184740775 >
           -0.0097304990   -0.0078378471
BO31       -0.0567031937   -0.0693621654   -0.0739453296   -0.0129074875 >
           -0.0152124294    0.0083598579
BO41       -0.0436667679   -0.0380297740   -0.0239474467    0.0060112511 >
            0.0125815619    0.0130606665
BO51       -0.0759913968   -0.0664051535   -0.0686330696   -0.0114344202 >
            0.0072876960   -0.0205849759
 STOP
 OCTUPOLES  
A01N        0.0010069439    0.0779236227    0.0251830908   -0.0229995861 >
           -0.0022324968   -0.0148686125   -0.0075080395    0.0160921721 >
            0.0684515543    0.0649031478
A02H        0.0821614254    0.0794325496   -0.0362960710    0.0216673708 >
           -0.0088987640    0.0250043873   -0.0101999392    0.0285787118 >
            0.0267918347    0.0026736861
A03H       -0.0818991999    0.0703455914    0.0538024501    0.0190962693 >
            0.0137562664   -0.0262666106    0.0162563278   -0.0270632813 >
            0.0224552283    0.0032079908
A04H       -0.0262590773   -0.0730349134   -0.0507397234   -0.0237907212 >
           -0.0179644254   -0.0071836704   -0.0163332773   -0.0040762455 >
           -0.0191612579    0.0028480213
A05H        0.0256362251   -0.0815763044    0.0356933327   -0.0273419827 >
            0.0119674617    0.0055148914    0.0080617073    0.0053384719 >
           -0.0236152210    0.0032293562
BO21       -0.1681661614   -0.1324719937    0.0728979816   -0.0435386109 >
            0.0239205152   -0.0557980888    0.0240980511   -0.0562148481 >
           -0.0442130627   -0.0003646806
BO31        0.2021978309   -0.0848552502   -0.1155404513   -0.0261947717 >
           -0.0389534379    0.0681675188   -0.0389546039    0.0669945629 >
           -0.0282928264   -0.0012622049
BO41        0.1521595495    0.0892598911    0.3091227517    0.0329617592 >
            0.1035094051    0.0531315006    0.1059771979    0.0512650831 >
            0.0273633089   -0.0042870897
BO51       -0.1201896159    0.2157550713   -0.2086522623    0.0746976178 >
           -0.0692084905   -0.0391381064   -0.0687459238   -0.0403573667 >
            0.0715155944   -0.0023062370
 STOP
 POLARIZABLE POINTS
CT1   0.6855144131   1.7947688206  -0.0564042788
    2.3883789310    1.9944890348    1.1836009632    1.1624731034 >
   -0.6307936858   -0.4907655136    1.1889453528   -0.6278844792 >
   -0.4771200870
CT2   0.2943565597   0.4087297086   0.9317722340
    1.2896588321    2.5302229589    2.0310831464   -0.8301278450 >
    0.6613089919   -1.3351371793   -0.7835046322    0.6665124049 >
   -1.4254417713
CT3  -0.8618262511   1.7038574838   0.7407692207
    2.3793594992    1.7388152122    1.4482272959   -0.9857735869 >
   -0.8836882562    0.6276033230   -1.0126992772   -0.8871819015 >
    0.6137286833
CT4  -0.4768945409   0.5841363057  -0.5433074497
    1.2996876348    1.8774423961    2.6849836853    0.6601583835 >
    0.8449857803    1.2973714985    0.6139509960    0.8404410215 >
    1.3878799343
 STOP
 DYNAMIC POLARIZABLE POINTS
CT  1   0.6855144131   1.7947688206  -0.0564042788 -- FOR W= 0.002792I A.U.
    2.3883190957    1.9944607847    1.1835212799    1.1624330495 >
   -0.6307512877   -0.4907538203    1.1889232875   -0.6277419472 >
   -0.4770691773
CT  2   0.2943565597   0.4087297086   0.9317722340
    1.2896680919    2.5302193505    2.0310285708   -0.8302345922 >
    0.6614025807   -1.3351243603   -0.7834957399    0.6665238273 >
   -1.4254595651
CT  3  -0.8618262511   1.7038574838   0.7407692207
    2.3792882765    1.7387929349    1.4482033013   -0.9857380513 >
   -0.8836300923    0.6275926055   -1.0126791396   -0.8871658600 >
    0.6136825703
CT  4  -0.4768945409   0.5841363057  -0.5433074497
    1.2997026417    1.8774629308    2.6850690319    0.6602462061 >
    0.8451147796    1.2973857706    0.6139579824    0.8405200136 >
    1.3879468019
CT  1   0.6855144131   1.7947688206  -0.0564042788 -- FOR W= 0.015107I A.U.
    2.3873715333    1.9937248377    1.1831824659    1.1618317192 >
   -0.6304361796   -0.4904925634    1.1883006875   -0.6274291261 >
   -0.4768187999
CT  2   0.2943565597   0.4087297086   0.9317722340
    1.2892596856    2.5291420903    2.0301688257   -0.8297575052 >
    0.6610097070   -1.3344174027   -0.7830787380    0.6661242416 >
   -1.4246360956
CT  3  -0.8618262511   1.7038574838   0.7407692207
    2.3783454381    1.7381903203    1.4477257505   -0.9852255122 >
   -0.8831838233    0.6272658641   -1.0121448325   -0.8867164443 >
    0.6133669098
CT  4  -0.4768945409   0.5841363057  -0.5433074497
    1.2992885037    1.8767433855    2.6838486113    0.6598696530 >
    0.8446166806    1.2967117186    0.6136410165    0.8400277666 >
    1.3871560362
CT  1   0.6855144131   1.7947688206  -0.0564042788 -- FOR W= 0.039002I A.U.
    2.3818312012    1.9894213074    1.1812006431    1.1583168354 >
   -0.6285941189   -0.4889655434    1.1846615036   -0.6256004362 >
   -0.4753553645
CT  2   0.2943565597   0.4087297086   0.9317722340
    1.2868718316    2.5228444425    2.0251446855   -0.8269700127 >
    0.6587146528   -1.3302852264   -0.7806413804    0.6637900792 >
   -1.4198249782
CT  3  -0.8618262511   1.7038574838   0.7407692207
    2.3728327158    1.7346661404    1.4449330100   -0.9822296738 >
   -0.8805751092    0.6253559865   -1.0090217886   -0.8840893538 >
    0.6115217930
CT  4  -0.4768945409   0.5841363057  -0.5433074497
    1.2968671564    1.8725362524    2.6767167026    0.6576694550 >
    0.8417068051    1.2927713108    0.6117880495    0.8371519932 >
    1.3825355082
CT  1   0.6855144131   1.7947688206  -0.0564042788 -- FOR W= 0.077996I A.U.
    2.3625218691    1.9744158536    1.1742827976    1.1460807429 >
   -0.6221788699   -0.4836506552    1.1719930709   -0.6192317666 >
   -0.4702616990
CT  2   0.2943565597   0.4087297086   0.9317722340
    1.2785504313    2.5009093323    2.0076706139   -0.8172816032 >
    0.6507431668   -1.3159017978   -0.7721576626    0.6556840881 >
   -1.4031056839
CT  3  -0.8618262511   1.7038574838   0.7407692207
    2.3536194630    1.7223737363    1.4351925073   -0.9718011023 >
   -0.8714910445    0.6187070947   -0.9981508495   -0.8749415514 >
    0.6050982138
CT  4  -0.4768945409   0.5841363057  -0.5433074497
    1.2884292855    1.8578734757    2.6519109369    0.6500209815 >
    0.8315981631    1.2790479377    0.6053342454    0.8271606968 >
    1.3664721695
CT  1   0.6855144131   1.7947688206  -0.0564042788 -- FOR W= 0.138651I A.U.
    2.3089127823    1.9327012736    1.1549881563    1.1122249987 >
   -0.6044072234   -0.4689535737    1.1369448069   -0.6015891704 >
   -0.4561753027
CT  2   0.2943565597   0.4087297086   0.9317722340
    1.2554513963    2.4401225815    1.9594460060   -0.7905984977 >
    0.6288320607   -1.2761181250   -0.7486949165    0.6334138337 >
   -1.3570788715
CT  3  -0.8618262511   1.7038574838   0.7407692207
    2.3002759275    1.6881653966    1.4080906549   -0.9429515154 >
   -0.8463357285    0.6003092763   -0.9680816991   -0.8496118299 >
    0.5873223496
CT  4  -0.4768945409   0.5841363057  -0.5433074497
    1.2650090219    1.8171665691    2.5834479121    0.6289455834 >
    0.8037991559    1.2410308593    0.5874521768    0.7996754789 >
    1.3222006561
CT  1   0.6855144131   1.7947688206  -0.0564042788 -- FOR W= 0.233223I A.U.
    2.1785213782    1.8309020139    1.1074997739    1.0306048850 >
   -0.5614303622   -0.4335792673    1.0524824549   -0.5589229929 >
   -0.4222591365
CT  2   0.2943565597   0.4087297086   0.9317722340
    1.1992482506    2.2929819508    1.8438354782   -0.7269903866 >
    0.5768599408   -1.1802973351   -0.6922011197    0.5806505371 >
   -1.2474719423
CT  3  -0.8618262511   1.7038574838   0.7407692207
    2.1705231258    1.6044583623    1.3417981293   -0.8734311334 >
   -0.7855619042    0.5559533164   -0.8956580392   -0.7884300332 >
    0.5444512971
CT  4  -0.4768945409   0.5841363057  -0.5433074497
    1.2080376839    1.7181882325    2.4193266109    0.5786424566 >
    0.7377802692    1.1491282264    0.5442023550    0.7343504720 >
    1.2164850572
CT  1   0.6855144131   1.7947688206  -0.0564042788 -- FOR W= 0.385897I A.U.
    1.8997621342    1.6115999550    1.0031105034    0.8597688756 >
   -0.4708366325   -0.3598650883    0.8759509597   -0.4689629240 >
   -0.3514761294
CT  2   0.2943565597   0.4087297086   0.9317722340
    1.0784975588    1.9819740191    1.6037486809   -0.5969121363 >
    0.4717474558   -0.9802530270   -0.5743492815    0.4741865666 >
   -1.0237593363
CT  3  -0.8618262511   1.7038574838   0.7407692207
    1.8930947993    1.4229922043    1.1981429853   -0.7280698162 >
   -0.6577356628    0.4631521214   -0.7444917132   -0.6598144969 >
    0.4546343889
CT  4  -0.4768945409   0.5841363057  -0.5433074497
    1.0857079674    1.5069059378    2.0789353798    0.4754938973 >
    0.6038972439    0.9559191229    0.4531707373    0.6016632841 >
    0.9995544380
CT  1   0.6855144131   1.7947688206  -0.0564042788 -- FOR W= 0.649114I A.U.
    1.4138057024    1.2231870770    0.8097531745    0.5758464393 >
   -0.3181341492   -0.2386783253    0.5838671073   -0.3171884077 >
   -0.2345055218
CT  2   0.2943565597   0.4087297086   0.9317722340
    0.8623136453    1.4522935388    1.2026097948   -0.3888657841 >
    0.3069270567   -0.6499497641   -0.3800873782    0.3078580402 >
   -0.6668268522
CT  3  -0.8618262511   1.7038574838   0.7407692207
    1.4093424303    1.0972867864    0.9398655036   -0.4869866332 >
   -0.4432118912    0.3092752549   -0.4951150414   -0.4442130655 >
    0.3050478900
CT  4  -0.4768945409   0.5841363057  -0.5433074497
    0.8669903267    1.1398587667    1.5146321735    0.3097527577 >
    0.3929583350    0.6338842761    0.3010820335    0.3920827930 >
    0.6508160370
CT  1   0.6855144131   1.7947688206  -0.0564042788 -- FOR W= 1.153904I A.U.
    0.8059830474    0.7222216911    0.5348053589    0.2576721959 >
   -0.1431720105   -0.1055378109    0.2594369077   -0.1429537965 >
   -0.1046095741
CT  2   0.2943565597   0.4087297086   0.9317722340
    0.5644941441    0.8128531544    0.7141283998   -0.1668651904 >
    0.1346986461   -0.2845271511   -0.1658109881    0.1347984855 >
   -0.2865362615
CT  3  -0.8618262511   1.7038574838   0.7407692207
    0.8039952308    0.6661761074    0.5927735471   -0.2177242839 >
   -0.1990773854    0.1377028123   -0.2195138328   -0.1992916005 >
    0.1367713988
CT  4  -0.4768945409   0.5841363057  -0.5433074497
    0.5664807358    0.6777594514    0.8488184667    0.1320947134 >
    0.1714538613    0.2751980615    0.1310653272    0.1713500194 >
    0.2772103783
CT  1   0.6855144131   1.7947688206  -0.0564042788 -- FOR W= 2.307592I A.U.
    0.3088631099    0.2893354789    0.2463145216    0.0609955612 >
   -0.0327579131   -0.0249584403    0.0608695490   -0.0327729014 >
   -0.0250235562
CT  2   0.2943565597   0.4087297086   0.9317722340
    0.2574652930    0.3074110690    0.2947070579   -0.0370437421 >
    0.0327619464   -0.0635925497   -0.0368177266    0.0327863838 >
   -0.0640336850
CT  3  -0.8618262511   1.7038574838   0.7407692207
    0.3084038857    0.2761419774    0.2600300962   -0.0518130412 >
   -0.0459911042    0.0322345569   -0.0516920437   -0.0459805715 >
    0.0323018899
CT  4  -0.4768945409   0.5841363057  -0.5433074497
    0.2578908412    0.2777042872    0.3243053948    0.0285778072 >
    0.0407996643    0.0593407146    0.0283567989    0.0407796780 >
    0.0597796362
CT  1   0.6855144131   1.7947688206  -0.0564042788 -- FOR W= 5.957643I A.U.
    0.0590576806    0.0569955213    0.0528773378    0.0066117388 >
   -0.0031236060   -0.0027658598    0.0065281372   -0.0031355985 >
   -0.0028111924
CT  2   0.2943565597   0.4087297086   0.9317722340
    0.0547040380    0.0584443694    0.0593175584   -0.0037282639 >
    0.0038841291   -0.0061581378   -0.0035254773    0.0039077972 >
   -0.0065530951
CT  3  -0.8618262511   1.7038574838   0.7407692207
    0.0590096699    0.0555697023    0.0543740692   -0.0057188629 >
   -0.0045634927    0.0034197973   -0.0056366912   -0.0045557686 >
    0.0034644789
CT  4  -0.4768945409   0.5841363057  -0.5433074497
    0.0547408468    0.0555991266    0.0621543640    0.0027221903 >
    0.0046683496    0.0052468979    0.0025208309    0.0046489487 >
    0.0056425075
CT  1   0.6855144131   1.7947688206  -0.0564042788 -- FOR W=32.239080I A.U.
    0.0021557641    0.0020953422    0.0019801341    0.0001984565 >
   -0.0000866871   -0.0000841391    0.0001952013   -0.0000871761 >
   -0.0000859232
CT  2   0.2943565597   0.4087297086   0.9317722340
    0.0020412055    0.0021304977    0.0021896119   -0.0001092771 >
    0.0001226362   -0.0001750623   -0.0000996534    0.0001237584 >
   -0.0001937934
CT  3  -0.8618262511   1.7038574838   0.7407692207
    0.0021543365    0.0020525435    0.0020252539   -0.0001733501 >
   -0.0001300171    0.0001016951   -0.0001701558   -0.0001297249 >
    0.0001034379
CT  4  -0.4768945409   0.5841363057  -0.5433074497
    0.0020421590    0.0020497234    0.0022701791    0.0000774827 >
    0.0001452600    0.0001409543    0.0000679197    0.0001443347 >
    0.0001597268
 STOP
 PROJECTION BASIS SET
A01N        -0.0894007557   1.1583948588   0.2723010511    5.0
   S          6
     1      4173.5114600000     0.67899792
     2       627.4579110000     1.25043140
     3       142.9020930000     2.02035647
     4        40.2343293000     2.64421231
     5        12.8202129000     2.26500482
     6         4.3904370100     0.77918790
   L          3
     7        11.6263618604    -0.51587465     2.06805186
     8         2.7162798073    -0.25502307     1.61001139
     9         0.7722183966     0.67273451     0.76449036
   L          1
    10         0.2120314975     0.22269495     0.20508815
   L          1
    11         0.0639000000     0.09058071     0.04579480
   D          1
    12         0.8000000000     1.11382493
   F          1
    13         1.0000000000     1.47215809
  
A02H         1.2997195703   2.3079398431  -0.3151483455    1.0
   S          3
    14        18.7311369600     0.21493545
    15         2.8253943648     0.36457120
    16         0.6401216923     0.41505143
   S          1
    17         0.1612777588     0.18138065
   S          1
    18         0.0360000000     0.05890294
   P          1
    19         1.1000000000     1.60576114
  
A03H        -1.4740744061   2.1446960963   1.1127033364    1.0
   S          3
    20        18.7311369600     0.21493545
    21         2.8253943648     0.36457120
    22         0.6401216923     0.41505143
   S          1
    23         0.1612777588     0.18138065
   S          1
    24         0.0360000000     0.05890294
   P          1
    25         1.1000000000     1.60576114
  
A04H        -0.7700206116   0.0341126389  -1.1713664051    1.0
   S          3
    26        18.7311369600     0.21493545
    27         2.8253943648     0.36457120
    28         0.6401216923     0.41505143
   S          1
    29         0.1612777588     0.18138065
   S          1
    30         0.0360000000     0.05890294
   P          1
    31         1.1000000000     1.60576114
  
A05H         0.5831419057  -0.2725585008   1.4145032756    1.0
   S          3
    32        18.7311369600     0.21493545
    33         2.8253943648     0.36457120
    34         0.6401216923     0.41505143
   S          1
    35         0.1612777588     0.18138065
   S          1
    36         0.0360000000     0.05890294
   P          1
    37         1.1000000000     1.60576114
  
 STOP
 MULTIPLICITY    1
 STOP
 PROJECTION WAVEFUNCTION    4  53
 1  1-1.05939898E-01 2.23944120E-01 3.21294276E-01 2.64465146E-01-1.36430372E-01
 1  2 2.31406460E-01 1.88292079E-01 1.52218102E-01-8.02937552E-02 8.36983375E-03
 1  3-1.34624017E-02-1.43513582E-02 5.33320988E-03 6.76271681E-03-4.56387932E-04
 1  4-7.44734977E-03 1.66268643E-02-8.40516788E-03-7.26764089E-03 1.84397642E-03
 1  5 1.98582386E-03-1.83546844E-04 1.51023366E-03-1.40385153E-03 2.09443213E-03
 1  6-5.07686117E-04 3.06125124E-04-6.64593711E-04-1.29005116E-03 3.06855534E-01
 1  7 7.22644855E-02 2.98781036E-02-1.84848110E-02-1.54382211E-02 7.79219267E-03
 1  8-2.09183713E-02-3.36631717E-02-8.37548342E-03 6.94626727E-03 4.96656077E-03
 1  9-3.04087713E-03-2.32918140E-02-3.52432900E-02-9.58640570E-03 5.79391245E-03
 1 10 5.11163956E-03-3.11519478E-03-2.32256430E-02-3.53582770E-02-9.63134416E-03
 1 11 6.36402738E-03 5.02447243E-03-2.06649337E-03
 2  1 9.90330246E-02-2.06244469E-01-1.66546418E-01 2.92050338E-01-2.89975962E-01
 2  2-2.19122161E-01-1.00824666E-01 1.72557153E-01-1.76107981E-01-1.35442871E-02
 2  3 7.80524948E-03-1.30159618E-02 1.35779983E-02 8.00000993E-03-6.79845673E-03
 2  4 5.42719805E-04 1.08006771E-02-7.93701786E-03 1.84813694E-02-1.70897721E-03
 2  5 3.37510856E-03-2.61419793E-03 2.85508136E-04-1.27651558E-03-1.75167544E-03
 2  6-2.92991272E-03-2.32608141E-04 3.27795422E-04 2.07723635E-04 1.86028241E-02
 2  7 3.39011088E-02 9.20231716E-03-2.91450932E-03 5.89955935E-03-6.19457924E-03
 2  8 1.86352310E-02 3.39269790E-02 9.23858290E-03-3.88890556E-03 5.83184710E-03
 2  9-5.69573069E-03 1.25865580E-02 4.59057720E-02 1.21858426E-02-5.11751665E-03
 2 10 4.65534072E-03-9.38569924E-03-3.03301089E-01-8.85632882E-02-3.03155848E-02
 2 11 8.37302509E-03-1.85482688E-02 1.41324216E-02
 3  1 1.05885557E-01-2.23790183E-01 3.20286752E-01-2.26887660E-01-1.94396516E-01
 3  2-2.31291633E-01 1.87710768E-01-1.30182802E-01-1.13649993E-01-8.52471261E-03
 3  3-1.33994324E-02 1.28140527E-02 8.50339180E-03-6.64836519E-03 3.62097885E-03
 3  4 4.19110323E-03 1.42525121E-02 1.20597148E-02-8.39470191E-03 1.83819977E-03
 3  5-1.52810693E-03 7.51455399E-05-1.13254258E-03-1.70509529E-03 1.49068161E-03
 3  6-1.29926559E-03 9.18913923E-04 2.23502466E-04 1.61010265E-03 2.08733380E-02
 3  7 3.36660540E-02 8.36378886E-03 6.93577330E-03-4.14813896E-03-4.11709683E-03
 3  8-3.06877914E-01-7.23302397E-02-2.98756485E-02-1.84225762E-02 1.32602697E-02
 3  9 1.11921403E-02 2.31893685E-02 3.54218633E-02 9.63410023E-03 6.33390836E-03
 3 10-4.43910391E-03-3.18336342E-03 2.32125561E-02 3.53868448E-02 9.65609598E-03
 3 11 5.80276830E-03-4.31001965E-03-4.21435716E-03
 4  1 9.89997656E-02-2.06167448E-01 1.67706146E-01 2.15703411E-01 3.49862424E-01
 4  2-2.19304965E-01 1.01584574E-01 1.26464466E-01 2.11482583E-01-1.35092552E-02
 4  3-7.82725420E-03-9.46594915E-03-1.62815628E-02 7.87491511E-03 8.84651426E-04
 4  4-7.03402462E-03-8.73432684E-03-1.03311906E-02-1.83328248E-02 1.71537235E-03
 4  5 1.66902147E-03 2.98320486E-03-4.37024216E-06 1.33451226E-03 1.60481441E-03
 4  6 3.43549049E-03 3.96945646E-04 9.71014482E-04 5.98240205E-04 1.86748431E-02
 4  7 3.38006980E-02 9.18979650E-03 3.89034618E-03 4.30765898E-03 6.89044624E-03
 4  8 1.86068862E-02 3.39613166E-02 9.22976199E-03 2.93388813E-03 4.28021263E-03
 4  9 7.40216912E-03-3.03116413E-01-8.87941009E-02-3.03246253E-02-8.47753261E-03
 4 10-1.47202247E-02-1.80409224E-02 1.25751557E-02 4.59290330E-02 1.22030432E-02
 4 11 5.13129297E-03 2.32236300E-03 1.02236223E-02
 FOCK MATRIX ELEMENTS
   -1.1518883299    0.1322451242   -1.1290327880    0.1399357371 >
   -0.1321622171   -1.1517947345    0.1319737725   -0.1565954072 >
   -0.1322641623   -1.1285470269
 LMO CENTROIDS
CT1   0.6855144131   1.7947688206  -0.0564042788
CT2   0.2943565597   0.4087297086   0.9317722340
CT3  -0.8618262511   1.7038574838   0.7407692207
CT4  -0.4768945409   0.5841363057  -0.5433074497
 STOP
 CTVEC                       5                      9
 1  1 9.94970660E-01 2.49212951E-02-5.19867544E-07-1.00675051E-04-1.04770449E-05
 1  2-9.77719715E-04 3.85584109E-07 3.48369133E-05 3.46240090E-06 1.83256202E-04
 1  3 2.52289240E-07 2.80737849E-05 2.96715878E-06-2.87259835E-03-2.85497377E-03
 1  4-3.09743817E-03 2.15141378E-05-1.83742196E-04 3.12767349E-05 2.90748327E-06
 1  5-2.36450267E-05-7.81815079E-05 5.53740569E-04 6.26703186E-05 1.41427621E-04
 1  6 7.22346215E-05-1.42956768E-04-2.92359843E-04-6.89500360E-04-4.67237376E-04
 1  7 3.16204001E-04-8.88727775E-05 4.19487181E-04 3.42586184E-04-1.77759957E-04
 1  8-4.66256765E-04 3.16870220E-04-8.83908591E-05-4.17688606E-04 2.92936495E-04
 1  9 2.53150707E-04-2.26409732E-04 2.99612814E-04-4.59250286E-05-1.57853631E-04
 1 10-2.46231527E-04-3.33010187E-04-2.31083677E-04 3.01227611E-04-4.59122992E-05
 1 11 1.57017956E-04-3.19519781E-04 2.68495143E-04
 2  1-2.04967057E-01 4.30171995E-01-8.71969588E-06-5.20384933E-03-4.06899420E-04
 2  2 4.50627644E-01-4.77595255E-05-6.56690709E-03-6.82403823E-04 2.19429524E-02
 2  3-2.37462126E-05-2.49069239E-03-2.60170009E-04-1.14342060E-03 8.90000177E-04
 2  4-2.63028784E-03 1.60331205E-04-1.21625306E-03 4.83562240E-04 5.00158923E-07
 2  5-7.39721533E-04-3.11930867E-04 1.18953424E-03 1.23602058E-04 3.77438415E-04
 2  6 1.48802347E-04-3.89797790E-04-1.09198788E-03-1.85926141E-03 1.25310143E-01
 2  7-1.42356228E-02 1.67971222E-03-1.32693442E-02-1.07511613E-02 5.64819804E-03
 2  8 1.25350269E-01-1.42827850E-02 1.63866505E-03 1.32379934E-02-9.19859771E-03
 2  9-8.00418246E-03 1.20914682E-01-1.42692691E-02-6.65729657E-04 6.48311082E-03
 2 10 9.80059651E-03 1.36623413E-02 1.21211344E-01-1.43600562E-02-6.88528096E-04
 2 11-6.43043678E-03 1.27649664E-02-1.10245505E-02
 3  1-5.65773670E-03 1.50618713E-02 4.48616285E-03 4.99918768E-01 5.59425849E-02
 3  2 9.41280913E-03 2.65507075E-03 2.90948881E-01 3.26000082E-02-5.21300068E-03
 3  3-1.82317963E-04-2.48228275E-02-2.80570155E-03 1.46504903E-02-4.99321828E-03
 3  4-9.05715128E-03 2.43706570E-03-1.93328926E-02 5.95215132E-04 2.33289452E-05
 3  5 4.28878380E-03 4.79009193E-05 1.45747740E-03 1.55972245E-04 2.42916483E-04
 3  6 6.27013176E-04-2.15355234E-04 2.08290163E-04-1.03447797E-03 1.62865802E-01
 3  7 5.38805723E-02 2.01756519E-02-1.22225939E-02-5.93365170E-04 6.27087712E-03
 3  8 1.58842764E-01 5.27170471E-02 1.97408937E-02 1.20463934E-02 1.07814775E-03
 3  9-6.18496392E-03-1.68755052E-01-5.64841483E-02-1.86105330E-02-7.02757396E-03
 3 10-2.82844354E-04-1.37867684E-02-1.69789672E-01-5.68052817E-02-1.87596979E-02
 3 11 7.15054097E-03-3.55004533E-03 1.32859561E-02
 4  1-4.44074065E-06 1.01146967E-05 4.54751827E-01 2.20148392E-02-2.32288199E-01
 4  2 3.16714181E-05 2.66531811E-01 1.29237161E-02-1.36133263E-01-6.29719822E-05
 4  3-1.90451343E-02-8.61785621E-04 9.70896847E-03-4.57306258E-05 2.30636952E-03
 4  4-2.25002283E-03 2.17496087E-02 2.74256202E-03-1.12028393E-02 2.61495455E-03
 4  5 2.81020069E-04-5.84601098E-05 2.53650685E-04-2.19105880E-03 2.54423032E-03
 4  6-1.26194345E-03 8.70176764E-04-3.11636623E-04 2.36387173E-04 2.30352737E-01
 4  7 7.44410606E-02 2.68682338E-02-8.03971671E-03-1.38509641E-02 2.58872864E-03
 4  8-2.33151288E-01-7.54052340E-02-2.72181555E-02-8.19521884E-03 1.28735518E-02
 4  9 5.86021439E-03 3.37978888E-04 1.63135435E-04 5.23845000E-05 8.62565183E-03
 4 10 4.14219128E-04-4.36303966E-03 2.51193323E-03 9.55668402E-04 3.20412780E-04
 4 11 8.53065764E-03 6.06126897E-04-4.56949023E-03
 5  1 4.58793945E-05-8.43503754E-05 2.34216409E-01-5.30158206E-02 4.53657889E-01
 5  2-2.88429945E-04 1.41873253E-01-3.20272805E-02 2.74785044E-01 5.16130634E-06
 5  3-1.09643937E-02 2.46209125E-03-2.11659728E-02-5.63615557E-05 5.41088997E-03
 5  4-5.36538962E-03-1.39111227E-02-1.74690110E-03-2.59779018E-02 2.40910794E-03
 5  5-1.19823659E-03 3.95851808E-03-2.03523099E-04 1.85693850E-03 2.36177849E-03
 5  6 4.50832905E-03 4.40749348E-04 4.57184213E-04 2.73544256E-04-7.37973650E-04
 5  7-3.01499924E-04-9.31968358E-05 4.82887216E-03-1.05721109E-03 9.25160837E-03
 5  8 1.37243766E-03 4.99319659E-04 1.64057670E-04 4.88380499E-03-1.15204211E-03
 5  9 9.22396689E-03-2.23650385E-01-9.53647340E-02-3.00997482E-02-2.43432973E-03
 5 10-1.37072406E-02-6.13463968E-03 2.22937001E-01 9.49810722E-02 3.00241390E-02
 5 11-2.31469392E-03 1.47424102E-02-2.70950373E-03
 6  1-1.34683035E-01 6.70347330E-01-5.50404622E-04-4.40729134E-02-5.93555615E-03
 6  2 7.39054932E-01-3.67705649E-04-2.81510558E-02-3.84215967E-03-5.65007710E-02
 6  3-4.36815053E-05-3.73001752E-03-4.41324829E-04-1.90726572E-02-1.77729115E-02
 6  4-1.83526824E-02-6.34526284E-05 5.85302842E-04 8.29147755E-05-2.11901356E-05
 6  5 1.39262336E-04 5.42353062E-04-2.93250793E-03-3.44681868E-04-8.47538540E-04
 6  6-5.33454106E-04 8.62966536E-04 2.13585057E-03 4.14368472E-03-9.99268220E-02