!   NVE MD trajectory...64 CCl4 molecules modeled by EFP2
!   this test case came from Lyuda
!   the main point of the test is the RDF values at the end,
!   but one should also check the very short trajectory data.
!
!   The MD simulation is analyzed to obtain the radial
!   distribution functions.  The MD simulation is done in
!   a box with periodic boundary conditions applied.
!
!*** AT T=          0.00 FSEC, THIS RUN'S STEP NO.=       0
!    ELEC ENERGY      =        -226.00764536 KCAL/MOL
!    POLZ ENERGY      =          -3.66206663 KCAL/MOL
!    DISP ENERGY      =        -487.16552220 KCAL/MOL
!    CH-TR ENRGY      =           0.00000000 KCAL/MOL
!    REP  ENERGY      =         430.32002351 KCAL/MOL
!    POT  ENERGY      =        -286.51521068 KCAL/MOL
!
!         after a simulation far too short to generate meaningful RDFs,
!*** AT T=          5.00 FSEC, THIS RUN'S STEP NO.=       5
!    ELEC ENERGY      =        -226.05070772 KCAL/MOL
!    POLZ ENERGY      =          -3.66348092 KCAL/MOL
!    DISP ENERGY      =        -487.36959909 KCAL/MOL
!    CH-TR ENRGY      =           0.00000000 KCAL/MOL
!    REP  ENERGY      =         430.60725232 KCAL/MOL
!    POT  ENERGY      =        -286.47653539 KCAL/MOL
!    TRANS    KE      =          51.95335917 KCAL/MOL
!    ROT      KE      =          65.47279056 KCAL/MOL
!    TOT      KE      =         117.42614973 KCAL/MOL
!    TOTAL ENERGY     =        -169.05038567 KCAL/MOL  0.00000000
!
!    TEMPERATURE      =         307.76449557 K
!    PRESSURE(AVERAGE)=           -9150.5372 BAR    (          -9150.1577 BAR)
!    DIFFUSION        =          95.18702220 ANG^2/PS
!    HEAT OF VAP      =           5.08769579 KCAL/MOL*K
!      ROT.KE TEMP =     343.20
!    TRANS.KE TEMP =     272.33
!
!  Periodic Boundary Condition coords: 
!     FRAGNAME=CCL4    !  30
!     C1                 6.423783559273   15.716301833353   10.323053111014
!     CL2                7.985710438193   14.984696934123    9.916656584918
!     CL3                5.248130603602   15.343844454844    9.050600727185
!     CL4                5.849653585350   15.063499219694   11.867152512180
!     CL5                6.611641201066   17.473165979472   10.457802205781
!
!    we obtain these RDF values (only selected radii shown)
!    C-C    5.190     0.7441666824
!    C-Cl   4.470     1.2038460453
!   Cl-Cl   3.610     0.6152476334
!
!   this run takes 85 seconds on 2.66 GHz Cloverton ( 6 Oct 2015)
!
 $CONTRL RUNTYP=md coord=fragonly $end
 $system mwords=10 $end
 $md     mdint=vverlet nsteps=5 dt=1.0d-15
         batht=300.0 mbt=.true. mbr=.true.
         jevery=1 kevery=5 prod=.true. delr=0.02 pbcout=.true. $end
 $mdprp  pressr=.true. difusn=.true. htvap=.true. $end

 $RDF
 nrdf=3
CC       CCL4       CCL4     1
 dum   1      1
STOP
CCl      CCl4       CCl4     8
  dum   1   2
  dum   1   3
  dum   1   4
  dum   1   5
  dum   2   1
  dum   3   1
  dum   4   1
  dum   5   1
STOP
ClCl     CCl4       CCl4    16
  dum   2   2
  dum   2   3
  dum   2   4
  dum   2   5
  dum   3   2
  dum   3   3
  dum   3   4
  dum   3   5
  dum   4   2
  dum   4   3
  dum   4   4
  dum   4   5
  dum   5   2
  dum   5   3
  dum   5   4
  dum   5   5
STOP
 $end

 $efrag
iscrelec=0 iscrpol=1 iscrdisp=1  >
nodisp7 >
swr1=8.0 swr2=10.0 xbox=21.77 ybox=21.77 zbox=21.77
FRAGNAME=CCL4    !  1
C1                3.1489766791367   1.6857922507990   6.1679311773711
CL2               1.7980686980582   1.2246238992874   7.2178625934914
CL3               4.2769038782465   0.3265936277715   6.0252990035673
FRAGNAME=CCL4    !  2
C1               10.7079893447071   2.2711976615775   9.3614422066113
CL2              12.3311692030058   2.9728891490114   9.2477975734967
CL3              10.7864561745505   0.5389518312649   8.9965227106402
FRAGNAME=CCL4    !  3
C1               14.3674173658659  -1.2206062099765   7.4564534322955
CL2              12.7938230217058  -1.1500131935602   6.6447722649272
CL3              14.9853107388829   0.4235288212601   7.6910523028050
FRAGNAME=CCL4    !  4
C1               19.4919731845851   0.6427975034656   8.9485307024651
CL2              21.0523660901924   1.3893370586178   9.3330619139007
CL3              19.4492635002088  -1.0049756895320   9.5989390104882
FRAGNAME=CCL4    !  5
C1                0.6256630842897   6.4424091987537   5.1954350500860
CL2               1.8319225135019   5.5440758037629   4.2584302758416
CL3              -0.8958238974606   6.5094131017561   4.2895484747219
FRAGNAME=CCL4    !  6
C1                6.3804648683662   6.2120928037870   7.7978940889917
CL2               6.7103379359152   5.7493721324157   6.1194745205455
CL3               6.4001275677113   4.7673069196544   8.8236747845688
FRAGNAME=CCL4    !  7
C1               11.6510711152536   6.4685601379526   5.4121715470111
CL2              12.8005780582504   7.7080105373900   4.8807456169066
CL3              10.1205495649416   6.6705783155752   4.5422810574702
FRAGNAME=CCL4    !  8
C1               16.3970167098667   4.8937162554114   6.7496278490308
CL2              15.6193860216185   3.3662459389875   6.3000315133987
CL3              18.1448554576294   4.6445164670852   6.9011900382272
FRAGNAME=CCL4    !  9
C1                6.2464533983429  14.6421980437931   3.9440847802240
CL2               5.1915901307148  13.4201399971549   4.6747401790553
CL3               5.5876999964060  15.1275580473746   2.3723057509241
FRAGNAME=CCL4    ! 10
C1                9.9783123231178  11.0477488078887   7.3845759574830
CL2               9.1432268440791   9.9607736496360   6.2615820400791
CL3              11.4282103817505  11.7028020443191   6.6043843351851
FRAGNAME=CCL4    ! 11
C1               14.7208323578351  10.2028133904163   9.4822559832745
CL2              14.3185153756631   9.9557146133999  11.1902069372329
CL3              16.4733197641196  10.0608387163084   9.2617014467015
FRAGNAME=CCL4    ! 12
C1               22.1012551341188  13.0714326369849   4.1608313150498
CL2              20.5709490758914  13.8265049671732   3.6832810692466
CL3              22.3211409825173  11.5612815405209   3.2602098782328
FRAGNAME=CCL4    ! 13
C1                1.1866414230830  18.6047860182210   3.4914554794977
CL2               1.1023901913763  20.0040633824204   4.5754030658760
CL3               2.7189454293035  17.7519491875649   3.7458794461730
FRAGNAME=CCL4    ! 14
C1                7.8507246884641  20.0452012660894   6.1488908331424
CL2               9.4150560378335  19.2239056050323   6.2844549513519
CL3               7.2404544642599  19.8839304887508   4.4931134466968
FRAGNAME=CCL4    ! 15
C1               13.3746700344400  15.1318273670024   4.9515086762666
CL2              14.3927483487862  14.0494308121512   5.9168860059628
CL3              13.6803273599606  14.8499974279585   3.2289627031201
FRAGNAME=CCL4    ! 16
C1               18.9198488037289  15.6291284567167   9.0653359935336
CL2              18.9688717848678  15.0594627874985  10.7425640252617
CL3              17.5244877910124  14.9144807154527   8.2393442575705
FRAGNAME=CCL4    ! 17
C1                5.1389119565827   0.3036291951431  11.2197294035762
CL2               3.3762502320207   0.3135733221916  11.4011729689553
CL3               5.7922066970470   1.8756661675653  11.7115655020258
FRAGNAME=CCL4    ! 18
C1                8.4266687121696   3.0821722626868  14.9712128615220
CL2               9.0911200657489   4.1692323653102  16.2028043228407
CL3               6.8982644549962   2.3975370605853  15.5502360581918
FRAGNAME=CCL4    ! 19
C1               14.4168520042777   2.3992106681020  12.8137204481167
CL2              12.9319587937837   3.0616327507667  13.5182179254733
CL3              15.6483197696591   2.2357095519298  14.0773588796365
FRAGNAME=CCL4    ! 20
C1               19.8223330940111   1.6479186315027  15.1448741869612
CL2              19.7811433110624   1.4849308186653  13.3808589888535
CL3              19.6483702935914   0.0496077809261  15.8899584865598
FRAGNAME=CCL4    ! 21
C1                1.5555673475811   4.8696289682866  11.2829340169522
CL2               0.7022189511072   4.1895658478053   9.8867490300951
CL3               1.5509917611294   6.6382767979493  11.1739121394757
FRAGNAME=CCL4    ! 22
C1                6.4240111474612   7.6355150884655  13.6101681803947
CL2               5.2308289175865   6.5821632656713  12.8312060878844
CL3               7.0045941193411   6.8703183422856  15.0992662934288
FRAGNAME=CCL4    ! 23
C1               11.5447732271999   7.1893247203738  13.1597330998033
CL2              11.2375593150304   8.8180536342581  13.7865187625660
CL3              10.8689982421257   5.9898924816189  14.2753894106729
FRAGNAME=CCL4    ! 24
C1               18.4819491711363   6.1919633545198  11.8027566807027
CL2              18.1358136710865   5.2898081371903  13.2881218768972
CL3              19.6799171820959   7.4525840638218  12.1429208449145
FRAGNAME=CCL4    ! 25
C1                5.3699825415053  10.7681794060853   9.8211586648415
CL2               5.6734937917094  10.6031044789719   8.0831518359714
CL3               4.5767203812750   9.3028100284494  10.4240386528963
FRAGNAME=CCL4    ! 26
C1                9.1847307248377  12.8395159069840  14.7885571524567
CL2               7.5633328958190  12.8903927416913  15.5016418208369
CL3               9.7500630528286  14.4918645985562  14.4883034648442
FRAGNAME=CCL4    ! 27
C1               14.6456146814687  13.3379970063352  13.9551965794407
CL2              14.7532917532857  12.6865745039181  15.5996052301740
CL3              13.1888704950669  12.7102072638596  13.1653853021815
FRAGNAME=CCL4    ! 28
C1               21.6271081006740  10.4772533995365  10.0251416573879
CL2              22.3620328266742   9.6626011781020  11.4166315657216
CL3              22.5360277151769  11.9531721906006   9.6569764548948
FRAGNAME=CCL4    ! 29
C1                1.9542901626331  18.0990457415803   8.2074659635806
CL2               0.3630415027972  18.8381184552874   7.9590558391073
CL3               3.2183024229666  19.3059712279110   7.9148702703599
FRAGNAME=CCL4    ! 30
C1                6.4287900425701  15.7255437605310  10.3319274122004
CL2               7.9891710401781  14.9859421117567   9.9341561771032
CL3               5.2547785198427  15.3482433746614   9.0593855561638
FRAGNAME=CCL4    ! 31
C1               12.1003608076520  16.0423909805723   9.8963957488779
CL2              11.0219547184798  17.2342062557433   9.1503107750317
CL3              12.2472254793688  16.3819130584180  11.6293647787085
FRAGNAME=CCL4    ! 32
C1               16.6911519268793  18.8295576284901  13.4490783581686
CL2              15.6933072535592  18.4725993794591  14.8692522450035
CL3              17.8827840105091  20.0742851069721  13.8622048933249
FRAGNAME=CCL4    ! 33
C1                3.3411312336627   1.0825823386445  16.9038650703324
CL2               1.9108215555524   0.2365787111111  17.5191038107076
CL3               3.0328626052111   2.8274758200263  16.8853228994838
FRAGNAME=CCL4    ! 34
C1                9.3616845012034   6.5244460496907  20.4551255295235
CL2               8.2282636045579   5.1994430821958  20.1393166765919
CL3               8.6779864827037   7.6073167562776  21.6798536939467
FRAGNAME=CCL4    ! 35
C1               13.9745897996976   4.3544253209956  18.3473900879492
CL2              12.5583499794969   5.1504744298137  17.6398565742148
CL3              13.4433416535621   3.1360480426614  19.5192967821434
FRAGNAME=CCL4    ! 36
C1               19.2767919063040   3.7938705859233  19.7002381102829
CL2              19.9361212952703   4.4865765919836  21.1920291364797
CL3              17.6395704810870   3.1877190625999  20.0036909985776
FRAGNAME=CCL4    ! 37
C1                1.1587445593097   8.1180799462755  16.2262472056384
CL2               2.8010871361081   7.7308351669409  16.7673266163761
CL3               0.8788693293509   9.8603309274912  16.3882532596044
FRAGNAME=CCL4    ! 38
C1                5.5120899371629  10.1866283512233  19.5960949887031
CL2               4.1938767827036  11.2012844376560  18.9854946678976
CL3               6.7551088996660  10.0168632625140  18.3446441028882
FRAGNAME=CCL4    ! 39
C1               12.7625455862682  10.2316011732190  18.9769178992183
CL2              11.2610949876467  11.0477384949969  19.4455243667693
CL3              14.1015481313887  11.3916804964238  19.0131697621505
FRAGNAME=CCL4    ! 40
C1               16.9592558084656   8.7942602712651  15.8762605090126
CL2              16.3333603080201   7.1409116128925  15.9974945420201
CL3              18.7303985693725   8.7600150887568  15.9196798865246
FRAGNAME=CCL4    ! 41
C1                2.7735604708025  13.0266965272952  14.7492225106531
CL2               1.6770550626842  12.7808999280695  13.3790890347293
CL3               3.6845035608855  11.5370963371861  15.0513479487242
FRAGNAME=CCL4    ! 42
C1                8.5940912018487  15.2216649615135  20.1546171271874
CL2               9.2255835870729  16.8752690594694  20.0719653888275
CL3               9.7619911161008  14.1845226113222  20.9914958465710
FRAGNAME=CCL4    ! 43
C1               13.1837785739237  16.3066794570047  18.5182027913313
CL2              13.3612774078802  15.6677171850474  20.1614465038094
CL3              12.4617022643586  17.9233977036889  18.5878909082843
FRAGNAME=CCL4    ! 44
C1               19.4069874882767  13.7233002571540  16.1037508029570
CL2              18.3941440170651  12.3115120415378  16.4516108615568
CL3              20.4774298809290  14.0360303518446  17.4808337544119
FRAGNAME=CCL4    ! 45
C1                0.5092607324457  18.4616358396230  13.5635555427035
CL2               1.9730177836180  19.4462290267281  13.7309265749140
CL3              -0.4141091968644  18.5143839628818  15.0750538458828
FRAGNAME=CCL4    ! 46
C1                5.1144210424846  17.2621464536129  17.0022330871230
CL2               3.9285883575619  18.3300385734509  16.2319074938992
CL3               6.0951245892004  16.4718904542258  15.7557539397997
FRAGNAME=CCL4    ! 47
C1               10.9094962500725  19.5394626539490  14.2795552051563
CL2              10.9008740818688  19.6687140460581  12.5122839971454
CL3              11.9249842815470  20.8220045885502  14.9606558076624
FRAGNAME=CCL4    ! 48
C1               15.9636238816591  20.4205963057498  20.0014449288435
CL2              14.3525286290606  21.1071120428792  19.7310816634794
CL3              16.8205508215356  21.3852916010343  21.2159684043275
FRAGNAME=CCL4    ! 49
C1                5.5083836086893  -1.5015363059941  22.7410419821232
CL2               5.8164938585144  -3.1273565082370  23.3749062256798
CL3               4.0966827998188  -1.5425506623161  21.6707963168018
FRAGNAME=CCL4    ! 50
C1                7.6429861836405   3.4110975657655  24.6227585678075
CL2               7.3816239635838   5.1035828146969  24.1675485380558
CL3               8.2125456930774   2.5013953819000  23.2127668653528
FRAGNAME=CCL4    ! 51
C1               13.4310351771404   2.0106096501462  24.0658665092771
CL2              14.3445354610003   3.4971027562266  23.7562623941947
CL3              11.7628391739446   2.2146703360102  23.5041899453001
FRAGNAME=CCL4    ! 52
C1               19.8622320960688   1.6412897371907  24.3000197829855
CL2              21.1841350294112   2.7897915098504  24.5711627789766
CL3              19.9286380140614   0.3639887469592  25.5264351472352
FRAGNAME=CCL4    ! 53
C1                3.1123756383907   4.0852946040601  21.2165752576239
CL2               4.7890105231087   3.5268277515683  21.3471265396671
CL3               3.0628848919149   5.5939152148116  20.2883253354260
FRAGNAME=CCL4    ! 54
C1                5.4193061042213   9.1123257103840  25.2821836581605
CL2               7.1688310626075   9.2693998660831  25.0487088950094
CL3               4.8298789991585   7.6958887508625  24.3954467394788
FRAGNAME=CCL4    ! 55
C1               16.4712637372930   7.7137556685797  22.6800930975865
CL2              14.8270283729055   7.1016527603114  22.4314327981466
CL3              17.5315093502056   6.3790126629961  23.1641924651514
FRAGNAME=CCL4    ! 56
C1               21.5275513919834   8.9864951124060  21.3540962639651
CL2              20.2701892987928   9.3148618054598  20.1494167974452
CL3              22.5949579418719   7.7032818344523  20.7590805699746
FRAGNAME=CCL4    ! 57
C1                2.0303062280401  14.4513467299585  21.2678024842680
CL2               0.3682010798215  14.7498905275454  21.8047281975205
CL3               2.0247989866223  13.9934300876046  19.5559925756295
FRAGNAME=CCL4    ! 58
C1               11.8652761301508  11.3054393606706  23.9375710625700
CL2              11.3086490972110   9.7563797674661  23.2813673635381
CL3              10.4763397250242  12.2227213360001  24.5454131571744
FRAGNAME=CCL4    ! 59
C1               17.8093922167779  10.9044694527991  26.8669472737818
CL2              18.5282236978141  11.3934348100175  28.4110424924854
CL3              16.9107474285763  12.2665368017933  26.1761173782533
FRAGNAME=CCL4    ! 60
C1               17.6766181418964  13.6611011849365  20.9135801537954
CL2              18.0289080085559  15.2570972280484  20.2289356012555
CL3              17.1186906706697  12.5768709167909  19.6278074889780
FRAGNAME=CCL4    ! 61
C1               -0.6854068434055  19.0460405002724  19.6258367022542
CL2               0.9992402931150  19.1150783166936  20.1710136357053
CL3              -1.7637965535553  19.1064932902768  21.0306289205828
FRAGNAME=CCL4    ! 62
C1               11.0594176794081  19.0238869055823  23.4609800847208
CL2              10.5672667883490  20.6201774761362  24.0522883366054
CL3              12.2118012927432  18.3025032569810  24.5974743316074
FRAGNAME=CCL4    ! 63
C1                9.6010463482886  21.7411527803961  19.1092845320288
CL2               8.9638561708333  20.1066710973647  19.3592457788871
CL3              11.2949170568668  21.6430220038340  18.5982124307989
FRAGNAME=CCL4    ! 64
C1               17.4311735215933  17.9075401324571  24.7065772820216
CL2              15.7731572050939  18.2166266119085  24.1630009691808
CL3              17.4504187444353  17.7238013457920  26.4689329342990
 $end

 $CCl4
carbon tetrachloride EFP2 potential, with polarization screening.
 COORDINATES 
C1          .0000000000    .0000000000   -.0000007854  12.0000000  6.0
CL2         .0000000000    .0000000000   3.3486125621  34.9688500 17.0
CL3        3.1571033428    .0000000000  -1.1162040975  34.9688500 17.0
CL4       -1.5785516714  -2.7341316972  -1.1162040975  34.9688500 17.0
CL5       -1.5785516714   2.7341316972  -1.1162040975  34.9688500 17.0
BO21        .0000000000    .0000000000   1.6743058884    .0000000   .0
BO31       1.5785516714    .0000000000   -.5581024415    .0000000   .0
BO41       -.7892758357  -1.3670658486   -.5581024415    .0000000   .0
BO51       -.7892758357   1.3670658486   -.5581024415    .0000000   .0
 STOP
 MONOPOLES 
C1        -5.6389130441   6.00000
CL2      -16.9377778881  17.00000
CL3      -16.9377777134  17.00000
CL4      -16.9377777211  17.00000
CL5      -16.9377777210  17.00000
BO21       -.1524938407    .00000
BO31       -.1524940288    .00000
BO41       -.1524940214    .00000
BO51       -.1524940214    .00000
 STOP
 DIPOLES 
C1          -.0000000246     .0000000000    -.0000001141
CL2          .0000000048     .0000000000    -.4692631628
CL3         -.4424254190     .0000000000     .1564208350
CL4          .2212127281     .3831516540     .1564208168
CL5          .2212127280    -.3831516540     .1564208170
BO21         .0000000014     .0000000001     .1502062264
BO31         .1416160374     .0000000000    -.0500685418
BO41        -.0708080342    -.1226430944    -.0500685277
BO51        -.0708080341     .1226430943    -.0500685278
 STOP
 QUADRUPOLES 
C1         -4.5856282030   -4.5856282064   -4.5856280454     .0000000001 >
    -.0000000004     .0000000000
CL2        -9.7414328187   -9.7414328163   -7.5790476836     .0000000000 >
    -.0000000016     .0000000000
CL3        -7.8193116766   -9.7414319495   -9.5011679769     .0000000000 >
    -.6795711644     .0000000000
CL4        -9.2609018902   -8.2998417601   -9.5011679959     .8323024991 >
     .3397855795     .5885258867
CL5        -9.2609018901   -8.2998417600   -9.5011679957    -.8323024991 >
     .3397855795    -.5885258868
BO21         .5514036259     .5514036235     .6649146113     .0000000000 >
    -.0000000085     .0000000000
BO31         .6523009824     .5514020229     .5640146839     .0000000000 >
    -.0356730441    -.0000000001
BO41         .5766268098     .6270762810     .5640146832     .0436905636 >
     .0178365256     .0308937508
BO51         .5766268100     .6270762811     .5640146837    -.0436905635 >
     .0178365256    -.0308937510
 STOP
 OCTUPOLES  
C1           .0232807817    -.0000000011     .0329246454    -.0000000004 >
    -.0164621491    -.0232813580    -.0164621487    -.0000001436 >
    -.0000000003     .0000000000
CL2          .0116754525    -.0000000003   -1.3828167321    -.0000000001 >
    -.5168715255    -.0116754063    -.5168715254     .0000000114 >
    -.0000000001     .0000000000
CL3        -1.3208764983    -.0000000002     .5204414640    -.0000000001 >
     .1237957485    -.4912025745     .1612828492    -.4662735477 >
    -.0000000001     .0000000000
CL4          .7177126193    1.1769799120     .5204413126     .3923266373 >
     .1519110233     .1883271299     .1331674723     .2331368274 >
     .4038047476    -.0162323912
CL5          .7177126188   -1.1769799119     .5204413138    -.3923266373 >
     .1519110237     .1883271297     .1331674727     .2331368272 >
    -.4038047476     .0162323912
BO21         .1526625188     .0000000006     .4329284043     .0000000002 >
     .0767884213    -.1526624298     .0767884174     .0000000138 >
     .0000000002     .0000000000
BO31         .3926049215     .0000000001     .0436473838     .0000000000 >
    -.0696229134     .0215097694    -.1695275902     .1388507638 >
     .0000000000    -.0000000001
BO41        -.0732741725    -.2689754373     .0436475206    -.0896584988 >
    -.1445513878    -.1337832893    -.0945990323    -.0694253963 >
    -.1202482859     .0432599895
BO51        -.0732741715     .2689754360     .0436475208     .0896584983 >
    -.1445513878    -.1337832889    -.0945990323    -.0694253962 >
     .1202482856    -.0432599894
 STOP
 POLARIZABLE POINTS
CT1  -1.0938144706   3.3388700401   -.7734426638
    2.4013049807    5.0468560991    1.7478821290     .0873720311 >
     .9237703027     .0335049568     .0476308934     .9237236381 >
     .0619599818
CT2   1.6242118029   -.0000000015   -.5742459210
    9.4289788926    1.8662430974    2.8119052318    -.0001233483 >
   -2.6734977770    -.0003044763     .0013843367   -2.6734112935 >
     .0000111512
CT3  -1.0938140860  -3.3388700378   -.7734432122
    2.4012068055    5.0464814219    1.7478733157    -.0874260914 >
     .9236918879    -.0331096011    -.0465793735     .9237214671 >
    -.0619688867
CT4    .4169419761    .7221639219   3.4996185274
    1.7700588121    3.1210365617    4.3047960114    1.1693411432 >
     .4961106879     .8584524046    1.1700724691     .4708943824 >
     .8155349157
CT5   -.8121058991  -1.4066086846   -.5742459190
    3.7569922844    7.5390789891    2.8119979169    3.2742489978 >
    1.3366111339    2.3158663036    3.2755975874    1.3369765697 >
    2.3155476445
CT6   3.4384533070   -.7221642467   -.7734432319
    4.3271119887    3.1212309195    1.7478190321   -1.1584909249 >
    -.4333521949    -.8169631528   -1.1987488463    -.4081423977 >
    -.8307928082
CT7   -.8121059009   1.4066086819   -.5742459221
    3.7572851012    7.5386729659    2.8119943148   -3.2750028237 >
    1.3368585160   -2.3157470799   -3.2745985583    1.3369572531 >
   -2.3155408885
CT8    .0000000057   -.0000000040   1.7227359017
    1.8669398602    1.8662202434   10.3743275838    -.0000858429 >
    -.0000430985     .0001921866     .0004584607     .0000863587 >
     .0000030523
CT9  -1.5107559398   2.6167066672  -1.9527321700
    1.7312277722    3.0043711935    4.4599123858   -1.1021705207 >
     .4432515509    -.7683696452   -1.1022120227     .4684738108 >
    -.8113516043
CT10  -2.3446392092   2.6167058102   -.7734431896
    4.4430350305    3.0045821692    1.7478463272   -1.1322481754 >
    -.4904097746    -.7834681008   -1.0914855438    -.5153950320 >
    -.7689301657
CT11   3.4384535095    .7221638575   -.7734426141
    4.3269518288    3.1206336266    1.7478124427    1.1584346669 >
    -.4332832718     .8165063516    1.1995429532    -.4081275475 >
     .8308028769
CT12   -.8338832817    .0000003636   3.4996185143
    3.7954760794    1.0948529723    4.3048009402    -.0000314249 >
    -.9922721278     .0000435579     .0004851854    -.9415744435 >
    -.0000013048
CT13  -2.3446390096  -2.6167061469   -.7734426362
    4.4431666970    3.0044538265    1.7478592862    1.1322477673 >
    -.4904218828     .7833920731    1.0919514663    -.5153914269 >
     .7689449836
CT14  -1.5107565258  -2.6167063315  -1.9527321766
    1.7312059150    3.0044279288    4.4599075034    1.1020593712 >
     .4433677087     .7678905550    1.1027319763     .4684892545 >
     .8113496699
CT15   3.0215124217    .0000003909  -1.9527321772
    3.6401491823    1.0948630411    4.4600272932    -.0000365072 >
    -.8866208115     .0003798959     .0005350666    -.9367479897 >
     .0000072413
CT16    .4169412998   -.7221642804   3.4996185077
    1.7700688484    3.1208240993    4.3047963393   -1.1694213172 >
     .4961564649    -.8582467080   -1.1694398766     .4708981053 >
    -.8155259576
 STOP
 DYNAMIC POLARIZABLE POINTS
CT  1  -1.0938144706   3.3388700401   -.7734426638 -- FOR W=  .002792I A.U.
    2.4008878965    5.0465731191    1.7481729611     .0883864846 >
     .9230794156     .0326697160     .0461992554     .9230797045 >
     .0624998701
CT  2   1.6242118029   -.0000000015   -.5742459210
    9.4266852412    1.8667824201    2.8117678694     .0000000062 >
   -2.6728255265     .0000000065    -.0000000200   -2.6728276203 >
    -.0000000075
CT  3  -1.0938140860  -3.3388700378   -.7734432122
    2.4008891658    5.0465731614    1.7481717191    -.0883873734 >
     .9230791027    -.0326681343    -.0462003507     .9230791664 >
    -.0624985771
CT  4    .4169419761    .7221639219   3.4996185274
    1.7705014967    3.1205862310    4.3045445664    1.1692100611 >
     .4964005202     .8597905164    1.1692100649     .4705668116 >
     .8150446357
CT  5   -.8121058991  -1.4066086846   -.5742459190
    3.7567581248    7.5367095120    2.8117678746    3.2735339453 >
    1.3364127626    2.3147348121    3.2735339433    1.3364138033 >
    2.3147366162
CT  6   3.4384533070   -.7221642467   -.7734432319
    4.3268739173    3.1205884292    1.7481716615   -1.1581681789 >
    -.4332481664    -.8157439916   -1.2003551955    -.4074142281 >
    -.8306592358
CT  7   -.8121059009   1.4066086819   -.5742459221
    3.7567581378    7.5367095588    2.8117678992   -3.2735339582 >
    1.3364127730   -2.3147348377   -3.2735339696    1.3364138241 >
   -2.3147366269
CT  8    .0000000057   -.0000000040   1.7227359017
    1.8667819626    1.8667819670   10.3716701880     .0000000108 >
    -.0000000376     .0000000460     .0000000073    -.0000000341 >
     .0000000297
CT  9  -1.5107559398   2.6167066672  -1.9527321700
    1.7316480992    3.0040309269    4.4599532603   -1.1019160215 >
     .4430933677    -.7674621831   -1.1019158365     .4689271337 >
    -.8122077230
CT 10  -2.3446392092   2.6167058102   -.7734431896
    4.4434303352    3.0040319455    1.7481717916   -1.1330613553 >
    -.4898310762    -.7830758695   -1.0908743172    -.5156650361 >
    -.7681607121
CT 11   3.4384535095    .7221638575   -.7734426141
    4.3268745109    3.1205864542    1.7481731270    1.1581681065 >
    -.4332467915     .8157452248    1.2003553749    -.4074133114 >
     .8306605829
CT 12   -.8338832817    .0000003636   3.4996185143
    3.7956307392    1.0954570683    4.3045445146    -.0000011378 >
    -.9928006247     .0000002247    -.0000011286    -.9411327513 >
     .0000004720
CT 13  -2.3446390096  -2.6167061469   -.7734426362
    4.4434291437    3.0040318374    1.7481730641    1.1330625203 >
    -.4898326198     .7830753424    1.0908752412    -.5156664356 >
     .7681605432
CT 14  -1.5107565258  -2.6167063315  -1.9527321766
    1.7316480099    3.0040309931    4.4599532270    1.1019157467 >
     .4430952197     .7674611297    1.1019160077     .4689291191 >
     .8122065844
CT 15   3.0215124217    .0000003909  -1.9527321772
    3.6402223738    1.0954566131    4.4599532257     .0000000727 >
    -.8861884523    -.0000012361    -.0000001852    -.9378561061 >
    -.0000013193
CT 16    .4169412998   -.7221642804   3.4996185077
    1.7704995003    3.1205884398    4.3045446299   -1.1692089306 >
     .4964001271    -.8597907666   -1.1692089277     .4705659523 >
    -.8150451331
CT  1  -1.0938144706   3.3388700401   -.7734426638 -- FOR W=  .015107I A.U.
    2.3998036237    5.0416600850    1.7475404529     .0879512935 >
     .9224405398     .0330478083     .0467339641     .9224408393 >
     .0621921294
CT  2   1.6242118029   -.0000000015   -.5742459210
    9.4155051108    1.8653120284    2.8090837579     .0000000058 >
   -2.6693926236    -.0000000004    -.0000000008   -2.6693947050 >
    -.0000000040
CT  3  -1.0938140860  -3.3388700378   -.7734432122
    2.3998048924    5.0416601118    1.7475392018    -.0879521811 >
     .9224402273    -.0330462396    -.0467350745     .9224402884 >
    -.0621908501
CT  4    .4169419761    .7221639219   3.4996185274
    1.7697148632    3.1185878689    4.3006997433    1.1681606689 >
     .4953177373     .8579150440    1.1681606735     .4700779707 >
     .8141979398
CT  5   -.8121058991  -1.4066086846   -.5742459190
    3.7528602960    7.5279568151    2.8090837637    3.2693295042 >
    1.3346963102    2.3117618259    3.2693295058    1.3346973494 >
    2.3117636240
CT  6   3.4384533070   -.7221642467   -.7734432319