!   This test case is NH4+/NO3-, from Hui Li
!   Test of the charge transfer term in an EFP2 potential
!
!             ELECTROSTATIC ENERGY  =  -0.2019940315
!             REPULSION ENERGY      =   0.0546045496
!             POLARIZATION ENERGY   =  -0.0234957580
!             CHARGE TRANSFER ENRGY =  -0.0097041171
!             --------------------------------------
!   NSERCH:   0  E=       -0.1805893570  R.M.S.=  0.0130085
!   NSERCH:   1  E=       -0.1840395603  R.M.S.=  0.0049847
!   NSERCH:   2  E=       -0.1842374785  R.M.S.=  0.0059822
!       ...
!   NSERCH:  13  E=       -0.1854006891  R.M.S.=  0.0000859
!   NSERCH:  14  E=       -0.1854007629  R.M.S.=  0.0000561
!   NSERCH:  15  E=       -0.1854009005  R.M.S.=  0.0000018
!
!   This run takes 10 seconds on 2.66 GHz Cloverton ( 6 Oct 2015)
!
!   back in 2009, this took only 9 steps:
!   nserch=0: FINAL EFP ENERGY      =  -0.1805893570, RMS= 0.0130085
!   nserch=9: FINAL EFP ENERGY      =  -0.1854008811, RMS= 0.0000218
!
 $contrl runtyp=optimize coord=fragonly $end
 $system  mwords=2 $end
 $efrag
iscrelec=0 iscrpol=1 iscrdisp=0 >
coord=cart polmethd=frgscf position=optimize
 FRAGNAME=H4N
N1            -.0473088460    .6129962049    .1440955212
H2             .6877820270   1.2213092576   -.1667693346
H3            -.7800466394   1.1349243807    .5888172908
 FRAGNAME=NO3
N1            -.0683876932  -2.4154979753   -.2173025550
O2            -.0779440065  -3.5949752764   -.3587619167
O3             .4396451396  -1.8935992589    .7945013028
 $end

 $H4N
ammonium cation potential
 COORDINATES 
N1         -.0894007557   1.1583948588    .2723010511  14.0030700  7.0
H2         1.2997195703   2.3079398431   -.3151483455   1.0078250  1.0
H3        -1.4740744061   2.1446960963   1.1127033364   1.0078250  1.0
H4         -.7700206116    .0341126389  -1.1713664051   1.0078250  1.0
H5          .5831419057   -.2725585008   1.4145032756   1.0078250  1.0
BO21        .6051594073   1.7331673510   -.0214236472    .0000000   .0
BO31       -.7817375809   1.6515454775    .6925021938    .0000000   .0
BO41       -.4297106837    .5962537488   -.4495326770    .0000000   .0
BO51        .2468705750    .4429181790    .8434021633    .0000000   .0
 STOP
 MONOPOLES 
N1        -6.5988233557   7.00000
H2         -.6037638039   1.00000
H3         -.6039527844   1.00000
H4         -.5953954730   1.00000
H5         -.5956733050   1.00000
BO21       -.2612046935    .00000
BO31       -.2539706748    .00000
BO41       -.2364889651    .00000
BO51       -.2507269446    .00000
 STOP
 DIPOLES 
N1           .0003809980     .0200159188     .0026411254
H2           .0715226903     .0618350574    -.0298759157
H3          -.0712789710     .0534125141     .0435346123
H4          -.0285896848    -.0617471213    -.0621058340
H5           .0281146843    -.0745608344     .0460460415
BO21        -.0826828625    -.0684056447     .0351666493
BO31         .0873732006    -.0547088943    -.0522538484
BO41         .0564848247     .0527800927     .1160916290
BO51        -.0516083955     .0865998969    -.0903013149
 STOP
 QUADRUPOLES 
N1         -3.5629392948   -3.5243981351   -3.5863471859     .0019331538 >
    -.0166144420     .0072208151
H2          -.3133378271    -.3145777448    -.3140506907    -.0001675750 >
    -.0005686606     .0000499201
H3          -.3135313153    -.3147138677    -.3143051492     .0002808699 >
    -.0005152031    -.0001568684
H4          -.3110878919    -.3153420176    -.3072914457    -.0003246554 >
     .0027177211    -.0009116372
H5          -.3110491442    -.3152478872    -.3072847431    -.0003732290 >
     .0027419015    -.0010480743
BO21        -.0755425321    -.0832322269    -.0942512197     .0184740755 >
    -.0097304968    -.0078378456
BO31        -.0567031491    -.0693621157    -.0739452789    -.0129074911 >
    -.0152124248     .0083598592
BO41        -.0436667909    -.0380297948    -.0239474576     .0060112521 >
     .0125815701     .0130606688
BO51        -.0759914137    -.0664051659    -.0686330756    -.0114344214 >
     .0072877020    -.0205849815
 STOP
 OCTUPOLES  
N1           .0010068952     .0779236302     .0251831111    -.0229995927 >
    -.0022324952    -.0148686318    -.0075080416     .0160921629 >
     .0684515734     .0649031634
H2           .0821614525     .0794325524    -.0362960873     .0216673718 >
    -.0088987699     .0250043960    -.0101999446     .0285787210 >
     .0267918358     .0026736860
H3          -.0818992269     .0703455864     .0538024644     .0190962675 >
     .0137562715    -.0262666190     .0162563323    -.0270632903 >
     .0224552266     .0032079909
H4          -.0262590892    -.0730349398    -.0507397468    -.0237907300 >
    -.0179644334    -.0071836746    -.0163332856    -.0040762491 >
    -.0191612669     .0028480211
H5           .0256362424    -.0815763366     .0356933481    -.0273419936 >
     .0119674671     .0055148974     .0080617129     .0053384772 >
    -.0236152315     .0032293562
BO21        -.1681660943    -.1324721376     .0728978852    -.0435386582 >
     .0239204824    -.0557980675     .0240980191    -.0562148259 >
    -.0442131101    -.0003646809
BO31         .2021976910    -.0848554840    -.1155403885    -.0261948516 >
    -.0389534147     .0681674719    -.0389545824     .0669945169 >
    -.0282929039    -.0012622037
BO41         .1521595232     .0892599348     .3091227120     .0329617708 >
     .1035093918     .0531314925     .1059771869     .0512650739 >
     .0273633215    -.0042870892
BO51        -.1201895437     .2157551275    -.2086522186     .0746976327 >
    -.0692084765    -.0391380828    -.0687459099    -.0403573413 >
     .0715156108    -.0023062360
 STOP
 POLARIZABLE POINTS
CT1    .6855144015   1.7947688080   -.0564042674
    2.3883784993    1.9944888334    1.1836008716    1.1624729724 >
    -.6307934762    -.4907654576    1.1889451945    -.6278842699 >
    -.4771200442
CT2    .2943565619    .4087296928    .9317722431
    1.2896588262    2.5302228555    2.0310830067    -.8301278064 >
     .6613088953   -1.3351370977    -.7835045816     .6665123097 >
   -1.4254417160
CT3   -.8618262391   1.7038574771    .7407692123
    2.3793590566    1.7388150253    1.4482271606    -.9857735017 >
    -.8836880166     .6276032494   -1.0126991655    -.8871816629 >
     .6137286221
CT4   -.4768945491    .5841362938   -.5433074713
    1.2996876344    1.8774423491    2.6849835386     .6601583717 >
     .8449856797    1.2973714486     .6139509730     .8404409204 >
    1.3878799118
 STOP
 PROJECTION BASIS SET
N            -.0894007557   1.1583948588    .2723010511    5.0
   S          6
     1      4173.5114600000   .67899792
     2       627.4579110000  1.25043140
     3       142.9020930000  2.02035647
     4        40.2343293000  2.64421231
     5        12.8202129000  2.26500482
     6         4.3904370100   .77918790
   L          3
     7        11.6263618604  -.51587465  2.06805186
     8         2.7162798073  -.25502307  1.61001139
     9          .7722183966   .67273451   .76449036
   L          1
    10          .2120314975   .22269495   .20508815
   L          1
    11          .0639000000   .09058071   .04579480
   D          1
    12          .8000000000  1.11382493
   F          1
    13         1.0000000000  1.47215809
 
H            1.2997195703   2.3079398431   -.3151483455    1.0
   S          3
    14        18.7311369600   .21493545
    15         2.8253943648   .36457120
    16          .6401216923   .41505143
   S          1
    17          .1612777588   .18138065
   S          1
    18          .0360000000   .05890294
   P          1
    19         1.1000000000  1.60576114
 
H           -1.4740744061   2.1446960963   1.1127033364    1.0
   S          3
    20        18.7311369600   .21493545
    21         2.8253943648   .36457120
    22          .6401216923   .41505143
   S          1
    23          .1612777588   .18138065
   S          1
    24          .0360000000   .05890294
   P          1
    25         1.1000000000  1.60576114
 
H            -.7700206116    .0341126389  -1.1713664051    1.0
   S          3
    26        18.7311369600   .21493545
    27         2.8253943648   .36457120
    28          .6401216923   .41505143
   S          1
    29          .1612777588   .18138065
   S          1
    30          .0360000000   .05890294
   P          1
    31         1.1000000000  1.60576114
 
H             .5831419057   -.2725585008   1.4145032756    1.0
   S          3
    32        18.7311369600   .21493545
    33         2.8253943648   .36457120
    34          .6401216923   .41505143
   S          1
    35          .1612777588   .18138065
   S          1
    36          .0360000000   .05890294
   P          1
    37         1.1000000000  1.60576114
 
 STOP
 PROJECTION WAVEFUNCTION    4  53
 1  1-1.05939902E-01 2.23944139E-01 3.21294291E-01 2.64465130E-01-1.36430377E-01
 1  2 2.31406505E-01 1.88292089E-01 1.52218113E-01-8.02937544E-02 8.36983748E-03
 1  3-1.34624173E-02-1.43513527E-02 5.33322091E-03 6.76271844E-03-4.56389876E-04
 1  4-7.44735714E-03 1.66268764E-02-8.40517193E-03-7.26764514E-03 1.84397565E-03
 1  5 1.98582351E-03-1.83546131E-04 1.51023444E-03-1.40385170E-03 2.09443281E-03
 1  6-5.07686695E-04 3.06124548E-04-6.64593631E-04-1.29005148E-03 3.06855545E-01
 1  7 7.22644356E-02 2.98780599E-02-1.84848095E-02-1.54382188E-02 7.79219206E-03
 1  8-2.09183769E-02-3.36631739E-02-8.37547613E-03 6.94626631E-03 4.96655807E-03
 1  9-3.04087651E-03-2.32918181E-02-3.52433004E-02-9.58639049E-03 5.79391030E-03
 1 10 5.11163832E-03-3.11519157E-03-2.32256489E-02-3.53582952E-02-9.63132967E-03
 1 11 6.36402339E-03 5.02447221E-03-2.06649403E-03
 2  1 9.90330275E-02-2.06244478E-01-1.66546411E-01 2.92050327E-01-2.89975954E-01
 2  2-2.19122201E-01-1.00824666E-01 1.72557166E-01-1.76107989E-01-1.35442962E-02
 2  3 7.80526147E-03-1.30159567E-02 1.35780224E-02 8.00001541E-03-6.79845514E-03
 2  4 5.42720357E-04 1.08006824E-02-7.93702259E-03 1.84813794E-02-1.70897601E-03
 2  5 3.37510801E-03-2.61419641E-03 2.85507456E-04-1.27651477E-03-1.75167604E-03
 2  6-2.92991354E-03-2.32608874E-04 3.27795788E-04 2.07724525E-04 1.86028311E-02
 2  7 3.39011205E-02 9.20230455E-03-2.91450697E-03 5.89955860E-03-6.19457733E-03
 2  8 1.86352377E-02 3.39269961E-02 9.23856815E-03-3.88890534E-03 5.83184656E-03
 2  9-5.69572738E-03 1.25865657E-02 4.59057988E-02 1.21858408E-02-5.11751597E-03
 2 10 4.65533732E-03-9.38569740E-03-3.03301101E-01-8.85632805E-02-3.03155455E-02
 2 11 8.37302371E-03-1.85482668E-02 1.41324189E-02
 3  1 1.05885561E-01-2.23790201E-01 3.20286766E-01-2.26887646E-01-1.94396520E-01
 3  2-2.31291669E-01 1.87710775E-01-1.30182816E-01-1.13649997E-01-8.52471496E-03
 3  3-1.33994478E-02 1.28140454E-02 8.50339999E-03-6.64836670E-03 3.62098216E-03
 3  4 4.19110875E-03 1.42525226E-02 1.20597233E-02-8.39470813E-03 1.83819916E-03
 3  5-1.52810560E-03 7.51454016E-05-1.13254291E-03-1.70509597E-03 1.49068267E-03
 3  6-1.29926616E-03 9.18914119E-04 2.23502480E-04 1.61010316E-03 2.08733435E-02
 3  7 3.36660546E-02 8.36377928E-03 6.93577226E-03-4.14813635E-03-4.11709608E-03
 3  8-3.06877926E-01-7.23301929E-02-2.98756043E-02-1.84225747E-02 1.32602673E-02
 3  9 1.11921394E-02 2.31893729E-02 3.54218733E-02 9.63408820E-03 6.33390442E-03
 3 10-4.43910311E-03-3.18336369E-03 2.32125599E-02 3.53868509E-02 9.65608247E-03
 3 11 5.80276652E-03-4.31001910E-03-4.21435371E-03
 4  1 9.89997683E-02-2.06167457E-01 1.67706141E-01 2.15703395E-01 3.49862415E-01
 4  2-2.19305001E-01 1.01584575E-01 1.26464474E-01 2.11482592E-01-1.35092622E-02
 4  3-7.82726568E-03-9.46594275E-03-1.62815836E-02 7.87492086E-03 8.84658215E-04
 4  4-7.03402911E-03-8.73433112E-03-1.03311973E-02-1.83328332E-02 1.71537091E-03
 4  5 1.66902004E-03 2.98320403E-03-4.37060031E-06 1.33451158E-03 1.60481470E-03
 4  6 3.43549054E-03 3.96946754E-04 9.71015517E-04 5.98241136E-04 1.86748505E-02
 4  7 3.38007163E-02 9.18978386E-03 3.89034639E-03 4.30765920E-03 6.89044290E-03
 4  8 1.86068942E-02 3.39613321E-02 9.22974915E-03 2.93388508E-03 4.28021220E-03
 4  9 7.40216727E-03-3.03116424E-01-8.87941022E-02-3.03245870E-02-8.47753059E-03
 4 10-1.47202235E-02-1.80409188E-02 1.25751638E-02 4.59290558E-02 1.22030370E-02
 4 11 5.13129180E-03 2.32235997E-03 1.02236197E-02
 FOCK MATRIX ELEMENTS
   -1.1518883048     .1322451463   -1.1290327392     .1399357333 >
    -.1321622391   -1.1517947134     .1319737943    -.1565953790 >
    -.1322641844   -1.1285469762
 LMO CENTROIDS
CT1    .6855144015   1.7947688080   -.0564042674
CT2    .2943565619    .4087296928    .9317722431
CT3   -.8618262391   1.7038574771    .7407692123
CT4   -.4768945491    .5841362938   -.5433074713
 STOP
 CANONVEC  5   53
 1  1-9.94970660E-01-2.49212920E-02 5.20076298E-07 1.00675296E-04 1.04770641E-05
 1  2 9.77719835E-04-3.85544496E-07-3.48368554E-05-3.46238775E-06-1.83257559E-04
 1  3-2.52302880E-07-2.80737601E-05-2.96714647E-06 2.87259712E-03 2.85497285E-03
 1  4 3.09743719E-03-2.15141593E-05 1.83742361E-04-3.12767244E-05-2.90761808E-06
 1  5 2.36448612E-05 7.81815229E-05-5.53740794E-04-6.26703327E-05-1.41427717E-04
 1  6-7.22346412E-05 1.42956749E-04 2.92359821E-04 6.89500542E-04 4.67237532E-04
 1  7-3.16203643E-04 8.88729483E-05-4.19487286E-04-3.42586290E-04 1.77759996E-04
 1  8 4.66256858E-04-3.16869827E-04 8.83909855E-05 4.17688696E-04-2.92936598E-04
 1  9-2.53150760E-04 2.26409758E-04-2.99612432E-04 4.59251558E-05 1.57853657E-04
 1 10 2.46231591E-04 3.33010251E-04 2.31083675E-04-3.01227233E-04 4.59124285E-05
 1 11-1.57017983E-04 3.19519857E-04-2.68495200E-04
 2  1-2.04967064E-01 4.30172023E-01-8.72054101E-06-5.20383682E-03-4.06896408E-04
 2  2 4.50627722E-01-4.77591470E-05-6.56689688E-03-6.82400202E-04 2.19429634E-02
 2  3-2.37465051E-05-2.49069240E-03-2.60170413E-04-1.14342419E-03 8.89993233E-04
 2  4-2.63029262E-03 1.60331501E-04-1.21625426E-03 4.83562431E-04 5.00184873E-07
 2  5-7.39721278E-04-3.11930777E-04 1.18953535E-03 1.23602264E-04 3.77438379E-04
 2  6 1.48802751E-04-3.89798372E-04-1.09198854E-03-1.85926276E-03 1.25310142E-01
 2  7-1.42356618E-02 1.67970812E-03-1.32693445E-02-1.07511611E-02 5.64819824E-03
 2  8 1.25350270E-01-1.42828242E-02 1.63866084E-03 1.32379940E-02-9.19859740E-03
 2  9-8.00418261E-03 1.20914674E-01-1.42692937E-02-6.65734677E-04 6.48311015E-03
 2 10 9.80059654E-03 1.36623400E-02 1.21211336E-01-1.43600850E-02-6.88530955E-04
 2 11-6.43043646E-03 1.27649665E-02-1.10245496E-02
 3  1-5.65773258E-03 1.50618685E-02 4.48612228E-03 4.99918739E-01 5.59425978E-02
 3  2 9.41279901E-03 2.65504794E-03 2.90948903E-01 3.26000188E-02-5.21300639E-03
 3  3-1.82316139E-04-2.48228153E-02-2.80569881E-03 1.46504976E-02-4.99321697E-03
 3  4-9.05715933E-03 2.43706548E-03-1.93329048E-02 5.95218203E-04 2.33284764E-05
 3  5 4.28878199E-03 4.79016595E-05 1.45747738E-03 1.55972724E-04 2.42915887E-04
 3  6 6.27012821E-04-2.15355504E-04 2.08290951E-04-1.03447743E-03 1.62865789E-01
 3  7 5.38805559E-02 2.01756195E-02-1.22225903E-02-5.93364065E-04 6.27087523E-03
 3  8 1.58842791E-01 5.27170464E-02 1.97408642E-02 1.20463911E-02 1.07814623E-03
 3  9-6.18496285E-03-1.68755058E-01-5.64841440E-02-1.86105007E-02-7.02757264E-03
 3 10-2.82846593E-04-1.37867638E-02-1.69789685E-01-5.68052795E-02-1.87596677E-02
 3 11 7.15053802E-03-3.55004686E-03 1.32859522E-02
 4  1-4.44231287E-06 1.01180226E-05 4.54751850E-01 2.20148811E-02-2.32288195E-01
 4  2 3.16804946E-05 2.66531826E-01 1.29237392E-02-1.36133259E-01-6.29713334E-05
 4  3-1.90451565E-02-8.61789166E-04 9.70898139E-03-4.57293371E-05 2.30637012E-03
 4  4-2.25002495E-03 2.17496246E-02 2.74256355E-03-1.12028470E-02 2.61495359E-03
 4  5 2.81021124E-04-5.84596666E-05 2.53651134E-04-2.19105938E-03 2.54423161E-03
 4  6-1.26194415E-03 8.70176489E-04-3.11636540E-04 2.36387206E-04 2.30352763E-01
 4  7 7.44410304E-02 2.68681982E-02-8.03971747E-03-1.38509608E-02 2.58872940E-03
 4  8-2.33151286E-01-7.54051978E-02-2.72181172E-02-8.19521730E-03 1.28735482E-02
 4  9 5.86021373E-03 3.37962215E-04 1.63128912E-04 5.23846319E-05 8.62564689E-03
 4 10 4.14218686E-04-4.36303883E-03 2.51192018E-03 9.55656045E-04 3.20411787E-04
 4 11 8.53065416E-03 6.06127031E-04-4.56948713E-03
 5  1 4.58795146E-05-8.43503763E-05 2.34216396E-01-5.30158175E-02 4.53657880E-01
 5  2-2.88428286E-04 1.41873251E-01-3.20272809E-02 2.74785058E-01 5.16263511E-06
 5  3-1.09644100E-02 2.46209189E-03-2.11660048E-02-5.63611532E-05 5.41089356E-03
 5  4-5.36539329E-03-1.39111298E-02-1.74690281E-03-2.59779147E-02 2.40910604E-03
 5  5-1.19823715E-03 3.95851643E-03-2.03522858E-04 1.85693747E-03 2.36177909E-03
 5  6 4.50832969E-03 4.40750638E-04 4.57184695E-04 2.73544273E-04-7.37974132E-04
 5  7-3.01495277E-04-9.31967978E-05 4.82887061E-03-1.05721025E-03 9.25160469E-03
 5  8 1.37244342E-03 4.99319967E-04 1.64059368E-04 4.88380292E-03-1.15204214E-03
 5  9 9.22396312E-03-2.23650400E-01-9.53647545E-02-3.00997200E-02-2.43432896E-03
 5 10-1.37072374E-02-6.13463859E-03 2.22937012E-01 9.49810822E-02 3.00241067E-02
 5 11-2.31469375E-03 1.47424066E-02-2.70950337E-03
 6  1-6.86819469E-02 1.57646494E-01-2.00007386E-04-1.92195020E-02-2.42300013E-03
 6  2 6.21586218E-01-2.80258031E-04-2.73948521E-02-3.49290700E-03 7.10421316E-01
 6  3-2.76139950E-05 1.76024678E-03-1.74342407E-04-5.50908588E-03-5.68152321E-03
 6  4-5.35697604E-03-3.05333795E-05 1.25579953E-04-6.13454252E-05-4.75201831E-06
 6  5-2.86920581E-04 6.71543978E-05-4.18680040E-04-4.47088982E-05-1.08551328E-04
 6  6-9.97228517E-05 1.12103052E-04 2.26255974E-04 5.29490294E-04-2.17340087E-02
 6  7-1.96853608E-01-3.58005579E-01-6.27660202E-03-5.53099766E-03 2.60235633E-03
 6  8-2.16747573E-02-1.96603099E-01-3.58041754E-01 6.25278683E-03-4.79619220E-03
 6  9-3.84378423E-03-2.20891796E-02-2.01884837E-01-4.04187040E-01 3.37168557E-03
 6 10 5.78025919E-03 7.16716892E-03-2.18494435E-02-2.01055915E-01-4.03230208E-01
 6 11-3.32956358E-03 7.28985386E-03-5.63174502E-03
 7  1-2.73441118E-03 9.12181771E-03 1.00263006E-03 1.56407650E-01 1.90080536E-02
 7  2 1.38702482E-02 1.16724149E-03 1.73698918E-01 2.12758058E-02 5.24486191E-02
 7  3 1.68378534E-03 2.67331623E-01 3.26447468E-02-9.51639956E-04 1.71946821E-04
 7  4 1.25539901E-03-1.95821172E-04 1.80500389E-03-1.14197522E-04 1.68704865E-05
 7  5 4.37760992E-03 8.74847771E-05 5.19969782E-04 6.20869070E-05 4.66367316E-05
 7  6 6.14959141E-04-3.66866965E-05 3.72144251E-04-1.70298989E-04 3.45528165E-03
 7  7-9.08693318E-02-1.42492283E+00-5.71384933E-03-3.29810769E-03 2.60373338E-03
 7  8 3.39839814E-03-9.05231381E-02-1.41693436E+00 5.68269232E-03-2.60053069E-03
 7  9-3.26046807E-03-3.86645438E-03 9.07515583E-02 1.37775424E+00-2.56578020E-03
 7 10-3.40436024E-03-5.35128953E-03-4.08177732E-03 8.87282997E-02 1.36108121E+00
 7 11 2.51699346E-03-4.48384558E-03 4.37211598E-03
 8  1-1.33570821E-05 3.56502568E-05 1.38991176E-01 7.02141590E-03-6.53814936E-02
 8  2 7.65496086E-05 1.44151570E-01 7.17914254E-03-6.71630269E-02 4.92983209E-05
 8  3 2.25945247E-01 1.12036118E-02-1.05178258E-01-3.56089047E-06-2.62074923E-04
 8  4 2.64100950E-04-2.24240609E-03-2.61863673E-04 1.30504505E-03 3.11754698E-03
 8  5 1.12169198E-04-1.97728032E-03-1.08708709E-06-3.41106589E-05 9.55472651E-04
 8  6-5.00246428E-04 1.44568176E-03 1.96385094E-04-7.03782390E-05 5.99488908E-03
 8  7-1.03038323E-01-2.08588125E+00-6.40693768E-03-6.31056728E-03 2.67225110E-03
 8  8-6.02149289E-03 1.03491305E-01 2.09323887E+00-6.40768058E-03 5.54546642E-03
 8  9 4.08930482E-03 1.56239838E-04 5.06865076E-03 7.12813013E-02 9.36542542E-04
 8 10-1.47905847E-04-7.44297076E-04-1.74446168E-04-5.54688691E-03-7.88778857E-02
 8 11 9.34208050E-04 3.33274207E-04-7.12755871E-04
 9  1-1.90804751E-05 4.26730650E-05-7.18386766E-02 1.82548179E-02-1.48773545E-01
 9  2 3.85171418E-05-8.24240674E-02 2.06415579E-02-1.69476093E-01-8.21862415E-04
 9  3-1.30046085E-01 3.27804049E-02-2.67309245E-01-9.30079467E-06 8.28552840E-04
 9  4-8.27204981E-04-2.21493938E-03-2.74231515E-04-3.96356335E-03-2.10753305E-03
 9  5 7.16343644E-05-2.43463473E-03 1.63325906E-04-1.28981878E-03-3.99179135E-05
 9  6-2.07499847E-04 6.48536659E-04 3.49528382E-04-9.05786507E-05 1.75295290E-04
 9  7-3.73100924E-03-7.85838891E-02-1.27781107E-03 6.32241790E-06-1.89731785E-03
 9  8-1.45467486E-04 3.50027597E-03 6.63753419E-02-1.23701254E-03 4.15853755E-04
 9  9-1.86528113E-03-5.90127926E-03-1.56317139E-01-2.23003768E+00 3.01449395E-03
 9 10 6.33215021E-03 6.44663250E-03 5.69743500E-03 1.56752914E-01 2.24275064E+00
 9 11 2.98530408E-03-7.70464982E-03 4.82203448E-03
10  1 5.33982533E-04-1.06392954E-03 3.01526455E-02-6.55686961E-03 5.85685957E-02
10  2-5.20046405E-03 1.94605582E-01-4.49829555E-02 3.83892591E-01 2.71560691E-02
10  3 9.14573729E-01-2.16489278E-01 1.80915541E+00 2.10028374E-04-7.71538769E-03
10  4 7.88835303E-03 2.04511248E-02 2.53650280E-03 3.75423704E-02-3.35285978E-03
10  5 1.66499199E-03-9.44102627E-03 4.61716834E-04-3.89877182E-03-3.23541873E-03
10  6-6.25529440E-03-3.79504372E-03-5.89202404E-06 4.79554500E-05 1.62769337E-03
10  7 1.43730314E-02 2.33530737E-02 5.79617904E-03-1.21728846E-03 1.11540113E-02
10  8-1.09981804E-03-1.81654392E-02-2.93010532E-02 5.66017372E-03-1.30412446E-03
10  9 1.11808945E-02 1.28161605E-01 1.34150404E+00 1.77763877E+00 1.99457428E-03
10 10-3.30642888E-03 3.82632640E-03-1.27189024E-01-1.34264632E+00-1.79223620E+00
10 11 2.08594787E-03 2.16875780E-03 4.60878360E-03
11  1-1.95693377E-03 3.66731856E-03 3.04422418E-03-7.61555451E-04-1.14989666E-03
11  2 2.21821649E-02 3.74525812E-01 2.16489719E-02-1.87314074E-01-1.01610877E-01
11  3 2.24006691E+00 1.39733247E-01-1.12216195E+00-6.81516917E-04-3.95773097E-03
11  4 3.05212127E-03-3.24604292E-02-3.74188298E-03 1.70207956E-02-1.12748886E-02
11  5-7.12479186E-04 5.19791976E-03-4.37311572E-04 3.12878163E-03-5.13360327E-03
11  6 2.52370548E-03-4.94003011E-03-1.87805726E-04 5.56054475E-05-9.96857715E-02
11  7-1.34521959E+00-2.43430983E+00 7.60659273E-03-1.00436150E-03-3.92491426E-03
11  8 9.72771202E-02 1.35180834E+00 2.45569574E+00 8.13753418E-03 1.48879707E-03
11  9-3.90328949E-03 2.55254498E-04 2.41402145E-02 5.09174960E-02 1.05661519E-02
11 10 8.49334262E-04-4.98931099E-03-2.50603489E-03-8.75330023E-03 8.37635849E-04
11 11 1.02580420E-02 9.28271730E-04-5.52317779E-03
12  1-8.78813352E-02 1.63483048E-01-2.39123211E-04-3.37071865E-02-3.86510119E-03
12  2 1.00288915E+00-6.99831861E-03 7.19689415E-02 1.36362152E-02-4.62874632E+00
12  3-3.89539908E-02 8.77491082E-01 1.38587281E-01-2.85802098E-02-2.34400965E-02
12  4-2.01861444E-02 3.89309041E-08 6.98562887E-03-6.39173389E-04 1.89951044E-04
12  5-3.88982346E-03-1.06952611E-04-4.29020727E-03-5.64358314E-04-6.30866732E-04
12  6-7.17492132E-04 8.13374445E-04-3.06269601E-06 3.51089824E-03-6.15828422E-02
12  7 5.24160805E-02 3.14327169E-01-1.25359052E-02-8.16323008E-03 5.64347353E-03
12  8-6.57754200E-02-4.51546162E-03 2.11027773E-01 1.22372896E-02-6.77414993E-03
12  9-7.12423296E-03-3.69310731E-02 4.97204320E-01 1.40262747E+00 6.26049079E-03
12 10 1.22498870E-02 1.40439000E-02-3.79337521E-02 4.84652643E-01 1.38021640E+00
12 11-6.61256879E-03 1.52026858E-02-1.05393732E-02
13  1 2.50016233E-02-4.40697962E-02-1.10143057E-04-1.49445810E-02-1.54400132E-03
13  2-2.71735677E-01 1.80029903E-03 3.63881808E-01 4.22308571E-02 1.43807733E+00
13  3 1.16006942E-02 2.56303423E+00 2.93920532E-01-1.01752382E-02 1.21485250E-02
13  4 1.98527183E-02-2.94819262E-03 2.45369889E-02-1.13551687E-03-6.65515338E-05
13  5-9.83426167E-03-1.40871795E-03-4.91264475E-03-5.81507021E-04 6.54988347E-05
13  6-2.65081112E-04-1.07167835E-04-5.37382937E-03-4.02406951E-04-4.85258646E-02
13  7-9.73304841E-01-1.98558861E+00 2.99345853E-03 1.33468100E-02 2.55503729E-05
13  8-4.80768281E-02-9.64946977E-01-1.96751229E+00-2.88401529E-03 1.29800016E-02
13  9 3.02406604E-03 6.85921833E-02 8.09374885E-01 1.46680845E+00-1.16519907E-03
13 10 6.11623111E-03-1.67778455E-03 6.88206602E-02 8.13262961E-01 1.48042595E+00
13 11 1.25142988E-03 5.54438428E-03 2.99552814E-03
14  1-1.12885411E-04 1.94837196E-04 1.54900365E-01-3.29487548E-02 2.98714454E-01
14  2 1.86477145E-03 4.45805537E-01-9.36712165E-02 8.59245707E-01-1.15971038E-02
14  3-6.96050548E-01 1.53323389E-01-1.34522561E+00-1.33239428E-04-5.27748800E-03
14  4 5.23586280E-03 1.33585886E-02 1.84521328E-03 2.50609211E-02-1.37013686E-02
14  5 3.90047518E-03-3.10094055E-02 1.41862448E-03-1.33154816E-02-8.17783888E-03
14  6-1.56257683E-02-1.00173582E-02 1.07901142E-03 2.55497043E-04-3.17145877E-04
14  7-3.55004080E-03 2.01411708E-03 2.10571763E-03-5.05820596E-04 4.26159728E-03
14  8-8.88585884E-04-7.25056880E-03 2.19196430E-02 2.35925820E-03-5.66466342E-04
14  9 4.10283042E-03 1.11924591E-01 9.53108572E-01-2.79479775E+00-6.05516382E-03
14 10-1.18527533E-02-1.30245448E-02-1.10475729E-01-9.37247664E-01 2.77729558E+00
14 11-5.92662745E-03 1.45472991E-02-9.83385988E-03
15  1-1.00562460E-02 1.47260115E-02-9.05257771E-03 3.34291105E-01 4.16100904E-02
15  2 1.73523039E-01-2.99021047E-02 1.18874846E+00 1.47973526E-01-1.75413221E-01
15  3 3.14249497E-02-7.46048600E-01-9.39495393E-02-2.35399982E-02 1.23552530E-03
15  4 1.14354714E-02-2.51319331E-03 2.88205618E-02-2.22532851E-03 1.06842540E-03
15  5-3.91203781E-02-5.94508973E-03-2.13014926E-02-2.69899152E-03 6.14737865E-04
15  6-1.19920189E-03 4.51194388E-04-2.15104756E-02-2.84505329E-04-8.54013552E-02
15  7-9.95921376E-01 1.29260491E+00-1.37574612E-02-3.00014321E-03 6.78056034E-03
15  8-9.19551067E-02-1.06818647E+00 1.42542301E+00 1.44738148E-02-2.18192808E-03
15  9-7.87142628E-03 7.85890970E-02 9.51632286E-01-1.26163708E+00-5.48717441E-03
15 10-4.50044618E-03-1.07551306E-02 8.03167269E-02 9.70045064E-01-1.30234336E+00
15 11 5.23835854E-03-7.17992235E-03 9.76158842E-03
16  1 3.70525572E-04-5.14937299E-04-2.97387072E-01-2.69122326E-02 1.51152638E-01
16  2-6.48665777E-03-1.01674186E+00-9.39349364E-02 5.16262944E-01 1.86644918E-03
16  3 9.31076213E-01 7.42759866E-02-4.76363503E-01 8.26339236E-04 3.38700034E-03
16  4-3.83779034E-03 3.32302047E-02 3.01939636E-03-1.68954712E-02 3.75519290E-02
16  5 3.45182248E-03-1.78442834E-02 1.78016363E-03-1.00746118E-02 1.76590717E-02
16  6-8.97499843E-03 1.65451652E-02 1.30305072E-03 1.77436254E-04 1.17027387E-01
16  7 1.32183089E+00-2.26636814E+00 1.36802331E-02 1.55151334E-02-5.30824385E-03
16  8-1.11704353E-01-1.25856609E+00 2.19129486E+00 1.28176892E-02-1.38120049E-02
16  9-8.36288799E-03-2.54682067E-03-3.14256919E-02 3.94010183E-02-5.73105045E-03
16 10-1.90632372E-04 3.41422394E-03-1.89514146E-03-2.31129174E-02 3.21522502E-02
16 11-6.05724723E-03-1.82628342E-04 2.78223109E-03
17  1-1.04531672E-01 8.92569688E-02-2.73900690E-04-3.09236443E-02-3.23913615E-03
17  2 2.52844273E+00-1.42616957E-03-1.62139188E-01-1.57829554E-02 7.62210527E+00
17  3-3.72116545E-03-4.03423798E-01-4.45898448E-02-1.74160133E-02-3.89962484E-02
17  4-1.35130442E-02-4.24778472E-04 3.23286653E-03-3.52208259E-03 4.71193292E-05
17  5 2.45476889E-03-3.47033885E-04 4.47867818E-03 4.72126791E-04 9.11980688E-04
17  6 6.11048552E-04-9.01662882E-04-8.99236528E-04-4.39129542E-03-1.02114375E-01
17  7-2.34847220E+00-5.52748911E-01 6.81831077E-03-1.68871594E-03-3.82131680E-03
17  8-1.02227242E-01-2.35481191E+00-5.55896053E-01-6.81639930E-03-2.51007137E-03
17  9 3.33042112E-03-1.00774597E-01-2.55380787E+00-7.75907258E-01-4.65887707E-03
17 10 5.03290209E-03-8.57077028E-03-1.00886163E-01-2.56132809E+00-7.77035864E-01
17 11 4.66833174E-03 2.86737011E-03 9.50794449E-03
18  1-2.55690155E-05 1.07435911E-04 5.63216586E-01 3.54243298E-02-3.14827398E-01
18  2 9.73670864E-04-1.78421729E+00-1.12412360E-01 9.99421453E-01 3.76081806E-03
18  3 1.45952626E+00 9.21894017E-02-8.26827581E-01 4.27514006E-04 1.25112574E-02
18  4-1.28803454E-02 1.41056388E-01 1.67801810E-02-6.24950704E-02 2.48158204E-01
18  5 1.60239693E-02-1.37225454E-01 7.33656695E-03-6.54843317E-02 1.12231202E-01
18  6-6.37685415E-02 1.10112582E-01 6.26117257E-03 2.95075102E-04 2.97737568E-01
18  7-4.27884157E-02-1.46862956E+00 1.42961915E-02 3.10915530E-02-2.09731251E-03
18  8-2.98552391E-01 4.17782157E-02 1.47024056E+00 1.42897823E-02-2.98201933E-02
18  9-9.37401989E-03 1.86116652E-02-2.08971415E-02-5.52109783E-02-2.97561146E-02
18 10-3.18361059E-03 1.40387474E-02-1.75823119E-02 1.68453136E-02 5.23422034E-02
18 11-2.96299487E-02-5.99416919E-05 1.44400329E-02
19  1-8.34614989E-05 4.11898919E-05-2.82509495E-01 6.83644473E-02-4.80599927E-01
19  2 3.07818665E-03 9.07690052E-01-2.19908107E-01 1.54777896E+00 9.10685311E-03
19  3-8.08999631E-01 1.92256328E-01-1.39764009E+00 1.55812414E-03-3.56576342E-02
19  4 3.40922896E-02 8.31210775E-02 8.66543588E-03 1.68979278E-01-1.27901140E-01
19  5 3.46811310E-02-2.26288552E-01 1.40020424E-02-1.00142366E-01-6.49713791E-02
19  6-1.12257099E-01-6.33520128E-02 1.14881518E-02-2.70620666E-04-8.44850861E-03
19  7-2.74440564E-03 4.36263610E-02 1.56939188E-02-4.88472711E-03 3.00736251E-02
19  8 1.39013230E-02 5.29044700E-04-7.76648360E-02 1.49781472E-02-2.75198798E-03
19  9 3.06365815E-02 4.10686163E-01-3.73172908E-01-1.32464854E+00-7.95057615E-03
19 10-3.14618435E-02-2.17682357E-02-4.15573203E-01 3.62228443E-01 1.35580948E+00
19 11-8.11956635E-03 3.57350239E-02-1.45372234E-02
20  1 1.91151332E-03-9.76414242E-03-7.47841756E-03-7.08190508E-01-9.20523894E-02
20  2-1.28467576E-01 2.30830823E-02 2.21533391E+00 2.87156576E-01-5.64809580E-01
20  3-1.72415063E-02-1.53876225E+00-2.03223716E-01-6.59553895E-02 1.13554230E-02
20  4 3.69119287E-02-8.70200110E-03 8.38783465E-02-1.52242314E-03-3.10825200E-03
20  5-2.88347174E-01-3.64365878E-02-1.28980340E-01-1.68607766E-02-2.19904405E-03
20  6-1.80524718E-02-5.78345659E-04-1.24387341E-01 3.86347031E-03-1.55817083E-01
20  7-1.47131092E-02 1.03929355E+00-1.81665886E-02 1.24763672E-02 1.15415527E-02
20  8-1.55512429E-01-1.21953585E-02 1.03482625E+00 1.86955686E-02 1.46382215E-02
20  9-7.53804798E-03 1.45118565E-01 3.72531918E-01-9.61206810E-01-2.18100739E-03
20 10 1.48454094E-02-2.74889362E-03 1.34550978E-01 3.77141599E-01-9.17623999E-01
20 11 2.32693216E-03 1.41866168E-02 6.02782500E-03
21  1 2.85818753E-05 1.22390978E-03-2.70134343E-01 6.35539546E-02-5.25301951E-01