!   test of Lyuda's polarizability screening...EFP2 type potentials
!   system is one NH4+ ion and four ammonia molecules...no Chg.Transf.
!   polarizability screening can be turned off by taking it out of
!   BOTH fragment potentials.
!
!                ELECTROSTATIC ENERGY  =   -.1309529004
!                REPULSION ENERGY      =    .0599740446
!                POLARIZATION ENERGY   =   -.0330299492
!                DISPERSION ENERGY     =   -.0075523672
!                --------------------------------------
!   with POLSCR, FINAL EFP ENERGY      =   -.1115611723  RMS= 0.001590827
!
!   This run takes 0 seconds on 2.66 GHz Cloverton ( 6 Oct 2015)
!
 $CONTRL units=angs RUNTYP=gradient coord=fragonly $end
 $statpt opttol=1.0e-6 nstep=100 $end
 $efrag
iscrelec=0 iscrpol=0 iscrdisp=0 >
coord=cart polmethd=frgscf
FRAGNAME=NH3   
N1               -2.4863283827    .5074447543   1.7139476461
H2               -2.5417728052   1.0897543681   2.5425486917
H3               -1.7461659439   -.1607259883   1.8995469150
FRAGNAME=NH3   
N1               -5.7472498083  -2.8012083542   3.0733688518
H2               -5.7081148734  -2.4374714601   4.0193615537
H3               -6.6820702030  -3.1796275714   2.9654365056
FRAGNAME=NH3   
N1               -4.8343590978  -2.0915455650  -1.6273138844
H2               -4.0308632331  -2.7065837227  -1.6970327710
H3               -5.6378275154  -2.6656875957  -1.8586990530
FRAGNAME=NH3   
N1               -8.1973174612   1.2821763666    .9163903214
H2               -8.4191900085   1.6712766835   1.8263967935
H3               -7.9572239386   2.0756390094    .3320002116
FRAGNAME=NH4+  
N1               -5.0663945910   -.7758603839   1.0187936396
H2               -4.1743923488   -.3322937973   1.2589825037
H3               -5.3018052104  -1.4761358865   1.7289387432
 $end


 $NH3
ammonia
 COORDINATES 
N1          .0000000000    .0000001630   -.1336766338  14.0030700  7.0
H2          .0000000000   1.7626663313    .6191171452   1.0078250  1.0
H3        -1.5265150026   -.8813342980    .6191161780   1.0078250  1.0
H4         1.5265150026   -.8813342980    .6191161780   1.0078250  1.0
BO21        .0000000000    .8813332472    .2427202557    .0000000   .0
BO31       -.7632575013   -.4406670675    .2427197721    .0000000   .0
BO41        .7632575013   -.4406670675    .2427197721    .0000000   .0
 STOP
 MONOPOLES 
N1        -6.6646426950   7.00000
H2         -.6147675319   1.00000
H3         -.6147676398   1.00000
H4         -.6147676398   1.00000
BO21       -.5179047966    .00000
BO31       -.4865748485    .00000
BO41       -.4865748485    .00000
 STOP
 DIPOLES 
N1           .0000000000    -.0000001467     .8436037442
H2           .0000000000     .0709890163     .0121722027
H3          -.0614783394    -.0354945654     .0121721674
H4           .0614783394    -.0354945654     .0121721674
BO21         .0000000000    -.2925501325    -.1826188886
BO31         .2614351151     .1600811352    -.1716167867
BO41        -.2614351151     .1600811352    -.1716167867
 STOP
 QUADRUPOLES 
N1         -3.6016981544   -3.6016979667   -4.6384829711     .0000000000 >
     .0000000000     .0000006121
H2          -.3730812062    -.3743451711    -.3749910538     .0000000000 >
     .0000000000     .0062634479
H3          -.3740295188    -.3733975320    -.3749913968    -.0005473140 >
    -.0054242996    -.0031317194
H4          -.3740295188    -.3733975320    -.3749913968     .0005473140 >
     .0054242996    -.0031317194
BO21        -.3134432512    -.2449444690    -.3354681177     .0000000000 >
     .0000000000     .0221395010
BO31        -.2105200947    -.2327671865    -.2865719973     .0263931996 >
    -.0165721637    -.0062215571
BO41        -.2105200947    -.2327671865    -.2865719973    -.0263931996 >
     .0165721637    -.0062215571
 STOP
 OCTUPOLES  
N1           .0000000000    -.0467192421    2.5585269632     .0467185669 >
     .9164058328     .0000000000     .9164058451     .0000000000 >
    -.0000000576     .0000000000
H2           .0000000000     .1179666514    -.0022483874     .0401159320 >
    -.0010180579     .0000000000    -.0041499747     .0000000000 >
     .0394019927     .0000000000
H3          -.1026777857    -.0598763812    -.0022484083    -.0191650772 >
    -.0033670022    -.0342259272    -.0018010446    -.0341231769 >
    -.0197010419    -.0013561599
H4           .1026777857    -.0598763812    -.0022484083    -.0191650772 >
    -.0033670022     .0342259272    -.0018010446     .0341231769 >
    -.0197010419     .0013561599
BO21         .0000000000    -.9163062107    -.5802000310    -.2885782724 >
    -.1946906377     .0000000000    -.2041539331     .0000000000 >
    -.2958641310     .0000000000
BO31         .8222925016     .5128226549    -.5295729927     .1805666040 >
    -.1830656230     .2742291451    -.1737589983     .2685741000 >
     .1694792079    -.0055546159
BO41        -.8222925016     .5128226550    -.5295729927     .1805666040 >
    -.1830656230    -.2742291451    -.1737589983    -.2685741000 >
     .1694792079     .0055546159
 STOP
 POLARIZABLE POINTS
CT1   -.9090052846   -.5248146319    .3465309687
    3.7643075054    2.2555498193    1.7910819580    1.3065703304 >
   -1.1658074287    -.6730772265    1.3065665676    -.9811738969 >
    -.5664807205
CT2   -.0000000002   1.0496282989    .3465316226
    1.5012605641    4.5185911137    1.7910811939     .0000000007 >
    -.0000000002    1.3461610455     .0000000139     .0000000009 >
    1.1329619211
CT3    .9090052828   -.5248146313    .3465309714
    3.7643074933    2.2555498279    1.7910819747   -1.3065703445 >
    1.1658074383    -.6730772324   -1.3065665571     .9811739104 >
    -.5664807307
CT4    .0000000019    .0000004617   -.7770944175
    2.9613468340    2.9614975427    6.9799260145     .0000000286 >
    -.0000000131    -.0000033975    -.0000000118    -.0000000145 >
    -.0000027980
 STOP
 DYNAMIC POLARIZABLE POINTS
CT  1   -.9090052846   -.5248146319    .3465309687 -- FOR W=  .002792I A.U.
    3.7641464284    2.2555017978    1.7908828840    1.3065254073 >
   -1.1658275870    -.6730908785    1.3065250306    -.9808964539 >
    -.5663208606
CT  2   -.0000000002   1.0496282989    .3465316226
    1.5011772923    4.5184587348    1.7908821083     .0000000007 >
     .0000000010    1.3461808812     .0000000124     .0000000009 >
    1.1326412258
CT  3    .9090052828   -.5248146313    .3465309714
    3.7641464202    2.2555018064    1.7908829007   -1.3065254280 >
    1.1658275994    -.6730908845   -1.3065250233     .9808964674 >
    -.5663208708
CT  4    .0000000019    .0000004617   -.7770944175
    2.9616052420    2.9616045959    6.9800715936     .0000000257 >
    -.0000000134    -.0000028558    -.0000000138    -.0000000145 >
    -.0000032339
CT  1   -.9090052846   -.5248146319    .3465309687 -- FOR W=  .015107I A.U.
    3.7617702718    2.2546143760    1.7899384058    1.3052361244 >
   -1.1647059249    -.6724432865    1.3052357480    -.9793164267 >
    -.5654086320
CT  2   -.0000000002   1.0496282989    .3465316226
    1.5010342393    4.5153382244    1.7899376308     .0000000006 >
     .0000000010    1.3448857002     .0000000123     .0000000009 >
    1.1308167707
CT  3    .9090052828   -.5248146313    .3465309714
    3.7617702636    2.2546143846    1.7899384225   -1.3052361450 >
    1.1647059373    -.6724432925   -1.3052357407     .9793164402 >
    -.5654086422
CT  4    .0000000019    .0000004617   -.7770944175
    2.9593669020    2.9593662573    6.9692497272     .0000000257 >
    -.0000000134    -.0000028475    -.0000000138    -.0000000145 >
    -.0000032249
CT  1   -.9090052846   -.5248146319    .3465309687 -- FOR W=  .039002I A.U.
    3.7479114034    2.2494250534    1.7844542984    1.2977280719 >
   -1.1581720575    -.6686709563    1.2977276971    -.9701986689 >
    -.5601444951
CT  2   -.0000000002   1.0496282989    .3465316226
    1.5001796997    4.4971446591    1.7844535281     .0000000006 >
     .0000000010    1.3373410568     .0000000122     .0000000010 >
    1.1202885091
CT  3    .9090052828   -.5248146313    .3465309714
    3.7479113953    2.2494250619    1.7844543150   -1.2977280924 >
    1.1581720698    -.6686709623   -1.2977276898     .9701986822 >
    -.5601445052
CT  4    .0000000019    .0000004617   -.7770944175
    2.9463395199    2.9463388893    6.9067928890     .0000000256 >
    -.0000000133    -.0000027998    -.0000000137    -.0000000143 >
    -.0000031724
CT  1   -.9090052846   -.5248146319    .3465309687 -- FOR W=  .077996I A.U.
    3.7000607140    2.2313318209    1.7658192985    1.2719573396 >
   -1.1357195698    -.6557080063    1.2719569713    -.9399338692 >
    -.5426711140
CT  2   -.0000000002   1.0496282989    .3465316226
    1.4969652294    4.4344155005    1.7658185433     .0000000005 >
     .0000000009    1.3114152136     .0000000119     .0000000011 >
    1.0853417880
CT  3    .9090052828   -.5248146313    .3465309714
    3.7000607061    2.2313318293    1.7658193145   -1.2719573596 >
    1.1357195818    -.6557080123   -1.2719569641     .9399338817 >
    -.5426711240
CT  4    .0000000019    .0000004617   -.7770944175
    2.9017154771    2.9017148931    6.6993819864     .0000000250 >
    -.0000000130    -.0000026445    -.0000000135    -.0000000136 >
    -.0000030011
CT  1   -.9090052846   -.5248146319    .3465309687 -- FOR W=  .138651I A.U.
    3.5706977524    2.1810639696    1.7173291702    1.2034589198 >
   -1.0758416785    -.6211374900    1.2034585733    -.8662395868 >
    -.5001237180
CT  2   -.0000000002   1.0496282989    .3465316226
    1.4862450166    4.2655056597    1.7173284511     .0000000001 >
     .0000000009    1.2422743222     .0000000110     .0000000015 >
    1.0002470975
CT  3    .9090052828   -.5248146313    .3465309714
    3.5706977451    2.1810639773    1.7173291849   -1.2034589385 >
    1.0758416899    -.6211374960   -1.2034585663     .8662395974 >
    -.5001237276
CT  4    .0000000019    .0000004617   -.7770944175
    2.7836715887    2.7836711169    6.1937152875     .0000000236 >
    -.0000000123    -.0000022869    -.0000000129    -.0000000122 >
    -.0000026039
CT  1   -.9090052846   -.5248146319    .3465309687 -- FOR W=  .233223I A.U.
    3.2749156338    2.0588353771    1.6124855868    1.0531570731 >
    -.9433703657    -.5446551448    1.0531567866    -.7296186506 >
    -.4212455987
CT  2   -.0000000002   1.0496282989    .3465316226
    1.4507933533    3.8829482003    1.6124849332    -.0000000005 >
     .0000000007    1.0893099007     .0000000091     .0000000019 >
     .8424910509
CT  3    .9090052828   -.5248146313    .3465309714
    3.2749156279    2.0588353834    1.6124855992   -1.0531570889 >
     .9433703758    -.5446551507   -1.0531567803     .7296186583 >
    -.4212456075
CT  4    .0000000019    .0000004617   -.7770944175
    2.5259744687    2.5259741934    5.2541752500     .0000000202 >
    -.0000000107    -.0000017083    -.0000000113    -.0000000097 >
    -.0000019486
CT  1   -.9090052846   -.5248146319    .3465309687 -- FOR W=  .385897I A.U.
    2.7118385866    1.7985534540    1.4160953704     .7909286732 >
    -.7084780871    -.4090400271     .7909284953    -.5374147102 >
    -.3102765874
CT  2   -.0000000002   1.0496282989    .3465316226
    1.3419092857    3.1684759009    1.4160948201    -.0000000013 >
     .0000000003     .8180800294     .0000000057     .0000000021 >
     .6205532825
CT  3    .9090052828   -.5248146313    .3465309714
    2.7118385830    1.7985534582    1.4160953796    -.7909286839 >
     .7084780949    -.4090400325    -.7909284907     .5374147147 >
    -.3102765948
CT  4    .0000000019    .0000004617   -.7770944175
    2.0688308307    2.0688307685    3.9311049672     .0000000141 >
    -.0000000081    -.0000010865    -.0000000081    -.0000000067 >
    -.0000012173
CT  1   -.9090052846   -.5248146319    .3465309687 -- FOR W=  .649114I A.U.
    1.8760590729    1.3447572090    1.0908075238     .4601212755 >
    -.4067582468    -.2348419898     .4601212016    -.3259320327 >
    -.1881769704
CT  2   -.0000000002   1.0496282989    .3465316226
    1.0791051596    2.1417073669    1.0908071425    -.0000000017 >
    -.0000000002     .4696842294     .0000000020     .0000000016 >
     .3763542212
CT  3    .9090052828   -.5248146313    .3465309714
    1.8760590718    1.3447572109    1.0908075295    -.4601212804 >
     .4067582518    -.2348419938    -.4601211994     .3259320353 >
    -.1881769757
CT  4    .0000000019    .0000004617   -.7770944175
    1.4298473971    1.4298474356    2.4771587494     .0000000068 >
    -.0000000048    -.0000006075    -.0000000039    -.0000000042 >
    -.0000006369
CT  1   -.9090052846   -.5248146319    .3465309687 -- FOR W= 1.153904I A.U.
     .9772564240     .7621087496     .6505415402     .1863235206 >
    -.1596526844    -.0921755202     .1863234984    -.1466389570 >
    -.0846620468
CT  2   -.0000000002   1.0496282989    .3465316226
     .6545343885    1.0848294521     .6505413819    -.0000000013 >
    -.0000000004     .1843512885    -.0000000001     .0000000008 >
     .1693243315
CT  3    .9090052828   -.5248146313    .3465309714
     .9772564243     .7621087498     .6505415430    -.1863235217 >
     .1596526869    -.0921755221    -.1863234977     .1466389584 >
    -.0846620495
CT  4    .0000000019    .0000004617   -.7770944175
     .7515483332     .7515483649    1.2108169993     .0000000019 >
    -.0000000021    -.0000002752    -.0000000010    -.0000000022 >
    -.0000002642
CT  1   -.9090052846   -.5248146319    .3465309687 -- FOR W= 2.307592I A.U.
     .3332847398     .2788246655     .2497708166     .0471638537 >
    -.0400904398    -.0231462251     .0471638488    -.0420526932 >
    -.0242791350
CT  2   -.0000000002   1.0496282989    .3465316226
     .2515945001     .3605146540     .2497707980    -.0000000005 >
    -.0000000002     .0462925488    -.0000000003     .0000000002 >
     .0485583633
CT  3    .9090052828   -.5248146313    .3465309714
     .3332847402     .2788246653     .2497708176    -.0471638537 >
     .0400904406    -.0231462256    -.0471638486     .0420526937 >
    -.0242791359
CT  4    .0000000019    .0000004617   -.7770944175
     .2621327157     .2621327249     .4032807664     .0000000003 >
    -.0000000006    -.0000000833    -.0000000001    -.0000000008 >
    -.0000000776
CT  1   -.9090052846   -.5248146319    .3465309687 -- FOR W= 5.957643I A.U.
     .0586339594     .0513681814     .0473411543     .0062923541 >
    -.0054761214    -.0031616398     .0062923535    -.0060834893 >
    -.0035123042
CT  2   -.0000000002   1.0496282989    .3465316226
     .0477352802     .0622668400     .0473411574    -.0000000001 >
     .0000000000     .0063232950    -.0000000001     .0000000000 >
     .0070246233
CT  3    .9090052828   -.5248146313    .3465309714
     .0586339595     .0513681814     .0473411545    -.0062923541 >
     .0054761216    -.0031616398    -.0062923534     .0060834894 >
    -.0035123044
CT  4    .0000000019    .0000004617   -.7770944175
     .0483080973     .0483080984     .0721888112     .0000000000 >
    -.0000000001    -.0000000137     .0000000000    -.0000000001 >
    -.0000000130
CT  1   -.9090052846   -.5248146319    .3465309687 -- FOR W=32.239080I A.U.
     .0021301344     .0018930572     .0017573515     .0002053151 >
    -.0001797343    -.0001037697     .0002053150    -.0002022227 >
    -.0001167533
CT  2   -.0000000002   1.0496282989    .3465316226
     .0017745183     .0022486728     .0017573517     .0000000000 >
     .0000000000     .0002075398     .0000000000     .0000000000 >
     .0002335071
CT  3    .9090052828   -.5248146313    .3465309714
     .0021301344     .0018930572     .0017573515    -.0002053150 >
     .0001797343    -.0001037697    -.0002053150     .0002022227 >
    -.0001167533
CT  4    .0000000019    .0000004617   -.7770944175
     .0018138855     .0018138856     .0026793253     .0000000000 >
     .0000000000    -.0000000005     .0000000000     .0000000000 >
    -.0000000005
 STOP
 PROJECTION BASIS SET
N1            .0000000000    .0000001630   -.1336766338    5.0
   S          6
     1      6293.4800000000   .99196821
     2       949.0440000000  1.82323973
     3       218.7760000000  2.97989064
     4        63.6916000000  4.00000703
     5        18.8282000000  3.88100769
     6         2.7202300000   .38676433
   L          3
     7        30.6331000000  1.03850116  3.93561562
     8         7.0261400000  2.83479441  3.87099402
     9         2.1120500000  -.00320800  2.96727076
   L          1
    10          .6840090000   .53605142   .88668091
   L          1
    11          .2008780000   .21385006   .19169269
   L          1
    12          .0639000000   .09058071   .04579480
   D          1
    13         3.6520000000 15.87955404
   D          1
    14          .9130000000  1.40356754
   D          1
    15          .2282500000   .12405902
   F          1
    16         1.0000000000  1.47215809
  
H2            .0000000000   1.7626663313    .6191171452    1.0
   S          3
    17        33.8650000000   .25506932
    18         5.0947900000   .46010866
    19         1.1587900000   .67832145
   S          1
    20          .3258400000   .30737135
   S          1
    21          .1027410000   .12933556
   S          1
    22          .0360000000   .05890294
   P          1
    23         1.5000000000  2.36621477
   P          1
    24          .3750000000   .41829163
  
H3          -1.5265150026   -.8813342980    .6191161780    1.0
   S          3
    25        33.8650000000   .25506932
    26         5.0947900000   .46010866
    27         1.1587900000   .67832145
   S          1
    28          .3258400000   .30737135
   S          1
    29          .1027410000   .12933556
   S          1
    30          .0360000000   .05890294
   P          1
    31         1.5000000000  2.36621477
   P          1
    32          .3750000000   .41829163
  
H4           1.5265150026   -.8813342980    .6191161780    1.0
   S          3
    33        33.8650000000   .25506932
    34         5.0947900000   .46010866
    35         1.1587900000   .67832145
   S          1
    36          .3258400000   .30737135
   S          1
    37          .1027410000   .12933556
   S          1
    38          .0360000000   .05890294
   P          1
    39         1.5000000000  2.36621477
   P          1
    40          .3750000000   .41829163
  
 STOP
 MULTIPLICITY    1
 STOP
 PROJECTION WAVEFUNCTION    4  75
 1  1-5.05565733E-02-8.83502974E-02-1.48748227E-01-8.58798839E-02 6.88007458E-02
 1  2 2.27153399E-01-2.24152561E-01-1.29414624E-01 1.07475338E-01 1.52681494E-01
 1  3-1.42315462E-01-8.21659104E-02 8.10693684E-02 1.45333718E-02-7.14207896E-03
 1  4-4.12348469E-03 1.94909246E-02-2.62770590E-03-4.78839476E-03-4.00089900E-03
 1  5 2.16069155E-03-2.34889088E-03-1.35613394E-03-2.21771617E-03-1.43557681E-02
 1  6-9.31037312E-03 1.21380681E-02-1.78044673E-02-1.02794199E-02-1.96364200E-02
 1  7-2.02699803E-02-1.05373014E-02 6.33574582E-04-1.00217653E-02-5.78607452E-03
 1  8-4.84250492E-03-1.47949634E-03-6.74841891E-04-3.01637093E-03 3.26688721E-03
 1  9-2.16563695E-03 2.39281087E-03 2.99177998E-04 1.72734775E-04 8.74075669E-04
 1 10-1.15752482E-02-3.59879831E-02-2.82789139E-02-2.74034718E-03-4.40408666E-03
 1 11-2.38373878E-03 2.20173683E-03-8.08835291E-03 4.44135870E-04 6.57061597E-03
 1 12 1.91062519E-01 2.69993636E-01 8.02321415E-02 4.37838010E-04 1.13339592E-02
 1 13 6.54366929E-03-5.16448800E-03 2.34901408E-02 1.35620520E-02-9.88037858E-03
 1 14-1.15752505E-02-3.59879631E-02-2.82789303E-02-2.74033650E-03-4.26641660E-03
 1 15-2.62217985E-03 2.20173328E-03-3.65953976E-03-7.22678924E-03 6.57060738E-03
 2  1 5.05566019E-02 8.83503562E-02 8.60359966E-11-1.71759658E-01-6.88009175E-02
 2  2-2.27153576E-01 1.32284360E-10-2.58829081E-01-1.07475599E-01-1.52681393E-01
 2  3 8.34083213E-11-1.64331624E-01-8.10694732E-02-1.45333488E-02 4.11473998E-12
 2  4-8.24693415E-03-1.94909210E-02 5.86875233E-03 1.54736638E-03 4.00090459E-03
 2  5-1.25868203E-12 1.36751709E-12-2.71227248E-03 2.04248385E-02-3.85127038E-03
 2  6 9.31037294E-03-7.06529568E-12 1.03651880E-11-2.05588458E-02 2.05867717E-02
 2  7 1.93196440E-02 1.05372812E-02-8.05483680E-12 6.01872168E-12-1.15721300E-02
 2  8 1.78247384E-12-6.90794198E-03 6.74851794E-04-7.34609191E-04-1.95576931E-03
 2  9 8.01686222E-13-3.70392434E-03-3.80354580E-12 3.45466413E-04-5.06729076E-13
 2 10-1.91062620E-01-2.69993590E-01-8.02319749E-02-4.37849105E-04 2.56536604E-12
 2 11 1.30873440E-02 5.16450572E-03 4.62685618E-12 2.71240491E-02 9.88039359E-03
 2 12 1.15752611E-02 3.59879591E-02 2.82789144E-02 2.74034178E-03 1.37665251E-04
 2 13-5.00591120E-03-2.20173743E-03 4.42880517E-03-6.78263726E-03-6.57061187E-03
 2 14 1.15752612E-02 3.59879593E-02 2.82789144E-02 2.74034178E-03-1.37665255E-04
 2 15-5.00591120E-03-2.20173743E-03-4.42880518E-03-6.78263725E-03-6.57061188E-03
 3  1-5.05565731E-02-8.83502970E-02 1.48748227E-01-8.58798840E-02 6.88007470E-02
 3  2 2.27153398E-01 2.24152561E-01-1.29414624E-01 1.07475340E-01 1.52681492E-01
 3  3 1.42315461E-01-8.21659105E-02 8.10693702E-02 1.45333716E-02 7.14207895E-03
 3  4-4.12348469E-03 1.94909251E-02-2.62770589E-03-4.78839475E-03-4.00089898E-03
 3  5-2.16069155E-03 2.34889088E-03-1.35613394E-03-2.21771614E-03-1.43557680E-02
 3  6-9.31037298E-03-1.21380680E-02 1.78044673E-02-1.02794199E-02-1.96364199E-02
 3  7-2.02699802E-02-1.05373011E-02-6.33574589E-04 1.00217653E-02-5.78607452E-03
 3  8 4.84250492E-03-1.47949635E-03-6.74841866E-04-3.01637091E-03 3.26688725E-03
 3  9 2.16563694E-03 2.39281090E-03-2.99178001E-04 1.72734769E-04-8.74075668E-04
 3 10-1.15752480E-02-3.59879827E-02-2.82789138E-02-2.74034716E-03 4.40408665E-03
 3 11-2.38373879E-03 2.20173686E-03 8.08835289E-03 4.44135784E-04 6.57061603E-03
 3 12-1.15752502E-02-3.59879624E-02-2.82789302E-02-2.74033648E-03 4.26641662E-03
 3 13-2.62217984E-03 2.20173332E-03 3.65953986E-03-7.22678917E-03 6.57060743E-03
 3 14 1.91062519E-01 2.69993636E-01 8.02321415E-02 4.37838022E-04-1.13339593E-02
 3 15 6.54366929E-03-5.16448796E-03-2.34901408E-02 1.35620520E-02-9.88037851E-03
 4  1 6.90602228E-02 1.23781567E-01-7.24117000E-10-9.51574733E-08 2.21295084E-01
 4  2-3.26593210E-01-1.09119069E-09-1.42712215E-07 3.20885035E-01-5.03901771E-01
 4  3-6.92801838E-10-1.65701571E-07 3.20620161E-01-5.04864454E-02-3.47681508E-11
 4  4-4.24207196E-08 8.71056449E-02 5.12868289E-03 5.12868280E-03 6.07327726E-03
 4  5 1.05184009E-11-1.14345687E-11 1.07602424E-10 8.61877660E-03 8.61876911E-03
 4  6 3.20156598E-02 5.90889828E-11-8.66734194E-11-8.22933417E-09 2.52841946E-02
 4  7 2.52841873E-02 6.05572673E-02 3.08428931E-12-4.87866698E-11-2.53028939E-08
 4  8-2.35736597E-11-2.44619192E-03 5.40725746E-03 3.28189367E-03 5.30355519E-03
 4  9-1.05424753E-11 5.30355332E-03 1.45642127E-12 7.75152607E-10 4.25506282E-12
 4 10 9.54011357E-03 5.91221160E-02 1.55843033E-02 3.64484963E-03-2.14394086E-11
 4 11-1.21517313E-03 7.68925898E-03-3.93746800E-11-1.45249732E-02 1.26123996E-02
 4 12 9.54012041E-03 5.91220527E-02 1.55843525E-02 3.64485626E-03 1.05236274E-03
 4 13 6.07578693E-04 7.68925301E-03 1.25789784E-02 7.26247329E-03 1.26124094E-02
 4 14 9.54011942E-03 5.91220513E-02 1.55843520E-02 3.64485624E-03-1.05236271E-03
 4 15 6.07578648E-04 7.68925304E-03-1.25789783E-02 7.26247319E-03 1.26124095E-02
 FOCK MATRIX ELEMENTS
    -.7702198637     .1437847401    -.7702202611    -.1437847104 >
     .1437847398    -.7702198630     .1335994919    -.1335995359 >
     .1335994927    -.5185625681
 LMO CENTROIDS
CT1   -.9090052846   -.5248146319    .3465309687
CT2   -.0000000002   1.0496282989    .3465316226
CT3    .9090052828   -.5248146313    .3465309714
CT4    .0000000019    .0000004617   -.7770944175
 STOP
SCREEN3      (FROM VDWSCL=    .700)
 N1         1.000000000   1.744
 H2         1.000000000   1.95
 H3         1.000000000   1.95
 H4         1.000000000   1.95
 BO21       1.000000000   2.18
 BO31       1.000000000   2.18
 BO41       1.000000000   2.18
STOP 
POLSCR
 CT1    1.20
 CT2    1.20
 CT3    1.20
 CT4    1.20
STOP
 $end


 $NH4+
ammonium ion
 COORDINATES 
N1          .0000000000    .0000000000    .0000000000  14.0030700  7.0
H2         1.1180355339   1.1180355345   1.1180355345   1.0078250  1.0
H3        -1.1180355341  -1.1180355343   1.1180355345   1.0078250  1.0
H4        -1.1180355341   1.1180355343  -1.1180355343   1.0078250  1.0
H5         1.1180355341  -1.1180355345  -1.1180355345   1.0078250  1.0
BO21        .5590177670    .5590177673    .5590177673    .0000000   .0
BO31       -.5590177671   -.5590177672    .5590177673    .0000000   .0
BO41       -.5590177671    .5590177672   -.5590177672    .0000000   .0
BO51        .5590177671   -.5590177673   -.5590177673    .0000000   .0
 STOP
 MONOPOLES 
N1        -5.8797163936   7.00000
H2         -.4961234689   1.00000
H3         -.4961234689   1.00000
H4         -.4961234690   1.00000
H5         -.4961234690   1.00000
BO21       -.5339474326    .00000
BO31       -.5339474326    .00000
BO41       -.5339474325    .00000
BO51       -.5339474328    .00000
 STOP
 DIPOLES 
N1          -.0000000001     .0000000001     .0000000002
H2           .0476241166     .0476241166     .0476241166
H3          -.0476241166    -.0476241166     .0476241166
H4          -.0476241166     .0476241167    -.0476241167
H5           .0476241166    -.0476241166    -.0476241166
BO21        -.1491121675    -.1491121676    -.1491121676
BO31         .1491121676     .1491121674    -.1491121676
BO41         .1491121676    -.1491121676     .1491121675
BO51        -.1491121675     .1491121674     .1491121674
 STOP
 QUADRUPOLES 
N1         -2.6017138262   -2.6017138260   -2.6017138261    -.0000000001 >
    -.0000000001     .0000000001
H2          -.2558151596    -.2558151596    -.2558151596    -.0024324615 >
    -.0024324615    -.0024324615
H3          -.2558151596    -.2558151597    -.2558151597    -.0024324615 >
     .0024324615     .0024324615
H4          -.2558151597    -.2558151597    -.2558151597     .0024324615 >
    -.0024324615     .0024324615
H5          -.2558151597    -.2558151597    -.2558151597     .0024324615 >
     .0024324615    -.0024324615
BO21        -.2938430174    -.2938430173    -.2938430174     .0234923096 >
     .0234923096     .0234923096
BO31        -.2938430173    -.2938430174    -.2938430173     .0234923096 >
    -.0234923096    -.0234923096
BO41        -.2938430173    -.2938430173    -.2938430174    -.0234923096 >
     .0234923096    -.0234923096
BO51        -.2938430175    -.2938430176    -.2938430175    -.0234923096 >
    -.0234923096     .0234923096
 STOP
 OCTUPOLES  
N1           .0000000000     .0000000001     .0000000012     .0000000000 >
     .0000000004     .0000000001     .0000000004     .0000000001 >
     .0000000000    -.0600579333
H2           .0763542471     .0763542470     .0763542470     .0254546533 >
     .0254546533     .0254546534     .0254546533     .0254546534 >
     .0254546533    -.0000598750
H3          -.0763542470    -.0763542471     .0763542471    -.0254546534 >
     .0254546534    -.0254546533     .0254546534    -.0254546533 >
    -.0254546534    -.0000598750
H4          -.0763542472     .0763542472    -.0763542472     .0254546534 >
    -.0254546534    -.0254546534    -.0254546534    -.0254546534 >
     .0254546534    -.0000598750
H5           .0763542472    -.0763542471    -.0763542471    -.0254546534 >
    -.0254546534     .0254546534    -.0254546534     .0254546534 >
    -.0254546534    -.0000598750
BO21        -.3793852156    -.3793852156    -.3793852159    -.1308833226 >
    -.1308833227    -.1308833226    -.1308833227    -.1308833226 >
    -.1308833226    -.0049428524
BO31         .3793852157     .3793852155    -.3793852159     .1308833226 >
    -.1308833227     .1308833227    -.1308833227     .1308833227 >
     .1308833226    -.0049428524
BO41         .3793852156    -.3793852157     .3793852153    -.1308833227 >
     .1308833225     .1308833226     .1308833225     .1308833226 >
    -.1308833227    -.0049428524
BO51        -.3793852158     .3793852153     .3793852151     .1308833225 >
     .1308833225    -.1308833227     .1308833225    -.1308833227 >
     .1308833225    -.0049428524
 STOP
 POLARIZABLE POINTS
CT1    .6189129301    .6189129339    .6189129325
    2.2025897016    2.2026648663    2.2026327203     .8278752473 >
     .8278686863     .8278873732     .8278412600     .8278727532 >
     .8279436324
CT2   -.6189129323    .6189129306   -.6189129326
    2.2025854087    2.2025868358    2.2026192085    -.8278572940 >
     .8278614261    -.8277286523    -.8278255303     .8278013407 >
    -.8277465221
CT3    .6189129342   -.6189129320   -.6189129320
    2.2025811967    2.2026100411    2.2026219706    -.8278524610 >
    -.8278580831     .8277955664    -.8279107000    -.8278348599 >
     .8279153820
CT4   -.6189129321   -.6189129325    .6189129321
    2.2025899286    2.2026405677    2.2025936286     .8278653095 >
    -.8278701500    -.8277874094     .8277698179    -.8277977027 >
    -.8277023132
 STOP
 DYNAMIC POLARIZABLE POINTS
CT  1    .6189129301    .6189129339    .6189129325 -- FOR W=  .002792I A.U.
    2.2025767091    2.2025767188    2.2025767151     .8278491315 >
     .8278491266     .8278491394     .8278491313     .8278491262 >
     .8278491397
CT  2   -.6189129323    .6189129306   -.6189129326
    2.2025767180    2.2025767142    2.2025767186    -.8278491310 >
     .8278491378    -.8278491318    -.8278491311     .8278491376 >
    -.8278491319
CT  3    .6189129342   -.6189129320   -.6189129320
    2.2025767141    2.2025767084    2.2025767085    -.8278491333 >
    -.8278491335     .8278491255    -.8278491333    -.8278491330 >
     .8278491252
CT  4   -.6189129321   -.6189129325    .6189129321
    2.2025767136    2.2025767147    2.2025767140     .8278491327 >
    -.8278491314    -.8278491329     .8278491328    -.8278491312 >
    -.8278491326
CT  1    .6189129301    .6189129339    .6189129325 -- FOR W=  .015107I A.U.
    2.2017647478    2.2017647577    2.2017647541     .8273615436 >
     .8273615385     .8273615517     .8273615435     .8273615385 >
     .8273615516