!   geometry optimization of 64 EFP1 waters with Ewald sums and PBC
!   test case is from Lyuda, for l-e-v-e-l 1 of Ewald sums.
!
!   The geometry search is not allowed to go to completion,
!      NSERCH:  0  E=  -0.9909902276  R.M.S.=  0.0062463
!      NSERCH:  1  E=  -1.0245026537  R.M.S.=  0.0051938
!          ...snipped...
!      NSERCH:  9  E=  -1.1638023595  R.M.S.=  0.0011695
!      NSERCH: 10  E=  -1.1693192803  R.M.S.=  0.0008846
!
!    This run takes 7 seconds on a 2.66 GHz Cloverton ( 6 Oct 2015)
!
!    energy components at the initial geometry are
!                CHARGE-CHARGE         =   -.3211039446
!                CHARGE-DIPOLE         =   -.3714069640
!                CHARGE-QUADRUPOLE     =   -.2436499289
!                CHARGE-OCTUPOLE       =   -.0002168960
!                DIPOLE-DIPOLE         =   -.0561789250
!                DIPOLE-QUADRUPOLE     =   -.0725299032
!                QUADRUPOLE-QUADRUPOLE =   -.0272202647
!                                        --------------
!                ELECTROSTATIC ENERGY  =  -1.3147733434
!                REPULSION ENERGY      =    .6284302381
!                POLARIZATION ENERGY   =   -.3046471223
!                --------------------------------------
!                F_NAL EFP ENERGY      =   -.9909902276
!
!
 $contrl runtyp=optimize coord=fragonly $end
 $system mwords=1 $end
 $ewald  ifewld=.t. beta=0.3 kmax=7 level=1 $end
 $statpt nstep=10 $end

 $efrag
iscrelec=0 iscrpol=1 iscrdisp=1  >
swr1=5.0 swr2=6.2 xbox=12.4 ybox=12.4 zbox=12.4
FRAGNAME=WATER 
ZO1              10.2981729197546   1.7252086792803  18.8923370206671
ZH2               9.4950651853671   1.2962079343619  18.6436308045692
ZH3              10.0569296710896   2.5598646590496  19.2611588536818
FRAGNAME=WATER 
ZO1               9.2414987440784   6.9460546769522  22.9048028070895
ZH2               8.4467828920546   6.9365672748519  23.4139345756269
ZH3               9.0037435346822   7.2281396698610  22.0360226443492
FRAGNAME=WATER 
ZO1               9.8964534861637   6.7893272848345  27.7648075236292
ZH2              10.2099533357883   6.9842562286450  26.8961309410048
ZH3              10.1867734508377   7.4934223367166  28.3223404195892
FRAGNAME=WATER 
ZO1              13.6977841090897   7.8053195013432  21.2903768718025
ZH2              13.2648054192799   7.3213697643122  20.6053947111270
ZH3              13.0352561601348   8.0307109980948  21.9237281521286
FRAGNAME=WATER 
ZO1               8.1286563299431  12.0338187494529  18.6192377195265
ZH2               8.5428391797641  11.3245374555019  18.1542096912569
ZH3               8.0728620582893  11.7693317813832  19.5235673591395
FRAGNAME=WATER 
ZO1              -6.9574141970882  15.5252172587882  30.8305027191491
ZH2              -6.9446228637049  14.5821442298110  30.7940596410896
ZH3              -7.1246439513713  15.7597232613374  31.7293461972827
FRAGNAME=WATER 
ZO1               1.4591401949954  19.2490203666862  25.2113413941563
ZH2               1.8183031713023  18.5763845719696  24.6550667333528
ZH3               1.4556585192687  18.9019443628902  26.0890683332778
FRAGNAME=WATER 
ZO1              16.8548444133742   6.0484767199752  14.9709052382854
ZH2              17.6961065038138   6.4764443344897  14.9714249725597
ZH3              16.2755092472965   6.5883628592805  15.4844927925932
FRAGNAME=WATER 
ZO1              17.6976618566399   9.9444788804214  19.1211286422133
ZH2              18.4885021155697  10.0390038608513  19.6276019061110
ZH3              17.6184104847256   9.0278618443818  18.9103897435662
FRAGNAME=WATER 
ZO1              18.2172582999884   8.2938989779028  22.5644563586267
ZH2              18.9236513431108   8.4770021232883  21.9658241168568
ZH3              18.5661808970957   7.7213814624976  23.2288020291107
FRAGNAME=WATER 
ZO1              19.2705578536312   6.5347223357455  24.2274426935222
ZH2              19.3067480269174   6.6722322737012  25.1605341908078
ZH3              18.9344055088923   5.6628149174717  24.0945611332100
FRAGNAME=WATER 
ZO1              20.5968297284258   7.8374055472294  20.5190010700290
ZH2              20.3388395088257   7.5827290788954  19.6475313934312
ZH3              21.0826492459055   8.6421428404321  20.4338204412102
FRAGNAME=WATER 
ZO1              15.0416141098660  10.2355070973716  20.2689656445279
ZH2              14.9822049075024   9.3725768020624  20.6467225852039
ZH3              15.8881384710918  10.2929402952899  19.8554727331681
FRAGNAME=WATER 
ZO1              16.0168825110355  13.5797050100678  22.9722133645378
ZH2              15.2480392695597  13.0335913456449  23.0111798847327
ZH3              16.2250519408130  13.8189289547790  23.8612104662836
FRAGNAME=WATER 
ZO1              17.1068787017847  10.7923860863526  23.9355533823544
ZH2              16.5355946625967  11.4253617149023  23.5307634931212
ZH3              17.2519902415084  10.1113491829459  23.2983643747347
FRAGNAME=WATER 
ZO1              19.2749289667078   3.8005435357255  23.6955199209681
ZH2              18.4968052694690   3.4453322968537  24.0945524279331
ZH3              19.6691343649461   3.1008207729240  23.1996685185736
FRAGNAME=WATER 
ZO1              10.5166806974391   9.8011424155611  20.7138890915261
ZH2              10.5773618441386  10.7388171795120  20.8031207537931
ZH3              11.1849381762469   9.5433203682299  20.0992036532783
FRAGNAME=WATER 
ZO1               6.7717313649178  13.2470270116530  24.8845320927531
ZH2               6.3955324782436  12.5222326019922  24.4112183326935
ZH3               7.2285035683419  12.8800047179353  25.6244863103683
FRAGNAME=WATER 
ZO1              20.4297490114228  10.3261500456524  24.0794817286325
ZH2              19.6876944031234   9.8168081951996  24.3637426856637
ZH3              21.0812112123939  10.2590843296538  24.7591711021385
FRAGNAME=WATER 
ZO1              16.9072718962578  16.1497435979156  20.9055220852751
ZH2              17.6215571683447  15.9538289507490  21.4905797364035
ZH3              16.7670456926083  17.0820117263068  20.9512517543575
FRAGNAME=WATER 
ZO1              12.4988931629556  15.4609989487919  22.9893645064671
ZH2              12.8512506188538  15.1882230935222  22.1573092137015
ZH3              12.1356347175992  14.6904930166192  23.3958646473378
FRAGNAME=WATER 
ZO1              23.4822127272433  18.9867992730253  25.1669976523347
ZH2              23.1620258272942  19.4469217300122  24.4076254592191
ZH3              24.4183860943718  18.9184766063961  25.0680537596304
FRAGNAME=WATER 
ZO1              14.8466169504834  12.3568982650206  17.9510672193540
ZH2              14.1575788679560  12.7824784959069  17.4663132177735
ZH3              14.5662192620963  12.3272748869983  18.8518324751030
FRAGNAME=WATER 
ZO1              21.0747770560779  16.3709513996160  19.6901289526486
ZH2              20.7818250449420  16.8510991514101  18.9321608070882
ZH3              21.3607000087943  17.0105604906282  20.3226056161467
FRAGNAME=WATER 
ZO1              11.4186139324349  10.8317102548414  28.2387717838562
ZH2              10.5510469433739  10.4649038844359  28.2992619503440
ZH3              11.6327135432639  10.8719311432938  27.3203916387667
FRAGNAME=WATER 
ZO1              14.1799202584589  14.4410748169006  33.1647137776079
ZH2              15.0635743517392  14.5906878988671  33.4607709059506
ZH3              14.0782864476468  14.9230943778764  32.3596012603498
FRAGNAME=WATER 
ZO1              13.8340747974934  15.4305519666244  29.1450220199870
ZH2              14.6413832262995  15.3819871925801  28.6584287426784
ZH3              13.3189412167336  14.6814446204299  28.8913410552449
FRAGNAME=WATER 
ZO1              23.2447230722175  10.4249650433976  25.4618218794732
ZH2              23.5171818618719   9.5429813960287  25.2649729330633
ZH3              23.5188561811944  10.9620308846381  24.7356746666270
FRAGNAME=WATER 
ZO1              16.9805673816531  23.0630759692833  26.6026118313359
ZH2              16.7357829254259  22.8738374686543  25.7109012202691
ZH3              16.3584508591982  22.6174359901892  27.1551102435889
FRAGNAME=WATER 
ZO1              20.9997298189519  12.4136843839450  27.1599101821579
ZH2              21.8891353244981  12.3911406054465  26.8447466075642
ZH3              20.9467705379242  13.1305408873927  27.7716213247851
FRAGNAME=WATER 
ZO1              16.2604544656530  13.4469631805881  26.0023912982098
ZH2              16.9853550737151  12.8836959379209  26.2217712785555
ZH3              16.5137228153722  14.3227208570598  26.2468950591993
FRAGNAME=WATER 
ZO1              26.1463002753312  22.2661307855415  24.6355671335358
ZH2              26.2911373009422  22.8776389522415  25.3398103103511
ZH3              26.3278658769845  21.4066848447878  24.9809148731215
FRAGNAME=WATER 
ZO1               4.0061605672508  16.1762611232288  25.5844905483641
ZH2               3.4096071896080  16.2334746299041  24.8552929507255
ZH3               4.0052131587094  17.0223696353561  26.0027941967451
FRAGNAME=WATER 
ZO1              12.3416041868442  13.2720476328758  29.3762232854585
ZH2              11.9906218954722  12.5536632439624  28.8746121262877
ZH3              11.7720395161117  13.3874265721103  30.1199720604692
FRAGNAME=WATER 
ZO1              12.6294958994604  17.7833624026379  27.8950620654145
ZH2              11.6927560302426  17.8345010283854  27.9988970906121
ZH3              12.9261869015581  17.0810996488028  28.4515509942655
FRAGNAME=WATER
ZO1              11.7046653984667  12.1617857572972  23.4638485967376
ZH2              12.5560108934034  12.1790480559004  23.0566737996514
ZH3              11.0720424110112  12.0909065339192  22.7669678712749
FRAGNAME=WATER 
ZO1               7.4762880170586  14.5791216939967  21.3649927722383
ZH2               6.9298659912622  13.9005080079477  21.0019708873009
ZH3               7.8483262903158  15.0474635949613  20.6348408420588
FRAGNAME=WATER 
ZO1              12.0730075206774  18.3600849118858  32.4645254361347
ZH2              11.4672749930257  17.8464440208088  32.9745642524646
ZH3              12.6229532905780  17.7492594496862  32.0004884127161
FRAGNAME=WATER 
ZO1              14.2691664330999  23.7716499923967  22.5945756770062
ZH2              14.2803303555488  23.1664148219172  23.3187608807178
ZH3              14.5276130257170  23.2836051225006  21.8291372289534
FRAGNAME=WATER 
ZO1               9.3621341570547  12.4166926029950  22.6436545160183
ZH2               8.9085544128972  12.2705361336241  23.4583827874005
ZH3               8.9061860307288  13.1143892679487  22.2006995252458
FRAGNAME=WATER 
ZO1              10.4311268531869   4.4947319849039  21.7915989468843
ZH2              10.0536960525333   5.1889184384154  22.3078640072997
ZH3              11.1247388712098   4.1180653086775  22.3091924530276
FRAGNAME=WATER 
ZO1               7.2012782706808   7.1781723984606  30.3966604652499
ZH2               6.2784674464746   6.9875071499203  30.3423889267875
ZH3               7.6534839832381   6.4389236287024  30.0226287766156
FRAGNAME=WATER 
ZO1              19.4271154340227  10.2060857194817  27.7253169829769
ZH2              20.0955753732449  10.8518919725670  27.5610792066822
ZH3              18.6866637902071  10.4395193193650  27.1885502071350
FRAGNAME=WATER 
ZO1              10.9921995944776   1.5912359752334  25.3955000932353
ZH2              10.4311042082817   2.3429732383464  25.2908984252816
ZH3              10.7480281504460    .9748883525588  24.7236560874990
FRAGNAME=WATER 
ZO1               7.1475600709528   7.0405277474313  27.0857119724526
ZH2               7.8953770470434   6.5599895306799  27.4030938347251
ZH3               7.2955305279165   7.9470730808899  27.3028726416306
FRAGNAME=WATER 
ZO1               9.1027132349613   9.7515773632329  29.6386106459360
ZH2               9.5155490647946   9.0548466486695  30.1233903309280
ZH3               8.2224531977267   9.4671267957394  29.4512377677171
FRAGNAME=WATER 
ZO1              12.7224049681304   9.8596475175293  30.6863131768750
ZH2              13.4573885836117  10.2683104065562  31.1148831037812
ZH3              12.5468770207776  10.3645667628955  29.9084154011361
FRAGNAME=WATER 
ZO1              11.1193607121980   7.8157045103259  30.4222749333044
ZH2              11.2994936872377   6.9532440632326  30.7607901361740
ZH3              11.9503464140959   8.2571664660166  30.3484334883652
FRAGNAME=WATER 
ZO1               5.2109525331693  12.8226776417071  18.1602427586617
ZH2               4.4325329178657  12.5502482118361  17.7011963966839
ZH3               5.7884264650616  12.0763919458425  18.1816897241101
FRAGNAME=WATER 
ZO1               9.2167575722377  15.0024287324134  15.8044518468576
ZH2               9.9114761879092  15.1739129081519  16.4199497563112
ZH3               9.5300465336327  15.2783914410335  14.9579454593152
FRAGNAME=WATER 
ZO1               7.2061701231373  10.5181081602172  21.1564761996598
ZH2               8.0531204997023  10.4929389995089  21.5723127385184
ZH3               6.7126970859693  11.1978588032075  21.5869432471864
FRAGNAME=WATER 
ZO1              11.9995212415825  12.2683040352581  20.3819512703799
ZH2              12.7223226320791  12.8481210933924  20.5615307322795
ZH3              11.3564352632555  12.7741222138485  19.9113486260719
FRAGNAME=WATER
ZO1               7.3702950834805  16.8591710260970  17.2453840811945
ZH2               7.7553928222697  16.3068197741956  16.5839566247759
ZH3               6.6966650710730  16.3492192754215  17.6661575028460
FRAGNAME=WATER 
ZO1              11.7114561321955  21.1142090532874  23.2594633134697
ZH2              12.2704520787729  21.8170564785757  23.5499929722197
ZH3              11.2820591897113  21.4157332683849  22.4748743334090
FRAGNAME=WATER 
ZO1              14.8854435712746  17.0833268562304  23.6098156056422
ZH2              15.3780162256927  17.4537494453309  22.8949465689702
ZH3              14.2049694653982  16.5543829382558  23.2250406365263
FRAGNAME=WATER 
ZO1              13.9693806715463  16.8776688040072  18.9027075948739
ZH2              13.8672947590229  16.4956578268604  18.0456635271760
ZH3              14.8912317472567  17.0449502230404  19.0171015423984
FRAGNAME=WATER 
ZO1              16.8267378537602   7.2293201205805  31.0076828981294
ZH2              16.7526619815963   6.6088338798044  31.7150640148621
ZH3              16.0498370504334   7.1335041270958  30.4803093196081
FRAGNAME=WATER 
ZO1              16.2231773877255   6.3900080620762  33.8444909658797
ZH2              15.3620011912024   6.7762749516456  33.8372866222323
ZH3              16.7981071840988   7.0165560705946  34.2540904974544
FRAGNAME=WATER
ZO1              22.0736401348708   3.7457373806903  25.5121480300692
ZH2              21.1901654736339   3.8037821668994  25.1850673369570
ZH3              22.4624711977271   4.5979031727841  25.3959485403815
FRAGNAME=WATER 
ZO1              16.3912588383623   3.3153206449362  28.3866176458095
ZH2              16.9062481111784   3.4480716262810  29.1663879195992
ZH3              16.5759227313847   4.0415103479652  27.8126610134074
FRAGNAME=WATER 
ZO1              17.8193566422984  12.4284475623549  21.0189439374169
ZH2              17.1440182301025  12.5408367382352  21.6686863142606
ZH3              17.4715246086413  12.7589914761650  20.2061511892244
FRAGNAME=WATER 
ZO1              13.5009747263859  12.3196112576821  38.5888546292952
ZH2              14.3372981324804  12.7294184557168  38.7421506661829
ZH3              12.9446241602100  12.9755747731163  38.2001846304491
FRAGNAME=WATER 
ZO1              15.7096078723758   9.8026630043377  28.9328049963966
ZH2              16.3834568825764   9.5707181763621  29.5516810439651
ZH3              15.4311025686924  10.6778756309719  29.1503276573488
FRAGNAME=WATER 
ZO1              14.4932839343007   7.2034505620430  28.8286917357718
ZH2              14.1825459492119   8.0638847706429  29.0610133476799
ZH3              13.7806915318631   6.7670206700705  28.3898073871704
 $end
 
 $WATER
Standard water EFP...r(OH)=0.9438636, a(HOH)=106.70327
 COORDINATES 
zo1         .000000  .000000 -.119151  15.99491  8.0
zh2       -1.431042  .000000  .945510   1.007825 1.0
zh3        1.431042  .000000  .945510   1.007825 1.0
o1          .000000  .000000 -.119151
h2        -1.431042  .000000  .945510
h3         1.431042  .000000  .945510
b12        -.715521  .000000  .413179
b13         .715521  .000000  .413179
stop
 MONOPOLES
ZO1 8.0    
ZH2 1.0
ZH3 1.0
O1  -8.210827
H2  -0.556652
H3  -0.556652
B12 -0.337934
B13 -0.337934
stop
 DIPOLES
o1   .000000       .000000       .435528
h2  -.053498       .000000       .026668
h3   .053498       .000000       .026668
b12  .145227       .000000      -.106534
b13 -.145227       .000000      -.106534
stop
 QUADRUPOLES
o1  -3.600378 -4.554786 -4.072824   .000000   .000000   .000000
h2   -.273844  -.284801  -.273119   .000000  -.008071   .000000
h3   -.273844  -.284801  -.273119   .000000   .008071   .000000
b12  -.123332  -.156586  -.135104   .000000  -.012710   .000000
b13  -.123332  -.156586  -.135104   .000000   .012710   .000000
stop
 OCTUPOLES
o1    .000000   .000000  1.001522   .000000   .289430   .000000   .336875 >
      .000000   .000000   .000000
h2   -.050127   .000000   .018626   .000000  -.000173  -.020918   .008664 >
     -.013564   .000000   .000000
h3    .050127   .000000   .018626   .000000  -.000173   .020918   .008664 >
      .013564   .000000   .000000
b12   .442205   .000000  -.296631   .000000  -.097197   .145673  -.100224 >
      .147545   .000000   .000000
b13  -.442205   .000000  -.296631   .000000  -.097197  -.145673  -.100224 >
     -.147545   .000000   .000000
stop
 SCREEN
ZO1       3.171069               .307981
ZH2       -.743555               .220351
ZH3       -.743555               .220351
O1        3.063892               .308167
h2       -1.501489               .233582
h3       -1.501489               .233582
b12       1.990144               .440029
b13       1.990144               .440029
stop
 SCREEN1
ZO1       3.171069               .307981
ZH2       -.743555               .220351
ZH3       -.743555               .220351
O1        3.063892               .308167
h2       -1.501489               .233582
h3       -1.501489               .233582
b12       1.990144               .440029
b13       1.990144               .440029
stop
 POLARIZABLE POINTS
LMO1         .000000    .000000   -.118948     .7
  0.001372  0.001315  0.001555  0.000000  0.000000  0.000000  0.000000 >
  0.000000  0.000000
LMO2         .761149    .000000    .486642     .7
  2.093639  0.786767  1.541635  0.000000  0.951176  0.000000  0.000000 >
  1.315027  0.000000
LMO3        -.761149    .000000    .486642     .7
  2.093639  0.786767  1.541635  0.000000 -0.951176  0.000000  0.000000 >
 -1.315027  0.000000
LMO4         .000000   -.489534   -.407726     .7
  1.386526  0.729779  1.052409  0.000000  0.000000  0.086979  0.000000 >
  0.000000  0.655755
LMO5         .000000    .489534   -.407726     .7
  1.386526  0.729779  1.052409  0.000000  0.000000 -0.086979  0.000000 >
  0.000000 -0.655755
stop
 REPULSIVE POTENTIAL
O1       2   
   -.00015658525     .018861917
   1.2469537         .41985964
H2       2  
    .00044035869     .064324281
    .11725664        .69632546
H3       2  
    .00044035869     .064324281
    .11725664        .69632546
stop
 $END
 $FRGRPL
pair=water water
o1 o1 -24.269765 1.4362041
center center 128.74969 1.8712451
o1 center 4.2645641 1.2578017
o1 h2 3.7022852 1.6618349
h2 center -.42798437 1.1335629
h2 h2 6.2316930 3.5264849
o1 h3 'eq' o1 h2
h2 o1 'eq' o1 h2
h2 h3 'eq' h2 h2
h3 o1 'eq' o1 h2
h3 h2 'eq' h2 h2
h3 h3 'eq' h2 h2
h3 center 'eq' h2 center
center o1 'eq' o1 center
center h2 'eq' h2 center
center h3 'eq' h2 center
stop
 $end
 
 

! TRAVIS-CI SMALL

