!   MD NVE simulation of 64 EFP2 waters with Ewald sums and PBC
!   test case is from Lyuda, for l-e-v-e-l 3 of Ewald sums.
!
!  *** AT T= 0
!    ELEC ENERGY      =        -672.87534301 KCAL/MOL
!    POLZ ENERGY      =        -170.90149295 KCAL/MOL
!    DISP ENERGY      =        -228.23933404 KCAL/MOL
!    CH-TR ENRGY      =           0.00000000 KCAL/MOL
!    REP  ENERGY      =         485.43562532 KCAL/MOL
!    POT  ENERGY      =        -586.58054468 KCAL/MOL
!
!  *** AT T=         12.00 FSEC, THIS RUN'S STEP NO.=      40
!    ELEC ENERGY      =        -673.93425288 KCAL/MOL
!    POLZ ENERGY      =        -171.13849809 KCAL/MOL
!    DISP ENERGY      =        -228.74900827 KCAL/MOL
!    CH-TR ENRGY      =           0.00000000 KCAL/MOL
!    REP  ENERGY      =         487.15818634 KCAL/MOL
!    POT  ENERGY      =        -586.66357290 KCAL/MOL
!   TOTAL ENERGY      =        -469.09335761 KCAL/MOL  0.03218051
!              ROT.KE TEMP =     340.38
!            TRANS.KE TEMP =     275.90
!
!    this run takes 92 seconds on a 2.66 GHz Cloverton ( 6 Oct 2015)
!
!    ----------------------------------------------------------------------
!       as of April 2009, properties with Ewald sums are turned off by default
!       but this run requests to see their bogusness:
!    PRESSURE(AVERAGE)=         -111545.2898 BAR    (-112283.2438 BAR)
!    DIFFUSION        =         784.90295216 ANG^2/PS
!    HEAT OF VAP      =           9.95480872 KCAL/MOL*K
!       but after Hui's December 2010 change,
!    PRESSURE(AVERAGE)=          -56706.6726 BAR    ( -56445.0969 BAR)
!    DIFFUSION        =         791.51346014 ANG^2/PS
!    HEAT OF VAP      =           9.92457957 KCAL/MOL*K
!
!   after these 40 time steps, the first EFP particle is at
!           CARTESIAN COORDINATES (ANG)
!   FRAGNAME=WATER   !  1
!  O1        14.165187600409   10.043628410629   12.641065370103
!  H2        15.033609440630   10.368658971243   12.394571378897
!  H3        13.923044212994    9.470694933001   11.910535113542
!
 $contrl runtyp=md coord=fragonly $end
 $system mwords=1 $end
 $md     mdint=vverlet nsteps=40 dt=0.3d-15
         batht=300.0 mbt=.true. mbr=.true.
         jevery=1 kevery=20 pbcout=.true. $end
 $mdprp  pressr=.true. difusn=.true. htvap=.true. $end
 $ewald  ifewld=.t. beta=0.29 kmax=7 level=3 $end

 $efrag
iscrelec=0 iscrpol=1 iscrdisp=1  >
swr1=5.0 swr2=6.2 xbox=12.4 ybox=12.4 zbox=12.4
FRAGNAME=WATER   !  1
O1                14.159228904629   10.084540364752   12.626874806059
H2                15.097148458311   10.113325236010   12.426777360692
H3                13.813877123613    9.447425137796   11.998084713449
FRAGNAME=WATER   !  2
O1                 3.646841863599   21.662371834045    7.263561799052
H2                 3.105383713751   22.007913849510    7.976292065780
H3                 3.030811846540   21.141020226872    6.744658951325
FRAGNAME=WATER   !  3
O1                 4.234677697166   10.154064577916    4.034017649284
H2                 4.203922664770   11.068436593880    4.323048080170
H3                 4.629728660831    9.695359002323    4.778386225059
FRAGNAME=WATER   !  4
O1                 4.302426047747    8.165518777819   11.285794540653
H2                 5.076949946349    7.610629833309   11.398806200956
H3                 3.634792294468    7.732905574478   11.822144830471
FRAGNAME=WATER   !  5
O1                 3.763733636180    4.135760088777   11.224890885565
H2                 4.554923584481    4.587082684745   10.923416134260
H3                 3.217515024571    4.844731798267   11.570672592824
FRAGNAME=WATER   !  6
O1                 2.518406957122    4.976892639561   19.778785563368
H2                 2.655777614333    4.262276677165   19.153474461206
H3                 1.899272065670    4.607025251791   20.411581539422
FRAGNAME=WATER   !  7
O1                12.182526249125   17.035766069323   17.608717745682
H2                13.060468321791   16.977157951906   17.991266371608
H3                12.132388732079   17.941726310979   17.296815652865
FRAGNAME=WATER   !  8
O1                11.935102620491    7.389970139862    7.877045799595
H2                12.296180506188    8.278790861952    7.890504255683
H3                11.923177762060    7.165433126077    6.944307051183
FRAGNAME=WATER   !  9
O1                 8.307519536873    7.714824792994   14.541179829761
H2                 7.587758631456    7.379883595607   14.002366987524
H3                 9.056997194493    7.714094515906   13.942144477668
FRAGNAME=WATER   ! 10
O1                 3.641748651254   10.619234455070    9.808321501048
H2                 4.118072926653   10.072491973719   10.436611632549
H3                 4.114897614346   11.453600648056    9.831207311445
FRAGNAME=WATER   ! 11
O1                -4.525899950410  -17.612643689723    6.263448394117
H2                -4.131937662635  -18.485723708327    6.318996954512
H3                -4.905733091850  -17.480716782086    7.134587143882
FRAGNAME=WATER   ! 12
O1                14.335246265547   19.971065987280   18.175609469406
H2                14.370270014233   19.231074282891   18.785319449688
H3                14.408041138625   19.556560429192   17.313375919630
FRAGNAME=WATER   ! 13
O1                 6.112782082013    1.445156020314    6.106511222465
H2                 5.959300635731    2.386545824716    6.210382909751
H3                 6.930776252745    1.295795078567    6.585194302733
FRAGNAME=WATER   ! 14
O1                12.344556511547   12.489309990597    9.613399914671
H2                12.580389778775   13.212895157453    9.029133004797
H3                11.437591637335   12.683819711947    9.858637209640
FRAGNAME=WATER   ! 15
O1                -2.779876237607    7.040163668256    9.411022116670
H2                -2.353134022167    7.290947205628    8.589097944668
H3                -2.054742099431    6.725480169208    9.954819342350
FRAGNAME=WATER   ! 16
O1                16.703991364481    1.444336572181    9.857739309347
H2                16.377429904229    2.345238028773    9.905643628345
H3                17.170665891476    1.417812740548    9.019841930309
FRAGNAME=WATER   ! 17
O1                 5.186664838937    3.756286334705    4.944458997346
H2                 5.456027108699    4.677157932054    4.944120696033
H3                 4.260091239435    3.792196248984    4.698019373124
FRAGNAME=WATER   ! 18
O1                 -.154244357787   17.927764808665   14.340710208797
H2                  .266101954909   18.503924370188   14.982512189658
H3                -1.054873413546   17.850809312460   14.662433383427
FRAGNAME=WATER   ! 19
O1                 3.168014304665    2.851826165277    1.629483149874
H2                 2.496700542805    2.199455015009    1.418982886203
H3                 3.751288748519    2.829080409496     .868014700553
FRAGNAME=WATER   ! 20
O1                 9.916798397947    2.203225887440   24.909939083732
H2                10.676015969908    2.721055384512   25.185623570127
H3                 9.944957318163    2.253849435722   23.952230893716
FRAGNAME=WATER   ! 21
O1                 7.169711502155    1.312130402000   14.303818015888
H2                 7.194705048997     .800513224495   13.492532719616
H3                 6.770610440065     .711744618209   14.936918243742
FRAGNAME=WATER   ! 22
O1                19.451603982984   12.186766105116   21.570839998946
H2                19.353389375661   11.530004795328   22.263356510293
H3                18.682792367144   12.044818572841   21.014656357470
FRAGNAME=WATER   ! 23
O1                -1.593823935126   14.862773104348    9.294364977060
H2                -2.196657994615   14.629840455234    8.585214694459
H3                -1.150747723588   15.647539239711    8.965144338011
FRAGNAME=WATER   ! 24
O1                 1.803548577418   13.121232389223   11.917046793886
H2                 2.294994594507   13.029491862679   11.098129744570
H3                 1.317914086394   12.296332156562   11.982310818175
FRAGNAME=WATER   ! 25
O1                 7.807121865693    2.485177330110    8.617517465412
H2                 7.559847045599    2.908715409388    9.442157571384
H3                 7.650999606227    1.553735129641    8.786638466222
FRAGNAME=WATER   ! 26
O1                -2.838454884148    -.732454288539   12.823669988854
H2                -2.859770873791     .226616145468   12.806635412749
H3                -2.155625266953    -.931508949733   13.467627752470
FRAGNAME=WATER   ! 27
O1                 5.403850337669   -6.554673843538   19.903006701078
H2                 4.605168718106   -7.080009858830   19.984801488246
H3                 5.088868301921   -5.718069239977   19.554524707200
FRAGNAME=WATER   ! 28
O1                14.751079911797   -9.217683236250   17.467390957820
H2                14.319681043549   -9.361604265938   16.622558193728
H3                14.788185676455  -10.094983708409   17.854079061302
FRAGNAME=WATER   ! 29
O1                 6.457267449526    4.879840287885   10.305594132508
H2                 6.480074352332    5.506504533717    9.579417560439
H3                 6.866406022944    5.358470125911   11.029527659522
FRAGNAME=WATER   ! 30
O1                11.852512366590   -5.047830837441    4.081874264940
H2                12.389827728300   -4.276369750620    4.273448373854
H3                10.955204560521   -4.738009890944    4.221195217763
FRAGNAME=WATER   ! 31
O1                 8.335690193694   -6.998832049831     .143431538596
H2                 8.665439424187   -7.841670004186    -.175081056541
H3                 7.769537622596   -7.241534048247     .879045331138
FRAGNAME=WATER   ! 32
O1                12.851747862800   15.690534398068   12.050804649007
H2                13.463552164575   16.188430350349   12.597024167715
H3                13.251185810932   14.819595143391   12.001057429573
FRAGNAME=WATER   ! 33
O1                 6.235793516967   -3.463905914915    8.522404920115
H2                 6.145948436904   -2.824369129096    7.812840823847
H3                 5.332629298003   -3.606821985601    8.812973390295
FRAGNAME=WATER   ! 34
O1                 -.339670118124   14.881824239399   14.978899980112
H2                 -.120317625346   15.568904290258   14.346155060518
H3                 -.478892561095   15.364215526295   15.796504042816
FRAGNAME=WATER   ! 35
O1                  .426925006091    4.369245750047   21.596609682741
H2                  .158748624921    5.275079994900   21.764259302599
H3                  .499751802166    3.989369918046   22.474647982383
FRAGNAME=WATER   ! 36
O1                15.501504429216   -6.652769373573    2.697218409129
H2                15.753355832388   -7.461113899801    2.245875254409
H3                16.334652050886   -6.192186185437    2.816754232157
FRAGNAME=WATER   ! 37
O1                 9.999672114205   -1.876265106660    7.904510623171
H2                10.586781895002   -2.230205412761    8.575769895429
H3                 9.201734525394   -1.662683450410    8.392608078665
FRAGNAME=WATER   ! 38
O1                 8.838695290207     .652489323998    6.582901206823
H2                 9.209569033109    1.235852436908    5.917543565459
H3                 9.550435434955     .034924126171    6.763455460120
FRAGNAME=WATER   ! 39
O1                 1.845070238268     .528279381612   15.723734474487
H2                 1.028860163734    1.029924280416   15.671636917906
H3                 1.565456006571    -.322310095784   16.068515663133
FRAGNAME=WATER   ! 40
O1                 2.205906127838    6.598892473339   12.319462654618
H2                 1.327890130575    6.859994892752   12.034026005355
H3                 2.117155731460    6.511538568943   13.270805551866
FRAGNAME=WATER   ! 41
O1                 -.920462012198    1.188127520945    5.942519193090
H2                 -.006727865484     .922593421559    6.065572827051
H3                 -.876408494938    2.146402706306    5.924391800033
FRAGNAME=WATER   ! 42
O1                 7.117445201665    1.846897749791   11.556298361246
H2                 6.382027667956    2.461851077867   11.595720449089
H3                 6.848093831794    1.215825709037   10.885657947511
FRAGNAME=WATER   ! 43
O1                 1.704341666854    9.019604054804    3.013481521863
H2                 1.604018188475    9.308094929700    2.103938306596
H3                 2.650662564844    9.070656743630    3.163251434196
FRAGNAME=WATER   ! 44
O1                 4.294911896708    -.255959656025    7.407662301726
H2                 4.743258594274    -.060536391020    6.582219613317
H3                 4.085388495267   -1.189441917843    7.335057503731
FRAGNAME=WATER   ! 45
O1                 2.021333438952    1.421431933371    7.389778775075
H2                 2.576657851023     .645508126285    7.289192053752
H3                 2.509970558572    1.970088449959    8.006844766429
FRAGNAME=WATER   ! 46
O1                10.131609386633    9.901307757054   10.616037531450
H2                 9.632628883310    9.165082503872   10.975970135597
H3                 9.910889990986   10.630187871336   11.199627604222
FRAGNAME=WATER   ! 47
O1                13.385665527230   -1.562555692561    5.142695850908
H2                12.935064157329   -1.882817117767    4.358507308180
H3                14.117599660483   -2.173935884248    5.247802136963
FRAGNAME=WATER   ! 48
O1                 6.152003483376    3.982120180152   13.952875553377
H2                 5.560850533498    4.084035419692   14.701682684344
H3                 6.543898868504    3.117296815536   14.090930617449
FRAGNAME=WATER   ! 49
O1                 4.600639922232     .601982061024   16.423662859125
H2                 3.732127734646     .867063662570   16.113858130130
H3                 4.948437427315    1.398952361711   16.829169802164
FRAGNAME=WATER   ! 50
O1                13.347824660695    8.212810585788   10.478871344964
H2                13.844094766609    8.266138769018    9.659461354508
H3                12.433726945980    8.192440534329   10.188060281613
FRAGNAME=WATER   ! 51
O1                -3.418473808635   -7.896254375134    6.744828554839
H2                -3.347893023665   -8.427799702816    5.949191349197
H3                -3.907546913245   -8.458560758123    7.349129535797
FRAGNAME=WATER   ! 52
O1                -6.224771166214    6.818929591565    3.916694619844
H2                -5.897045707711    6.765404232827    4.816856663862
H3                -5.713237805148    7.533996219497    3.532541025817
FRAGNAME=WATER   ! 53
O1                  .934190304013   -2.213600153738    8.086266680296
H2                  .591879768012   -1.694207737634    7.355776666222
H3                  .723451178763   -1.683852468906    8.857964196899
FRAGNAME=WATER   ! 54
O1                 4.033493100516   11.676326037052   13.912676780249
H2                 4.591685148766   12.014715898214   14.615865648728
H3                 3.204223328094   12.142054458567   14.039046585030
FRAGNAME=WATER   ! 55
O1                11.341134227498    5.891269025529   11.469092288758
H2                11.383052668788    4.951226039880   11.656502734005
H3                10.977853382782    6.265827127552   12.274259291091
FRAGNAME=WATER   ! 56
O1                 7.566948221482    8.237149186184   11.183365932323
H2                 7.230564636893    9.077367612853   10.864869896062
H3                 8.183665841579    7.967308626551   10.499694889313
FRAGNAME=WATER   ! 57
O1                 5.133119450532    8.794205510187   13.987682738934
H2                 4.453647934116    9.328465731914   14.404150168017
H3                 5.002345043438    8.953270511649   13.050582410588
FRAGNAME=WATER   ! 58
O1                 8.774042794287    2.470377763212   16.646879234023
H2                 9.258389422905    2.263481928410   15.844904731635
H3                 7.899774229561    2.111475946450   16.481335861309
FRAGNAME=WATER   ! 59
O1                 6.781119233160   10.905450644620   15.545623649684
H2                 7.710827453430   10.709473360104   15.412221345720
H3                 6.332546153449   10.238228107849   15.022023683898
FRAGNAME=WATER   ! 60
O1                -2.231462398671   -1.385321278128   15.776420750890
H2                -2.222079888334    -.732438788930   16.479426490109
H3                -2.411789816924   -2.208385356903   16.235341430348
FRAGNAME=WATER   ! 61
O1                -2.338070052321  -15.933237768145    5.624261899401
H2                -3.170302534562  -16.398928231879    5.518990188375
H3                -2.464412558719  -15.424331815535    6.427762333829
FRAGNAME=WATER   ! 62
O1                 6.903403804780   -1.595276289575    6.196699767521
H2                 7.038623849185   -1.790586351344    5.267113749453
H3                 7.588086267023    -.952788203290    6.394132364886
FRAGNAME=WATER   ! 63
O1                -2.982701875965    5.364312646079   15.777923638747
H2                -3.252025073804    4.444070410414   15.812273143725
H3                -3.802331279512    5.844424433318   15.913056751946
FRAGNAME=WATER   ! 64
O1                -5.817974339358   11.054854374287   11.966894353287
H2                -6.179957522832   10.492027157912   12.654465691396
H3                -4.911010013598   11.196856548489   12.245841910937
 $end

 $water
this is a EFP2 water (of unknown provenance)
 COORDINATES 
O1         0.0000000000   0.0000000000   0.2242537830  15.9949100  8.0
H2         0.0000000000   1.4248288472  -0.8970151507   1.0078250  1.0
H3         0.0000000000  -1.4248288472  -0.8970151507   1.0078250  1.0
BO21       0.0000000000   0.7124144236  -0.3363806839   0.0000000  0.0
BO31       0.0000000000  -0.7124144236  -0.3363806839   0.0000000  0.0
 STOP
 MONOPOLES 
O1        -8.1265816511   8.00000
H2        -0.6378406008   1.00000
H3        -0.6378406008   1.00000
BO21      -0.2988685737   0.00000
BO31      -0.2988685737   0.00000
 STOP
 DIPOLES 
O1          0.0000000000    0.0000000000   -0.7941982205
H2          0.0000000000    0.0888890416   -0.0522069961
H3          0.0000000000   -0.0888890416   -0.0522069961
BO21        0.0000000000   -0.2392382477    0.2876507384
BO31        0.0000000000    0.2392382477    0.2876507384
 STOP
 QUADRUPOLES 
O1         -4.7523254414   -3.5909929131   -3.9050388551    0.0000000000 >
    0.0000000000    0.0000000000
H2         -0.3833762140   -0.3738696207   -0.3690354428    0.0000000000 >
    0.0000000000   -0.0073238838
H3         -0.3833762140   -0.3738696207   -0.3690354428    0.0000000000 >
    0.0000000000    0.0073238838
BO21       -0.0596543627    0.0891290953    0.0434249504    0.0000000000 >
    0.0000000000   -0.1071361440
BO31       -0.0596543627    0.0891290953    0.0434249504    0.0000000000 >
    0.0000000000    0.1071361440
 STOP
 OCTUPOLES  
O1          0.0000000000    0.0000000000   -1.9970132546    0.0000000000 >
   -0.6091934659    0.0000000000   -0.7292400334    0.0000000000 >
    0.0000000000    0.0000000000
H2          0.0000000000    0.1295942783   -0.0580609838    0.0465199460 >
   -0.0220014840    0.0000000000   -0.0148070246    0.0000000000 >
    0.0396185757    0.0000000000
H3          0.0000000000   -0.1295942783   -0.0580609838   -0.0465199460 >
   -0.0220014840    0.0000000000   -0.0148070246    0.0000000000 >
   -0.0396185757    0.0000000000
BO21        0.0000000000   -0.6655595159    0.8701202039   -0.2044454491 >
    0.2816085368    0.0000000000    0.3207025405    0.0000000000 >
   -0.2373168434    0.0000000000
BO31        0.0000000000    0.6655595159    0.8701202039    0.2044454491 >
    0.2816085368    0.0000000000    0.3207025405    0.0000000000 >
    0.2373168434    0.0000000000
 STOP
 POLARIZABLE POINTS
CT1  -0.0000009848  -0.7505413740  -0.4020858545
    0.8148484263    2.8090500823    1.8872874419    0.0000025717 >
    0.0000021879    1.4144626523    0.0000019255    0.0000016286 >
    1.2432122571
CT2  -0.0000004688   0.7505414000  -0.4020858620
    0.8148483778    2.8090499070    1.8872872865   -0.0000012188 >
    0.0000010362   -1.4144625242   -0.0000009166    0.0000007753 >
   -1.2432121331
CT3   0.5008418247  -0.0000002147   0.4902346345
    2.7133702541    1.4581392265    1.8762727378   -0.0000007201 >
    1.0869698776   -0.0000010107   -0.0000005381    0.9796423596 >
   -0.0000010226
CT4  -0.5008403711   0.0000001887   0.4902372436
    2.7133556615    1.4581450880    1.8762849392   -0.0000006328 >
   -1.0869731232    0.0000008883   -0.0000004708   -0.9796447636 >
    0.0000008986
 STOP
 DYNAMIC POLARIZABLE POINTS
CT  1  -0.0000009848  -0.7505413740  -0.4020858545 -- FOR W= 0.002792I A.U.
    0.8147736966    2.8089403850    1.8871936212    0.0000025816 >
    0.0000021981    1.4144959507    0.0000019257    0.0000016288 >
    1.2431120054
CT  2  -0.0000004688   0.7505414000  -0.4020858620
    0.8147736482    2.8089402154    1.8871934658   -0.0000012290 >
    0.0000010464   -1.4144958281   -0.0000009167    0.0000007754 >
   -1.2431118813
CT  3   0.5008418247  -0.0000002147   0.4902346345
    2.7133664017    1.4581998004    1.8762502505   -0.0000007200 >
    1.0869523537   -0.0000010109   -0.0000005371    0.9795966360 >
   -0.0000010225
CT  4  -0.5008403711   0.0000001887   0.4902372436
    2.7133518174    1.4582056620    1.8762624514   -0.0000006327 >
   -1.0869555982    0.0000008882   -0.0000004719   -0.9795990402 >
    0.0000008984
CT  1  -0.0000009848  -0.7505413740  -0.4020858545 -- FOR W= 0.015107I A.U.
    0.8146462520    2.8074696556    1.8862547843    0.0000025767 >
    0.0000021945    1.4134194169    0.0000019247    0.0000016275 >
    1.2419305233
CT  2  -0.0000004688   0.7505414000  -0.4020858620
    0.8146462036    2.8074694860    1.8862546290   -0.0000012266 >
    0.0000010447   -1.4134192943   -0.0000009163    0.0000007748 >
   -1.2419303994
CT  3   0.5008418247  -0.0000002147   0.4902346345
    2.7110716119    1.4576821791    1.8751820379   -0.0000007186 >
    1.0852150611   -0.0000010101   -0.0000005368    0.9786859284 >
   -0.0000010215
CT  4  -0.5008403711   0.0000001887   0.4902372436
    2.7110570449    1.4576880346    1.8751942255   -0.0000006314 >
   -1.0852183004    0.0000008876   -0.0000004717   -0.9786883307 >
    0.0000008975
CT  1  -0.0000009848  -0.7505413740  -0.4020858545 -- FOR W= 0.039002I A.U.
    0.8139027977    2.7988827930    1.8807808739    0.0000025480 >
    0.0000021740    1.4071380051    0.0000019189    0.0000016203 >
    1.2350538050
CT  2  -0.0000004688   0.7505414000  -0.4020858620
    0.8139027493    2.7988826240    1.8807807192   -0.0000012130 >
    0.0000010349   -1.4071378831   -0.0000009135    0.0000007713 >
   -1.2350536818
CT  3   0.5008418247  -0.0000002147   0.4902346345
    2.6977527234    1.4546575040    1.8689620711   -0.0000007106 >
    1.0751674775   -0.0000010056   -0.0000005352    0.9733874842 >
   -0.0000010155
CT  4  -0.5008403711   0.0000001887   0.4902372436
    2.6977382575    1.4546633244    1.8689741819   -0.0000006244 >
   -1.0751706864    0.0000008836   -0.0000004702   -0.9733898758 >
    0.0000008923
CT  1  -0.0000009848  -0.7505413740  -0.4020858545 -- FOR W= 0.077996I A.U.
    0.8113320511    2.7691192815    1.8619035364    0.0000024527 >
    0.0000021053    1.3854180014    0.0000018986    0.0000015953 >
    1.2114958775
CT  2  -0.0000004688   0.7505414000  -0.4020858620
    0.8113320028    2.7691191144    1.8619033838   -0.0000011676 >
    0.0000010022   -1.3854178813   -0.0000009038    0.0000007594 >
   -1.2114957567
CT  3   0.5008418247  -0.0000002147   0.4902346345
    2.6525938529    1.4441394788    1.8476198000   -0.0000006840 >
    1.0415557813   -0.0000009903   -0.0000005295    0.9552654811 >
   -0.0000009951
CT  4  -0.5008403711   0.0000001887   0.4902372436
    2.6525797289    1.4441451776    1.8476316485   -0.0000006011 >
   -1.0415588888    0.0000008701   -0.0000004653   -0.9552678358 >
    0.0000008744
CT  1  -0.0000009848  -0.7505413740  -0.4020858545 -- FOR W= 0.138651I A.U.
    0.8043080754    2.6877782032    1.8110083230    0.0000022221 >
    0.0000019357    1.3264832422    0.0000018435    0.0000015294 >
    1.1492116846
CT  2  -0.0000004688   0.7505414000  -0.4020858620
    0.8043080275    2.6877780414    1.8110081759   -0.0000010578 >
    0.0000009215   -1.3264831272   -0.0000008776    0.0000007281 >
   -1.1492115704
CT  3   0.5008418247  -0.0000002147   0.4902346345
    2.5362813729    1.4151149806    1.7909013721   -0.0000006197 >
    0.9582835069   -0.0000009485   -0.0000005141    0.9075700057 >
   -0.0000009413
CT  4  -0.5008403711   0.0000001887   0.4902372436
    2.5362681243    1.4151203517    1.7909125336   -0.0000005445 >
   -0.9582863641    0.0000008334   -0.0000004518   -0.9075722632 >
    0.0000008271
CT  1  -0.0000009848  -0.7505413740  -0.4020858545 -- FOR W= 0.233223I A.U.
    0.7872950711    2.4972541649    1.6949124438    0.0000018112 >
    0.0000016184    1.1910127290    0.0000017153    0.0000013865 >
    1.0140365408
CT  2  -0.0000004688   0.7505414000  -0.4020858620
    0.7872950242    2.4972540154    1.6949123090   -0.0000008622 >
    0.0000007704   -1.1910126256   -0.0000008166    0.0000006600 >
   -1.0140364407
CT  3   0.5008418247  -0.0000002147   0.4902346345
    2.2949859037    1.3453723418    1.6658043641   -0.0000005051 >
    0.8010431823   -0.0000008525   -0.0000004784    0.8051123371 >
   -0.0000008253
CT  4  -0.5008403711   0.0000001887   0.4902372436
    2.2949744410    1.3453769711    1.6658140682   -0.0000004438 >
   -0.8010455711    0.0000007491   -0.0000004204   -0.8051143836 >
    0.0000007252
CT  1  -0.0000009848  -0.7505413740  -0.4020858545 -- FOR W= 0.385897I A.U.
    0.7472809082    2.1189887967    1.4709910993    0.0000013160 >
    0.0000011904    0.9342008449    0.0000014638    0.0000011380 >
    0.7811905572
CT  2  -0.0000004688   0.7505414000  -0.4020858620
    0.7472808636    2.1189886712    1.4709909866   -0.0000006265 >
    0.0000005667   -0.9342007635   -0.0000006968    0.0000005417 >
   -0.7811904809
CT  3   0.5008418247  -0.0000002147   0.4902346345
    1.8939435439    1.1981081201    1.4387073415   -0.0000003670 >
    0.5848102701   -0.0000006705   -0.0000004082    0.6314910972 >
   -0.0000006287
CT  4  -0.5008403711   0.0000001887   0.4902372436
    1.8939349202    1.1981113976    1.4387146532   -0.0000003225 >
   -0.5848120273    0.0000005892   -0.0000003587   -0.6314927769 >
    0.0000005524
CT  1  -0.0000009848  -0.7505413740  -0.4020858545 -- FOR W= 0.649114I A.U.
    0.6519908053    1.5256649775    1.1149478168    0.0000009116 >
    0.0000007751    0.5727757469    0.0000010690    0.0000008020 >
    0.4846215009
CT  2  -0.0000004688   0.7505414000  -0.4020858620
    0.6519907668    1.5256648892    1.1149477355   -0.0000004340 >
    0.0000003690   -0.5727756966   -0.0000005089    0.0000003818 >
   -0.4846214541
CT  3   0.5008418247  -0.0000002147   0.4902346345
    1.3596705118    0.9356243424    1.0987154312   -0.0000002542 >
    0.3683040910   -0.0000004145   -0.0000002981    0.4114378719 >
   -0.0000003859
CT  4  -0.5008403711   0.0000001887   0.4902372436
    1.3596652550    0.9356259031    1.0987199147   -0.0000002234 >
   -0.3683052351    0.0000003642   -0.0000002620   -0.4114390558 >
    0.0000003391
CT  1  -0.0000009848  -0.7505413740  -0.4020858545 -- FOR W= 1.153904I A.U.
    0.4561023978    0.8441077398    0.6653448286    0.0000005740 >
    0.0000004383    0.2429862497    0.0000005944    0.0000004430 >
    0.2209446571
CT  2  -0.0000004688   0.7505414000  -0.4020858620
    0.4561023718    0.8441076925    0.6653447830   -0.0000002732 >
    0.0000002086   -0.2429862277   -0.0000002829    0.0000002109 >
   -0.2209446354
CT  3   0.5008418247  -0.0000002147   0.4902346345
    0.7826634344    0.5696350409    0.6661472048   -0.0000001601 >
    0.1906475377   -0.0000001806   -0.0000001658    0.2051002761 >
   -0.0000001795
CT  4  -0.5008403711   0.0000001887   0.4902372436
    0.7826609853    0.5696354062    0.6661493159   -0.0000001407 >
   -0.1906481846    0.0000001587   -0.0000001457   -0.2051009300 >
    0.0000001578
CT  1  -0.0000009848  -0.7505413740  -0.4020858545 -- FOR W= 2.307592I A.U.
    0.2020713334    0.3084982630    0.2616995389    0.0000002416 >
    0.0000001776    0.0648117499    0.0000002089    0.0000001607 >
    0.0647746594
CT  2  -0.0000004688   0.7505414000  -0.4020858620
    0.2020713229    0.3084982465    0.2616995224   -0.0000001150 >
    0.0000000846   -0.0648117436   -0.0000000994    0.0000000765 >
   -0.0647746523
CT  3   0.5008418247  -0.0000002147   0.4902346345
    0.3046763805    0.2258866435    0.2623240817   -0.0000000674 >
    0.0667589310   -0.0000000520   -0.0000000583    0.0679529035 >
   -0.0000000588
CT  4  -0.5008403711   0.0000001887   0.4902372436
    0.3046755615    0.2258866721    0.2623247633   -0.0000000592 >
   -0.0667591932    0.0000000457   -0.0000000512   -0.0679531406 >
    0.0000000517
CT  1  -0.0000009848  -0.7505413740  -0.4020858545 -- FOR W= 5.957643I A.U.
    0.0421741827    0.0573001551    0.0510354916    0.0000000475 >
    0.0000000353    0.0090992026    0.0000000369    0.0000000292 >
    0.0095174289
CT  2  -0.0000004688   0.7505414000  -0.4020858620
    0.0421741808    0.0573001523    0.0510354887   -0.0000000226 >
    0.0000000168   -0.0090992016   -0.0000000176    0.0000000139 >
   -0.0095174276
CT  3   0.5008418247  -0.0000002147   0.4902346345
    0.0605070760    0.0453070436    0.0518691409   -0.0000000132 >
    0.0118266793   -0.0000000086   -0.0000000103    0.0118338352 >
   -0.0000000106
CT  4  -0.5008403711   0.0000001887   0.4902372436
    0.0605069266    0.0453070464    0.0518692623   -0.0000000116 >
   -0.0118267315    0.0000000075   -0.0000000091   -0.0118338783 >
    0.0000000093
CT  1  -0.0000009848  -0.7505413740  -0.4020858545 -- FOR W=32.239080I A.U.
    0.0016441848    0.0021463378    0.0019400549    0.0000000018 >
    0.0000000013    0.0003026000    0.0000000013    0.0000000011 >
    0.0003189428
CT  2  -0.0000004688   0.7505414000  -0.4020858620
    0.0016441848    0.0021463377    0.0019400548   -0.0000000008 >