!   Numerical computation of Raman intensities for formaldehyde, from
!   G.B.Bacskay, S.Saebo, P.R.Taylor  Chem.Phys.  90,215-224(1984).
!   The basis is Dunning/Huzinaga contraction C,O: (9s,5p)->[4s,3p] and
!   scaled H: (4s)->[3s] with various diffuse s,p,d functions added.
!   There are a total of 60 AOs.  test created at Toritsu Dai, in 2000.
!
!   Because BST use both an experimental geometry and force field, the
!   nuclear gradient is not zero, and of course the harmonic modes of
!   the present $HESS do not quite match the modes used in the article.
!   Units: 1 Debye/Ang = 42.255 km/mol, 1 A**4/amu = 1.6606x10d8 cm**4/g
!   Literature energy is -113.851909
!   Literature freq= 1190.8, 1282.1, 1561.5, 1767.7, 2940.6, 3016.7
!   Literature IR=    0.148,  0.447,  0.787,  2.554,  1.042,  1.591
!   Literature Ram=   0.066,  0.814,  11.26,  13.63,  143.1,  63.47
!   Literature depol= 0.750,  0.750,  0.395,  0.157,  0.110,  0.750
!
!   GAMESS will warn about not being at a stationary point!
!   GAMESS FINAL E=-113.8519056221
!        frequency: 1305.77  1331.56  1614.81  1891.82  3014.28  3101.55
!     IR intensity:  .15679   .41033   .62705  2.64916  1.10594  1.61112
!   Raman activity:    .048     .973   10.954   14.930  142.452   63.309
!   depolarization:    .750     .750     .346     .155     .113     .750
!
!   This run takes 10 seconds on 2.66 GHz Cloverton (30 Apr 2015)
!   results haven't changed since 2005.
!
 $contrl scftyp=rhf runtyp=raman nzvar=6 $end
 $system mwords=1 $end
 $guess  guess=huckel $end
 $zmat   izmat(1)=1,1,2,  1,1,3,   1,1,4,
                  2,2,1,3,   2,2,1,4,  4,2,1,3,4  $end
!       input used to prepare the analytic hessian input below,
!       and to test the computation of alpha polarizability.
--- $force  method=analytic $end
--- $cphf   polar=.true. $end
 $data
formaldehyde exp. geometry...Yamada et al. as quoted by Bacskay et al.
Cnv 2
 
CARBON      6.0    0.0 0.0 0.0
  S    6
    1   4232.61        0.002029
    2    634.882       0.015535
    3    146.097       0.075411
    4     42.4974      0.257121
    5     14.1892      0.596555
    6      1.9666      0.242517
  S    1
    1      5.1477      1.0
  S    1
    1      0.4962      1.0
  S    1
    1      0.1533      1.0
  P    3
    1     18.1557      0.039196
    2      3.9864      0.244144
    3      1.1429      0.816775
  p    1 
    1      0.3594      1.0
  P    1
    1      0.1146      1.0
  L    1 ; 1 0.05 1.0 1.0
  D    1 ; 1 0.20 1.0
 
OXYGEN      8.0  0.0 0.0 -1.203
  S    6
    1   7816.54      0.002031
    2   1175.82      0.015436
    3    273.188     0.073771
    4     81.1696    0.247606
    5     27.1836    0.611832
    6      3.4136    0.241205
  S    1
    1      9.5322    1.0
  S    1
    1      0.9398    1.0
  S    1
    1      0.2846    1.0
  P    3
    1     35.1832    0.040023
    2      7.9040    0.253849
    3      2.3051    0.806842
  P    1
    1      0.7171    1.0
  P    1
    1      0.2137    1.0
  L    1 ; 1 0.08 1.0 1.0
  D    1 ; 1 0.20 1.0
 
HYDROGEN    1.0   0.9345371 0.0 0.5783091
  S  2
    1  19.2406  0.130844
    2   2.8992  0.921539
  S 1 ; 1 0.6534  1.0
  S 1 ; 1 0.1776  1.0
  S 1 ; 1 0.06 1.0
  P 1 ; 1 0.10 1.0
 
 $end

analytically computed quantities follow:

--- $GRAD
E=     -113.8519056223  GMAX=    .0146356  GRMS=    .0052455
CARBON       6.   -3.6316875758E-32    4.4475345652E-48   -1.4635627986E-02
OXYGEN       8.    8.8983969852E-32   -1.0897393385E-47    8.4477620967E-03
HYDROGEN     1.   -3.5689989982E-03    4.3707631992E-19    3.0939329444E-03
HYDROGEN     1.    3.5689989982E-03    0.0000000000E+00    3.0939329444E-03
 $END
 $HESS
ENERGY IS     -113.8519056223 E(NUC) IS       31.3845868384
 1  1 6.26697123E-01-5.26897648E-17 0.00000000E+00-1.06105697E-01 5.71629000E-18
 1  2 0.00000000E+00-2.60301427E-01 2.34873653E-17 8.86525292E-02-2.60301427E-01
 1  3 0.00000000E+00-8.86525292E-02
 2  1-5.26897648E-17 1.96452544E-01 0.00000000E+00 5.71629000E-18-5.94286471E-02
 2  2 0.00000000E+00 2.34873653E-17-6.85125342E-02-1.08568036E-17 0.00000000E+00
 2  3-6.85125342E-02 0.00000000E+00
 3  1 0.00000000E+00 0.00000000E+00 1.08413798E+00 0.00000000E+00 0.00000000E+00
 3  2-8.63900724E-01 8.93401899E-02-1.09410178E-17-1.10118389E-01-8.93401899E-02
 3  3 0.00000000E+00-1.10118389E-01
 4  1-1.06105697E-01 5.71629000E-18 0.00000000E+00 7.38639963E-02-6.99041481E-18
 4  2 0.00000000E+00 1.61231067E-02 6.36940357E-19 3.99491511E-02 1.61231067E-02
 4  3 0.00000000E+00-3.99491511E-02
 5  1 5.71629000E-18-5.94286471E-02 0.00000000E+00-6.99041481E-18 1.67829276E-02
 5  2 0.00000000E+00 6.36940357E-19 2.13241194E-02-4.89236000E-18 0.00000000E+00
 5  3 2.13241194E-02 0.00000000E+00
 6  1 0.00000000E+00 0.00000000E+00-8.63900724E-01 0.00000000E+00 0.00000000E+00
 6  2 9.45169020E-01 1.04414334E-02-1.27870680E-18-4.06327044E-02-1.04414334E-02
 6  3 0.00000000E+00-4.06327044E-02
 7  1-2.60301427E-01 2.34873653E-17 8.93401899E-02 1.61231067E-02 6.36940357E-19
 7  2 1.04414334E-02 2.62655806E-01-2.91527716E-17-1.14192691E-01-1.84740280E-02
 7  3 0.00000000E+00 1.44093500E-02
 8  1 2.34873653E-17-6.85125342E-02-1.09410178E-17 6.36940357E-19 2.13241194E-02
 8  2-1.27870680E-18-2.91527716E-17 2.46053610E-02 1.39845714E-17 0.00000000E+00
 8  3 2.25823808E-02 0.00000000E+00
 9  1 8.86525292E-02-1.08568036E-17-1.10118389E-01 3.99491511E-02-4.89236000E-18
 9  2-4.06327044E-02-1.14192691E-01 1.39845714E-17 1.41888519E-01-1.44093500E-02
 9  3 0.00000000E+00 8.86089540E-03
10  1-2.60301427E-01 0.00000000E+00-8.93401899E-02 1.61231067E-02 0.00000000E+00
10  2-1.04414334E-02-1.84740280E-02 5.02795995E-18-1.44093500E-02 2.62655806E-01
10  3 0.00000000E+00 1.14192691E-01
11  1 0.00000000E+00-6.85125342E-02 0.00000000E+00 0.00000000E+00 2.13241194E-02
11  2 0.00000000E+00 5.02795995E-18 2.25823808E-02 1.76463643E-18 0.00000000E+00
11  3 2.46053610E-02 0.00000000E+00
12  1-8.86525292E-02 0.00000000E+00-1.10118389E-01-3.99491511E-02 0.00000000E+00
12  2-4.06327044E-02 1.44093500E-02-1.76463643E-18 8.86089540E-03 1.14192691E-01
12  3 0.00000000E+00 1.41888519E-01
 $END
----analytic--- $DIPDR
  3.91208610E+00 0.00000000E+00 0.00000000E+00
  0.00000000E+00 9.75710274E-01 0.00000000E+00
  0.00000000E+00 0.00000000E+00 5.09948200E+00
 -2.65799978E+00 0.00000000E+00 0.00000000E+00
  0.00000000E+00-1.98361707E+00 0.00000000E+00
  0.00000000E+00 0.00000000E+00-4.98127484E+00
 -6.26958820E-01 0.00000000E+00 5.75170912E-01
  0.00000000E+00 5.03934102E-01 0.00000000E+00
  2.65604552E-01 0.00000000E+00-5.89351674E-02
 -6.26958820E-01 0.00000000E+00-5.75170912E-01
  0.00000000E+00 5.03934102E-01 0.00000000E+00
 -2.65604552E-01 0.00000000E+00-5.89351674E-02
 $END

---numerical--- $DIPDR
  3.91275488E+00-2.22149771E-11-2.10332645E-09
 -3.60507018E-15 9.75533582E-01 2.26690309E-15
 -1.10690788E-05-1.03359850E-04 5.09967338E+00
 -2.65786646E+00 1.52982830E-12 6.16701422E-10
  3.72653486E-16-1.98341569E+00 3.82414135E-16
  1.29201639E-05 1.17673172E-04-4.98156249E+00
 -6.27443659E-01-5.30381013E-05 5.75228165E-01
  9.27065168E-16 5.03941053E-01-4.42198651E-16
  2.65806415E-01-7.15664007E-06-5.90554410E-02
 -6.27444757E-01 5.30381050E-05-5.75228164E-01
  4.55130442E-17 5.03941053E-01-8.08721053E-17
 -2.65808266E-01-7.15665135E-06-5.90554412E-02
 $END
---numerical--- $ALPDR
E=     -113.8519056223
alpha polarizability in a.u.
 1.587257E+01 4.618528E-08 1.203945E+01 4.085621E-08 5.684342E-08 2.111018E+01
alpha polarizability nuclear derivative in a.u.
 2.024609E-05 4.980166E-03 1.327132E-08-4.544757E+00 9.228754E-08-2.074612E-07
-1.237415E-11-5.015296E-03 1.928679E-03 3.338843E-17 3.015941E+00-1.237204E-11
-7.698088E+00-1.147622E-03 3.022399E+00 3.118673E-03 1.898586E-04 6.329558E+00
-4.762822E-04-6.036546E-03-2.071632E-09-2.637772E+00 2.714744E-09 6.152913E-08
-3.545550E-12 5.877403E-03 3.159124E-03 8.550844E-16-3.676606E+00-3.549135E-12
 1.046103E+00 1.373165E-03-4.554870E+00 5.581856E-04 3.618070E-04-1.242718E+01
-6.569990E+00 9.491424E-04-1.302229E+00 3.594429E+00-2.802986E-04-2.101433E+00
 3.601028E-11-1.063449E+00-2.543901E-03-1.602941E-15 3.303326E-01 3.601151E-11
 3.326047E+00-3.546037E-04 7.662358E-01-2.440216E+00-2.758439E-04 3.048810E+00
 6.570446E+00 1.072376E-04 1.302229E+00 3.588100E+00 2.802023E-04 2.101434E+00
 7.355287E-15 1.062587E+00-2.543901E-03-3.226502E-16 3.303326E-01 8.568776E-15
 3.325938E+00 1.290540E-04 7.662358E-01 2.436539E+00-2.758246E-04 3.048810E+00
 $END

! TRAVIS-CI SMALL

