!  CH4 - vibrational decomposition test, method of
!  J.A.Boatz & M.S.Gordon, J.Phys.Chem. 93, 1819-1826(1989)
!
!  intrinsic frequency for CH stretch=3278.8 and HCH bend=1435.2
!
!  This run takes 0 seconds on anything (30 Apr 2015)
!  results have not changed since 1999
!
 $contrl scftyp=rhf runtyp=hessian nzvar=10 $end
 $system mwords=1 $end
 $basis  gbasis=n31 ngauss=6 ndfunc=1 $end
 $force  rdhess=.t. decomp=.t. purify=.t. projct=.f.  $end
 $guess  guess=skip    $end
 $zmat   izmat(1)=1,1,2,  1,1,3,   1,1,4, 1,1,5,  
                  2,2,1,3,  2,2,1,4  2,3,1,5,  
                  2,4,1,5, 2,3,1,4, 2,2,1,5  $end
 $data
methane - test of vibrational decomposition
Td     

C  6.0      0.0    0.0    0.0
H  1.0      0.6256629914       .6256629914       .6256629914
 $end
 $GRAD
E=      -40.1951719156  GMAX=   -.0000094  GRMS=    .0000084
C            6.    0.0000000000E+00    0.0000000000E+00    0.0000000000E+00
H            1.    9.3661812510E-06   -9.3661812510E-06   -9.3661812510E-06
H            1.   -9.3661812510E-06    9.3661812510E-06   -9.3661812510E-06
H            1.   -9.3661812510E-06   -9.3661812510E-06    9.3661812510E-06
H            1.    9.3661812510E-06    9.3661812510E-06    9.3661812510E-06
 $END
 $HESS
ENERGY IS      -40.1951719156 E(NUC) IS       13.5137440372
 1  1 6.22223085E-01 0.00000000E+00 0.00000000E+00-1.55555771E-01 9.79795619E-02
 1  2 9.79795619E-02-1.55555771E-01 9.79795619E-02-9.79795619E-02-1.55555771E-01
 1  3-9.79795619E-02 9.79795619E-02-1.55555771E-01-9.79795619E-02-9.79795619E-02
 2  1 0.00000000E+00 6.22223085E-01 0.00000000E+00 9.79795619E-02-1.55555771E-01
 2  2-9.79795619E-02 9.79795619E-02-1.55555771E-01 9.79795619E-02-9.79795619E-02
 2  3-1.55555771E-01 9.79795619E-02-9.79795619E-02-1.55555771E-01-9.79795619E-02
 3  1 0.00000000E+00 0.00000000E+00 6.22223085E-01 9.79795619E-02-9.79795619E-02
 3  2-1.55555771E-01-9.79795619E-02 9.79795619E-02-1.55555771E-01 9.79795619E-02
 3  3 9.79795619E-02-1.55555771E-01-9.79795619E-02-9.79795619E-02-1.55555771E-01
 4  1-1.55555771E-01 9.79795619E-02 9.79795619E-02 1.62893527E-01-1.08805905E-01
 4  2-1.08805905E-01-1.20237365E-02 1.08263429E-02 1.32718190E-02-1.20237365E-02
 4  3 1.32718190E-02 1.08263429E-02 1.67097169E-02-1.32718190E-02-1.32718190E-02
 5  1 9.79795619E-02-1.55555771E-01-9.79795619E-02-1.08805905E-01 1.62893527E-01
 5  2 1.08805905E-01 1.08263429E-02-1.20237365E-02-1.32718190E-02-1.32718190E-02
 5  3 1.67097169E-02 1.32718190E-02 1.32718190E-02-1.20237365E-02-1.08263429E-02
 6  1 9.79795619E-02-9.79795619E-02-1.55555771E-01-1.08805905E-01 1.08805905E-01
 6  2 1.62893527E-01-1.32718190E-02 1.32718190E-02 1.67097169E-02 1.08263429E-02
 6  3-1.32718190E-02-1.20237365E-02 1.32718190E-02-1.08263429E-02-1.20237365E-02
 7  1-1.55555771E-01 9.79795619E-02-9.79795619E-02-1.20237365E-02 1.08263429E-02
 7  2-1.32718190E-02 1.62893527E-01-1.08805905E-01 1.08805905E-01 1.67097169E-02
 7  3-1.32718190E-02 1.32718190E-02-1.20237365E-02 1.32718190E-02-1.08263429E-02
 8  1 9.79795619E-02-1.55555771E-01 9.79795619E-02 1.08263429E-02-1.20237365E-02
 8  2 1.32718190E-02-1.08805905E-01 1.62893527E-01-1.08805905E-01 1.32718190E-02
 8  3-1.20237365E-02 1.08263429E-02-1.32718190E-02 1.67097169E-02-1.32718190E-02
 9  1-9.79795619E-02 9.79795619E-02-1.55555771E-01 1.32718190E-02-1.32718190E-02
 9  2 1.67097169E-02 1.08805905E-01-1.08805905E-01 1.62893527E-01-1.32718190E-02
 9  3 1.08263429E-02-1.20237365E-02-1.08263429E-02 1.32718190E-02-1.20237365E-02
10  1-1.55555771E-01-9.79795619E-02 9.79795619E-02-1.20237365E-02-1.32718190E-02
10  2 1.08263429E-02 1.67097169E-02 1.32718190E-02-1.32718190E-02 1.62893527E-01
10  3 1.08805905E-01-1.08805905E-01-1.20237365E-02-1.08263429E-02 1.32718190E-02
11  1-9.79795619E-02-1.55555771E-01 9.79795619E-02 1.32718190E-02 1.67097169E-02
11  2-1.32718190E-02-1.32718190E-02-1.20237365E-02 1.08263429E-02 1.08805905E-01
11  3 1.62893527E-01-1.08805905E-01-1.08263429E-02-1.20237365E-02 1.32718190E-02
12  1 9.79795619E-02 9.79795619E-02-1.55555771E-01 1.08263429E-02 1.32718190E-02
12  2-1.20237365E-02 1.32718190E-02 1.08263429E-02-1.20237365E-02-1.08805905E-01
12  3-1.08805905E-01 1.62893527E-01-1.32718190E-02-1.32718190E-02 1.67097169E-02
13  1-1.55555771E-01-9.79795619E-02-9.79795619E-02 1.67097169E-02 1.32718190E-02
13  2 1.32718190E-02-1.20237365E-02-1.32718190E-02-1.08263429E-02-1.20237365E-02
13  3-1.08263429E-02-1.32718190E-02 1.62893527E-01 1.08805905E-01 1.08805905E-01
14  1-9.79795619E-02-1.55555771E-01-9.79795619E-02-1.32718190E-02-1.20237365E-02
14  2-1.08263429E-02 1.32718190E-02 1.67097169E-02 1.32718190E-02-1.08263429E-02
14  3-1.20237365E-02-1.32718190E-02 1.08805905E-01 1.62893527E-01 1.08805905E-01
15  1-9.79795619E-02-9.79795619E-02-1.55555771E-01-1.32718190E-02-1.08263429E-02
15  2-1.20237365E-02-1.08263429E-02-1.32718190E-02-1.20237365E-02 1.32718190E-02
15  3 1.32718190E-02 1.67097169E-02 1.08805905E-01 1.08805905E-01 1.62893527E-01
 $END

! TRAVIS-CI SMALL

