!    H2CO...VSCF calculation using the 1MR QFF approximation,
!    and the electronic structure level is MP2/aug-cc-pVTZ.
!    The equilibrium geometry has E(MP2)= -114.3164101837
!
!    Combining results found in two places in the log file,
!      RESULTS OF VIBRATIONAL SCF CALCULATION: (FREQUENCIES IN CM-1)
!          MODE      HARMONIC     DIAGONAL   R intens
!           12        3047.62      3120.54    87.40
!           11        2973.65      2918.13    68.87
!           10        1752.93      1737.08    63.30
!            9        1540.13      1541.27    11.29
!            8        1266.75      1278.52     9.50
!            7        1196.90      1216.25     6.89
!    There's no real VSCF since this is only single mode coupling.
!
!    This file reads the completed $VIBSCF, to shorten the run.
!    This run takes 0 seconds on 2.66 GHz Cloverton (30 Apr 2015)
!
!    The real run (READV=.FALSE.) performs 37 MP2 calculations,
!    namely one at the equilibrium geometry, and also six energies
!    along each of the six normal mode of vibration, and requires
!    run time of 40 minutes on 2.66 GHz Cloverton.
!    
 $contrl scftyp=rhf mplevl=2 runtyp=vscf ispher=1 $end
 $system mwords=15 $end
 $guess  guess=huckel $end
 $vscf   petyp=qff ncoup=1 readv=.true. ngrid=12 $end
 $data
H2CO: MP2/aug-cc-pVTZ  (QFF CC-VSCF, NCOUP=1)
Cnv 2

C           6.0   0.0000000000   0.0000000000  -0.5326033874
 S   8
  1        8236.000000         0.5310000000E-03
  2        1235.000000         0.4108000000E-02
  3        280.8000000         0.2108700000E-01
  4        79.27000000         0.8185300000E-01
  5        25.59000000         0.2348170000    
  6        8.997000000         0.4344010000    
  7        3.319000000         0.3461290000    
  8       0.3643000000        -0.8983000000E-02
 S   8
  1        8236.000000        -0.1130000000E-03
  2        1235.000000        -0.8780000000E-03
  3        280.8000000        -0.4540000000E-02
  4        79.27000000        -0.1813300000E-01
  5        25.59000000        -0.5576000000E-01
  6        8.997000000        -0.1268950000    
  7        3.319000000        -0.1703520000    
  8       0.3643000000         0.5986840000    
 S   1
  1       0.9059000000          1.000000000    
 S   1
  1       0.1285000000          1.000000000    
 P   3
  1        18.71000000         0.1403100000E-01
  2        4.133000000         0.8686600000E-01
  3        1.200000000         0.2902160000    
 P   1
  1       0.3827000000          1.000000000    
 P   1
  1       0.1209000000          1.000000000    
 D   1
  1        1.097000000          1.000000000    
 D   1
  1       0.3180000000          1.000000000    
 F   1
  1       0.7610000000          1.000000000    
 S   1
  1       0.440200000E-01      1.00000000    
 P   1
  1       0.356900000E-01      1.00000000    
 D   1
  1       0.100000000          1.00000000    
 F   1
  1       0.268000000          1.00000000    

O           8.0   0.0000000000   0.0000000000   0.6803027768
 S   8
  1       15330.00000000         0.00050800
  2        2299.00000000         0.00392900
  3         522.40000000         0.02024300
  4         147.30000000         0.07918100
  5          47.55000000         0.23068700
  6          16.76000000         0.43311800
  7           6.20700000         0.35026000
  8           0.68820000        -0.00815400
 S   8
  1       15330.00000000        -0.00011500
  2        2299.00000000        -0.00089500
  3         522.40000000        -0.00463600
  4         147.30000000        -0.01872400
  5          47.55000000        -0.05846300
  6          16.76000000        -0.13646300
  7           6.20700000        -0.17574000
  8           0.68820000         0.60341800
 S   1
  1           1.75200000         1.00000000
 S   1
  1           0.23840000         1.00000000
 P   3
  1          34.46000000         0.01592800
  2           7.74900000         0.09974000
  3           2.28000000         0.31049200
 P   1
  1           0.71560000         1.00000000
 P   1
  1           0.21400000         1.00000000
 D   1
  1           2.31400000         1.00000000
 D   1
  1           0.64500000         1.00000000
 F   1
  1           1.42800000         1.00000000
 S   1
  1           0.07376000         1.00000000
 P   1
  1           0.05974000         1.00000000
 D   1
  1           0.21400000         1.00000000
 F   1
  1           0.50000000         1.00000000

H           1.0   0.9358605394   0.0000000000  -1.1109821947
 S   3
  1          33.87000000         0.00606800
  2           5.09500000         0.04530800
  3           1.15900000         0.20282200
 S   1
  1           0.32580000         1.00000000
 S   1
  1           0.10270000         1.00000000
 P   1
  1           1.40700000         1.00000000
 P   1
  1           0.38800000         1.00000000
 D   1
  1           1.05700000         1.00000000
 S   1
  1           0.02526000         1.00000000
 P   1
  1           0.10200000         1.00000000
 D   1
  1           0.24700000         1.00000000

 $END
 $HESS
BLANK TITLE
 1  1 0.60842000E+00 0.00000000E+00 0.00000000E+00-0.10401600E+00 0.00000000E+00
 1  2 0.00000000E+00-0.25220200E+00 0.00000000E+00-0.88458900E-01-0.25220200E+00
 1  3 0.00000000E+00 0.88458900E-01
 2  1 0.00000000E+00 0.17083300E+00 0.00000000E+00 0.00000000E+00-0.55156700E-01
 2  2 0.00000000E+00 0.00000000E+00-0.57838000E-01 0.00000000E+00 0.00000000E+00
 2  3-0.57838000E-01 0.00000000E+00
 3  1 0.00000000E+00 0.00000000E+00 0.93422400E+00 0.00000000E+00 0.00000000E+00
 3  2-0.73167700E+00-0.86861400E-01 0.00000000E+00-0.10127300E+00 0.86861400E-01
 3  3 0.00000000E+00-0.10127300E+00
 4  1-0.10401600E+00 0.00000000E+00 0.00000000E+00 0.71425600E-01 0.00000000E+00
 4  2 0.00000000E+00 0.16295200E-01 0.00000000E+00-0.36201200E-01 0.16295200E-01
 4  3 0.00000000E+00 0.36201200E-01
 5  1 0.00000000E+00-0.55156700E-01 0.00000000E+00 0.00000000E+00 0.17822900E-01
 5  2 0.00000000E+00 0.00000000E+00 0.18666900E-01 0.00000000E+00 0.00000000E+00
 5  3 0.18666900E-01 0.00000000E+00
 6  1 0.00000000E+00 0.00000000E+00-0.73167700E+00 0.00000000E+00 0.00000000E+00
 6  2 0.81367900E+00-0.13232700E-01 0.00000000E+00-0.41001000E-01 0.13232700E-01
 6  3 0.00000000E+00-0.41001000E-01
 7  1-0.25220200E+00 0.00000000E+00-0.86861400E-01 0.16295200E-01 0.00000000E+00
 7  2-0.13232700E-01 0.25441000E+00 0.00000000E+00 0.11237700E+00-0.18502700E-01
 7  3 0.00000000E+00-0.12283000E-01
 8  1 0.00000000E+00-0.57838000E-01 0.00000000E+00 0.00000000E+00 0.18666900E-01
 8  2 0.00000000E+00 0.00000000E+00 0.19574300E-01 0.00000000E+00 0.00000000E+00
 8  3 0.19596900E-01 0.00000000E+00
 9  1-0.88458900E-01 0.00000000E+00-0.10127300E+00-0.36201200E-01 0.00000000E+00
 9  2-0.41001000E-01 0.11237700E+00 0.00000000E+00 0.13310600E+00 0.12283000E-01
 9  3 0.00000000E+00 0.91684600E-02
10  1-0.25220200E+00 0.00000000E+00 0.86861400E-01 0.16295200E-01 0.00000000E+00
10  2 0.13232700E-01-0.18502700E-01 0.00000000E+00 0.12283000E-01 0.25441000E+00
10  3 0.00000000E+00-0.11237700E+00
11  1 0.00000000E+00-0.57838000E-01 0.00000000E+00 0.00000000E+00 0.18666900E-01
11  2 0.00000000E+00 0.00000000E+00 0.19596900E-01 0.00000000E+00 0.00000000E+00
11  3 0.19574300E-01 0.00000000E+00
12  1 0.88458900E-01 0.00000000E+00-0.10127300E+00 0.36201200E-01 0.00000000E+00
12  2-0.41001000E-01-0.12283000E-01 0.00000000E+00 0.91684600E-02-0.11237700E+00
12  3 0.00000000E+00 0.13310600E+00
 $END
 $VIBSCF PETYP= QFF   
   E0=     -114.3164101861   DIPOLE=    0.00000000    0.00000000   -2.39854276
MODE=  12
 GRID=   1
   DE1  =     -114.3002003305 DDPL1 =   -0.22655597    0.00000000   -2.34492107
MODE=  12
 GRID=   2
   DE1  =     -114.3093518193 DDPL1 =   -0.15165681    0.00000000   -2.37454292
MODE=  12
 GRID=   3
   DE1  =     -114.3146672528 DDPL1 =   -0.07601531    0.00000000   -2.39251726
MODE=  12
 GRID=   4
   DE1  =     -114.3146672529 DDPL1 =    0.07601528    0.00000000   -2.39251724
MODE=  12
 GRID=   5
   DE1  =     -114.3093518196 DDPL1 =    0.15165677    0.00000000   -2.37454293
MODE=  12
 GRID=   6
   DE1  =     -114.3002003309 DDPL1 =    0.22655595    0.00000000   -2.34492112
MODE=  11
 GRID=   1
   DE1  =     -114.2971641136 DDPL1 =    0.00000000    0.00000000   -2.57742441
MODE=  11
 GRID=   2
   DE1  =     -114.3085079626 DDPL1 =    0.00000000    0.00000000   -2.52275727
MODE=  11
 GRID=   3
   DE1  =     -114.3145804740 DDPL1 =    0.00000000    0.00000000   -2.46306840
MODE=  11
 GRID=   4
   DE1  =     -114.3148402207 DDPL1 =    0.00000000    0.00000000   -2.32937258
MODE=  11
 GRID=   5
   DE1  =     -114.3105636361 DDPL1 =    0.00000000    0.00000000   -2.25576517
MODE=  11
 GRID=   6
   DE1  =     -114.3041517686 DDPL1 =    0.00000000    0.00000000   -2.17795036
MODE=  10
 GRID=   1
   DE1  =     -114.3058556258 DDPL1 =    0.00000000    0.00000000   -2.08533858
MODE=  10
 GRID=   2
   DE1  =     -114.3119658458 DDPL1 =    0.00000000    0.00000000   -2.20089852
MODE=  10
 GRID=   3
   DE1  =     -114.3153557036 DDPL1 =    0.00000000    0.00000000   -2.30525210
MODE=  10
 GRID=   4
   DE1  =     -114.3154643057 DDPL1 =    0.00000000    0.00000000   -2.48091103
MODE=  10
 GRID=   5
   DE1  =     -114.3128095525 DDPL1 =    0.00000000    0.00000000   -2.55247992
MODE=  10
 GRID=   6
   DE1  =     -114.3086993173 DDPL1 =    0.00000000    0.00000000   -2.61334146
MODE=   9
 GRID=   1
   DE1  =     -114.3085932776 DDPL1 =    0.00000000    0.00000000   -2.25210820
MODE=   9
 GRID=   2
   DE1  =     -114.3129353359 DDPL1 =    0.00000000    0.00000000   -2.30916628
MODE=   9
 GRID=   3
   DE1  =     -114.3155437363 DDPL1 =    0.00000000    0.00000000   -2.35771990
MODE=   9
 GRID=   4
   DE1  =     -114.3155220668 DDPL1 =    0.00000000    0.00000000   -2.43244019
MODE=   9
 GRID=   5
   DE1  =     -114.3128643343 DDPL1 =    0.00000000    0.00000000   -2.46023378
MODE=   9
 GRID=   6
   DE1  =     -114.3084225969 DDPL1 =    0.00000000    0.00000000   -2.48276064
MODE=   8
 GRID=   1
   DE1  =     -114.3098278295 DDPL1 =    0.11626184    0.00000000   -2.37807287
MODE=   8
 GRID=   2
   DE1  =     -114.3135061587 DDPL1 =    0.07717569    0.00000000   -2.38944197
MODE=   8
 GRID=   3
   DE1  =     -114.3156875579 DDPL1 =    0.03848475    0.00000000   -2.39626675
MODE=   8
 GRID=   4
   DE1  =     -114.3156875566 DDPL1 =   -0.03848472    0.00000000   -2.39626724
MODE=   8
 GRID=   5
   DE1  =     -114.3135061574 DDPL1 =   -0.07717559    0.00000000   -2.38944201
MODE=   8
 GRID=   6
   DE1  =     -114.3098278310 DDPL1 =   -0.11626192    0.00000000   -2.37807210
MODE=   7
 GRID=   1
   DE1  =     -114.3101274447 DDPL1 =   -0.00000001    0.10133330   -2.33004674
MODE=   7
 GRID=   2
   DE1  =     -114.3136530180 DDPL1 =    0.00000000    0.06807078   -2.36773933
MODE=   7
 GRID=   3
   DE1  =     -114.3157265452 DDPL1 =    0.00000000    0.03418778   -2.39078705
MODE=   7
 GRID=   4
   DE1  =     -114.3157265452 DDPL1 =    0.00000000   -0.03418778   -2.39078718
MODE=   7
 GRID=   5
   DE1  =     -114.3136530176 DDPL1 =    0.00000000   -0.06807080   -2.36773965
MODE=   7
 GRID=   6
   DE1  =     -114.3101274443 DDPL1 =    0.00000000   -0.10133327   -2.33004697
 $END

! TRAVIS-CI SMALL

