!   H2CO...VSCF calculation using the 2MR QFF approximation,
!   and the electronic structure level is MP2/aug-cc-pVTZ.
!   The equilibrium geometry has E(MP2)= -114.3164101837
!   The results reproduce the first two columns of table III in
!   K.Yagi, K.Hirao, T.Taketsugu, M.W.Schmidt, M.S.Gordon
!   J.Chem.Phys. 121, 1383-1389(2004)     test created at that time.
!
!   RESULTS OF VIBRATIONAL SCF CALCULATION: (FREQUENCIES IN CM-1)
!   MODE  HARMONIC   DIAGONAL     VSCF      PT2-VSCF   VCI-VSCF  DPT2-VSCF
!    12    3047.62    3120.54    2897.06    2874.53    2897.13    2874.52
!    11    2973.65    2918.13    2865.40    2833.35    2865.42    2833.35
!    10    1752.93    1737.08    1724.09    1721.69    1724.51    1721.82
!     9    1540.13    1541.27    1509.86    1505.53    1509.46    1505.58
!     8    1266.75    1278.52    1245.38    1242.24    1245.32    1242.24
!     7    1196.90    1216.25    1165.89    1160.98    1165.89    1160.98
!
!   This file reads the completed $VIBSCF, to shorten the run.
!   This run takes 0 seconds on 2.66 GHz Cloverton (30 Apr 2015)
!
!   The real run performed 1+36+180=217 MP2 calculations: at the
!   equilibrium geometry, then 6 displacements along each of the
!   six normal modes, and then 12 displacements for each of the
!   15 mode pairs.  This requires 250 minutes on 2.66 GHz Cloverton.
!
 $contrl scftyp=rhf mplevl=2 runtyp=vscf ispher=1 $end
 $system mwords=15 $end
 $guess  guess=huckel $end
 $vscf   petyp=qff ncoup=2 readv=.true. ngrid=12 vdpt=.true. $end
 $DATA
H2CO: MP2/aug-cc-pVTZ  (QFF CC-VSCF, NCOUP=2)
Cnv 2

C           6.0   0.0000000000   0.0000000000  -0.5326033874
 S   8
  1        8236.000000         0.5310000000E-03
  2        1235.000000         0.4108000000E-02
  3        280.8000000         0.2108700000E-01
  4        79.27000000         0.8185300000E-01
  5        25.59000000         0.2348170000    
  6        8.997000000         0.4344010000    
  7        3.319000000         0.3461290000    
  8       0.3643000000        -0.8983000000E-02
 S   8
  1        8236.000000        -0.1130000000E-03
  2        1235.000000        -0.8780000000E-03
  3        280.8000000        -0.4540000000E-02
  4        79.27000000        -0.1813300000E-01
  5        25.59000000        -0.5576000000E-01
  6        8.997000000        -0.1268950000    
  7        3.319000000        -0.1703520000    
  8       0.3643000000         0.5986840000    
 S   1
  1       0.9059000000          1.000000000    
 S   1
  1       0.1285000000          1.000000000    
 P   3
  1        18.71000000         0.1403100000E-01
  2        4.133000000         0.8686600000E-01
  3        1.200000000         0.2902160000    
 P   1
  1       0.3827000000          1.000000000    
 P   1
  1       0.1209000000          1.000000000    
 D   1
  1        1.097000000          1.000000000    
 D   1
  1       0.3180000000          1.000000000    
 F   1
  1       0.7610000000          1.000000000    
 S   1
  1       0.440200000E-01      1.00000000    
 P   1
  1       0.356900000E-01      1.00000000    
 D   1
  1       0.100000000          1.00000000    
 F   1
  1       0.268000000          1.00000000    

O           8.0   0.0000000000   0.0000000000   0.6803027768
 S   8
  1       15330.00000000         0.00050800
  2        2299.00000000         0.00392900
  3         522.40000000         0.02024300
  4         147.30000000         0.07918100
  5          47.55000000         0.23068700
  6          16.76000000         0.43311800
  7           6.20700000         0.35026000
  8           0.68820000        -0.00815400
 S   8
  1       15330.00000000        -0.00011500
  2        2299.00000000        -0.00089500
  3         522.40000000        -0.00463600
  4         147.30000000        -0.01872400
  5          47.55000000        -0.05846300
  6          16.76000000        -0.13646300
  7           6.20700000        -0.17574000
  8           0.68820000         0.60341800
 S   1
  1           1.75200000         1.00000000
 S   1
  1           0.23840000         1.00000000
 P   3
  1          34.46000000         0.01592800
  2           7.74900000         0.09974000
  3           2.28000000         0.31049200
 P   1
  1           0.71560000         1.00000000
 P   1
  1           0.21400000         1.00000000
 D   1
  1           2.31400000         1.00000000
 D   1
  1           0.64500000         1.00000000
 F   1
  1           1.42800000         1.00000000
 S   1
  1           0.07376000         1.00000000
 P   1
  1           0.05974000         1.00000000
 D   1
  1           0.21400000         1.00000000
 F   1
  1           0.50000000         1.00000000

H           1.0   0.9358605394   0.0000000000  -1.1109821947
 S   3
  1          33.87000000         0.00606800
  2           5.09500000         0.04530800
  3           1.15900000         0.20282200
 S   1
  1           0.32580000         1.00000000
 S   1
  1           0.10270000         1.00000000
 P   1
  1           1.40700000         1.00000000
 P   1
  1           0.38800000         1.00000000
 D   1
  1           1.05700000         1.00000000
 S   1
  1           0.02526000         1.00000000
 P   1
  1           0.10200000         1.00000000
 D   1
  1           0.24700000         1.00000000

 $END
 $HESS
BLANK TITLE
 1  1 0.60842000E+00 0.00000000E+00 0.00000000E+00-0.10401600E+00 0.00000000E+00
 1  2 0.00000000E+00-0.25220200E+00 0.00000000E+00-0.88458900E-01-0.25220200E+00
 1  3 0.00000000E+00 0.88458900E-01
 2  1 0.00000000E+00 0.17083300E+00 0.00000000E+00 0.00000000E+00-0.55156700E-01
 2  2 0.00000000E+00 0.00000000E+00-0.57838000E-01 0.00000000E+00 0.00000000E+00
 2  3-0.57838000E-01 0.00000000E+00
 3  1 0.00000000E+00 0.00000000E+00 0.93422400E+00 0.00000000E+00 0.00000000E+00
 3  2-0.73167700E+00-0.86861400E-01 0.00000000E+00-0.10127300E+00 0.86861400E-01
 3  3 0.00000000E+00-0.10127300E+00
 4  1-0.10401600E+00 0.00000000E+00 0.00000000E+00 0.71425600E-01 0.00000000E+00
 4  2 0.00000000E+00 0.16295200E-01 0.00000000E+00-0.36201200E-01 0.16295200E-01
 4  3 0.00000000E+00 0.36201200E-01
 5  1 0.00000000E+00-0.55156700E-01 0.00000000E+00 0.00000000E+00 0.17822900E-01
 5  2 0.00000000E+00 0.00000000E+00 0.18666900E-01 0.00000000E+00 0.00000000E+00
 5  3 0.18666900E-01 0.00000000E+00
 6  1 0.00000000E+00 0.00000000E+00-0.73167700E+00 0.00000000E+00 0.00000000E+00
 6  2 0.81367900E+00-0.13232700E-01 0.00000000E+00-0.41001000E-01 0.13232700E-01
 6  3 0.00000000E+00-0.41001000E-01
 7  1-0.25220200E+00 0.00000000E+00-0.86861400E-01 0.16295200E-01 0.00000000E+00
 7  2-0.13232700E-01 0.25441000E+00 0.00000000E+00 0.11237700E+00-0.18502700E-01
 7  3 0.00000000E+00-0.12283000E-01
 8  1 0.00000000E+00-0.57838000E-01 0.00000000E+00 0.00000000E+00 0.18666900E-01
 8  2 0.00000000E+00 0.00000000E+00 0.19574300E-01 0.00000000E+00 0.00000000E+00
 8  3 0.19596900E-01 0.00000000E+00
 9  1-0.88458900E-01 0.00000000E+00-0.10127300E+00-0.36201200E-01 0.00000000E+00
 9  2-0.41001000E-01 0.11237700E+00 0.00000000E+00 0.13310600E+00 0.12283000E-01
 9  3 0.00000000E+00 0.91684600E-02
10  1-0.25220200E+00 0.00000000E+00 0.86861400E-01 0.16295200E-01 0.00000000E+00
10  2 0.13232700E-01-0.18502700E-01 0.00000000E+00 0.12283000E-01 0.25441000E+00
10  3 0.00000000E+00-0.11237700E+00
11  1 0.00000000E+00-0.57838000E-01 0.00000000E+00 0.00000000E+00 0.18666900E-01
11  2 0.00000000E+00 0.00000000E+00 0.19596900E-01 0.00000000E+00 0.00000000E+00
11  3 0.19574300E-01 0.00000000E+00
12  1 0.88458900E-01 0.00000000E+00-0.10127300E+00 0.36201200E-01 0.00000000E+00
12  2-0.41001000E-01-0.12283000E-01 0.00000000E+00 0.91684600E-02-0.11237700E+00
12  3 0.00000000E+00 0.13310600E+00
 $END
 $VIBSCF PETYP= QFF   
   E0=     -114.3164101861   DIPOLE=    0.00000000    0.00000000   -2.39854276
MODE=  12
 GRID=   1
   DE1  =     -114.3002003305 DDPL1 =   -0.22655597    0.00000000   -2.34492107
MODE=  12
 GRID=   2
   DE1  =     -114.3093518193 DDPL1 =   -0.15165681    0.00000000   -2.37454292
MODE=  12
 GRID=   3
   DE1  =     -114.3146672528 DDPL1 =   -0.07601531    0.00000000   -2.39251726
MODE=  12
 GRID=   4
   DE1  =     -114.3146672529 DDPL1 =    0.07601528    0.00000000   -2.39251724
MODE=  12
 GRID=   5
   DE1  =     -114.3093518196 DDPL1 =    0.15165677    0.00000000   -2.37454293
MODE=  12
 GRID=   6
   DE1  =     -114.3002003309 DDPL1 =    0.22655595    0.00000000   -2.34492112
MODE=  11
 GRID=   1
   DE1  =     -114.2971641136 DDPL1 =    0.00000000    0.00000000   -2.57742441
MODE=  11
 GRID=   2
   DE1  =     -114.3085079626 DDPL1 =    0.00000000    0.00000000   -2.52275727
MODE=  11
 GRID=   3
   DE1  =     -114.3145804740 DDPL1 =    0.00000000    0.00000000   -2.46306840
MODE=  11
 GRID=   4
   DE1  =     -114.3148402207 DDPL1 =    0.00000000    0.00000000   -2.32937258
MODE=  11
 GRID=   5
   DE1  =     -114.3105636361 DDPL1 =    0.00000000    0.00000000   -2.25576517
MODE=  11
 GRID=   6
   DE1  =     -114.3041517686 DDPL1 =    0.00000000    0.00000000   -2.17795036
MODE=  10
 GRID=   1
   DE1  =     -114.3058556258 DDPL1 =    0.00000000    0.00000000   -2.08533858
MODE=  10
 GRID=   2
   DE1  =     -114.3119658458 DDPL1 =    0.00000000    0.00000000   -2.20089852
MODE=  10
 GRID=   3
   DE1  =     -114.3153557036 DDPL1 =    0.00000000    0.00000000   -2.30525210
MODE=  10
 GRID=   4
   DE1  =     -114.3154643057 DDPL1 =    0.00000000    0.00000000   -2.48091103
MODE=  10
 GRID=   5
   DE1  =     -114.3128095525 DDPL1 =    0.00000000    0.00000000   -2.55247992
MODE=  10
 GRID=   6
   DE1  =     -114.3086993173 DDPL1 =    0.00000000    0.00000000   -2.61334146
MODE=   9
 GRID=   1
   DE1  =     -114.3085932776 DDPL1 =    0.00000000    0.00000000   -2.25210820
MODE=   9
 GRID=   2
   DE1  =     -114.3129353359 DDPL1 =    0.00000000    0.00000000   -2.30916628
MODE=   9
 GRID=   3
   DE1  =     -114.3155437363 DDPL1 =    0.00000000    0.00000000   -2.35771990
MODE=   9
 GRID=   4
   DE1  =     -114.3155220668 DDPL1 =    0.00000000    0.00000000   -2.43244019
MODE=   9
 GRID=   5
   DE1  =     -114.3128643343 DDPL1 =    0.00000000    0.00000000   -2.46023378
MODE=   9
 GRID=   6
   DE1  =     -114.3084225969 DDPL1 =    0.00000000    0.00000000   -2.48276064
MODE=   8
 GRID=   1
   DE1  =     -114.3098278295 DDPL1 =    0.11626184    0.00000000   -2.37807287
MODE=   8
 GRID=   2
   DE1  =     -114.3135061587 DDPL1 =    0.07717569    0.00000000   -2.38944197
MODE=   8
 GRID=   3
   DE1  =     -114.3156875579 DDPL1 =    0.03848475    0.00000000   -2.39626675
MODE=   8
 GRID=   4
   DE1  =     -114.3156875566 DDPL1 =   -0.03848472    0.00000000   -2.39626724
MODE=   8
 GRID=   5
   DE1  =     -114.3135061574 DDPL1 =   -0.07717559    0.00000000   -2.38944201
MODE=   8
 GRID=   6
   DE1  =     -114.3098278310 DDPL1 =   -0.11626192    0.00000000   -2.37807210
MODE=   7
 GRID=   1
   DE1  =     -114.3101274447 DDPL1 =   -0.00000001    0.10133330   -2.33004674
MODE=   7
 GRID=   2
   DE1  =     -114.3136530180 DDPL1 =    0.00000000    0.06807078   -2.36773933
MODE=   7
 GRID=   3
   DE1  =     -114.3157265452 DDPL1 =    0.00000000    0.03418778   -2.39078705
MODE=   7
 GRID=   4
   DE1  =     -114.3157265452 DDPL1 =    0.00000000   -0.03418778   -2.39078718
MODE=   7
 GRID=   5
   DE1  =     -114.3136530176 DDPL1 =    0.00000000   -0.06807080   -2.36773965
MODE=   7
 GRID=   6
   DE1  =     -114.3101274443 DDPL1 =    0.00000000   -0.10133327   -2.33004697
MODE=  12  11
 GRID=   1
   DE2  =     -114.2942403547 DDPL2 =   -0.19878268    0.00000000   -2.41067893
MODE=  12  11
 GRID=   2
   DE2  =     -114.3123922074 DDPL2 =   -0.06668191    0.00000000   -2.45718504
MODE=  12  11
 GRID=   3
   DE2  =     -114.2937600200 DDPL2 =   -0.04923017    0.00000000   -2.57186023
MODE=  12  11
 GRID=   4
   DE2  =     -114.3020056979 DDPL2 =   -0.25530537    0.00000000   -2.27471505
MODE=  12  11
 GRID=   5
   DE2  =     -114.3134613390 DDPL2 =   -0.08570080    0.00000000   -2.32322717
MODE=  12  11
 GRID=   6
   DE2  =     -114.3033157923 DDPL2 =   -0.10583622    0.00000000   -2.17166192
MODE=  12  11
 GRID=   7
   DE2  =     -114.2937600201 DDPL2 =    0.04923018    0.00000000   -2.57186019
MODE=  12  11
 GRID=   8
   DE2  =     -114.3123922076 DDPL2 =    0.06668192    0.00000000   -2.45718503
MODE=  12  11
 GRID=   9
   DE2  =     -114.2942403546 DDPL2 =    0.19878269    0.00000000   -2.41067892
MODE=  12  11
 GRID=  10
   DE2  =     -114.3033157919 DDPL2 =    0.10583626    0.00000000   -2.17166194
MODE=  12  11
 GRID=  11
   DE2  =     -114.3134613388 DDPL2 =    0.08570080    0.00000000   -2.32322716
MODE=  12  11
 GRID=  12
   DE2  =     -114.3020056978 DDPL2 =    0.25530539    0.00000000   -2.27471508
MODE=  12  10
 GRID=   1
   DE2  =     -114.2995370018 DDPL2 =   -0.26262412    0.00000000   -2.24658068
MODE=  12  10
 GRID=   2
   DE2  =     -114.3136551143 DDPL2 =   -0.08810676    0.00000000   -2.29865664
MODE=  12  10
 GRID=   3
   DE2  =     -114.3042686853 DDPL2 =   -0.11432738    0.00000000   -2.07751189
MODE=  12  10
 GRID=   4
   DE2  =     -114.2989575918 DDPL2 =   -0.19234855    0.00000000   -2.43205874
MODE=  12  10
 GRID=   5
   DE2  =     -114.3136891133 DDPL2 =   -0.06456014    0.00000000   -2.47542305
MODE=  12  10
 GRID=   6
   DE2  =     -114.3068903675 DDPL2 =   -0.04342553    0.00000000   -2.60882725
MODE=  12  10
 GRID=   7
   DE2  =     -114.3042686858 DDPL2 =    0.11432734    0.00000000   -2.07751187
MODE=  12  10
 GRID=   8
   DE2  =     -114.3136551144 DDPL2 =    0.08810678    0.00000000   -2.29865662
MODE=  12  10
 GRID=   9
   DE2  =     -114.2995370013 DDPL2 =    0.26262411    0.00000000   -2.24658070
MODE=  12  10
 GRID=  10
   DE2  =     -114.3068903628 DDPL2 =    0.04342544    0.00000000   -2.60882768
MODE=  12  10
 GRID=  11
   DE2  =     -114.3136891132 DDPL2 =    0.06456014    0.00000000   -2.47542305
MODE=  12  10
 GRID=  12
   DE2  =     -114.2989575920 DDPL2 =    0.19234859    0.00000000   -2.43205869
MODE=  12   9
 GRID=   1
   DE2  =     -114.2991076264 DDPL2 =   -0.21182542    0.00000000   -2.30775072
MODE=  12   9
 GRID=   2
   DE2  =     -114.3137767224 DDPL2 =   -0.07113977    0.00000000   -2.35210287
MODE=  12   9
 GRID=   3
   DE2  =     -114.3068546726 DDPL2 =   -0.06252377    0.00000000   -2.24715303
MODE=  12   9
 GRID=   4
   DE2  =     -114.2997766545 DDPL2 =   -0.24193523    0.00000000   -2.37479182
MODE=  12   9
 GRID=   5
   DE2  =     -114.3138284638 DDPL2 =   -0.08110982    0.00000000   -2.42596328
MODE=  12   9
 GRID=   6
   DE2  =     -114.3068955264 DDPL2 =   -0.09153010    0.00000000   -2.47527269
MODE=  12   9
 GRID=   7
   DE2  =     -114.3068546733 DDPL2 =    0.06252378    0.00000000   -2.24715291
MODE=  12   9
 GRID=   8
   DE2  =     -114.3137767231 DDPL2 =    0.07113975    0.00000000   -2.35210287
MODE=  12   9
 GRID=   9
   DE2  =     -114.2991076266 DDPL2 =    0.21182541    0.00000000   -2.30775072
MODE=  12   9
 GRID=  10
   DE2  =     -114.3068955268 DDPL2 =    0.09153012    0.00000000   -2.47527266
MODE=  12   9
 GRID=  11
   DE2  =     -114.3138284637 DDPL2 =    0.08110983    0.00000000   -2.42596327
MODE=  12   9
 GRID=  12
   DE2  =     -114.2997766542 DDPL2 =    0.24193523    0.00000000   -2.37479184
MODE=  12   8
 GRID=   1
   DE2  =     -114.2995504619 DDPL2 =   -0.18419843    0.00000000   -2.35065384
MODE=  12   8
 GRID=   2
   DE2  =     -114.3139569110 DDPL2 =   -0.03727976    0.00000000   -2.39275418
MODE=  12   8
 GRID=   3
   DE2  =     -114.3081889698 DDPL2 =    0.03930287    0.00000000   -2.37887401
MODE=  12   8
 GRID=   4
   DE2  =     -114.2997083243 DDPL2 =   -0.27055980    0.00000000   -2.33468140
MODE=  12   8
 GRID=   5
   DE2  =     -114.3139643632 DDPL2 =   -0.11529364    0.00000000   -2.38773365
MODE=  12   8
 GRID=   6
   DE2  =     -114.3082567130 DDPL2 =   -0.19625273    0.00000000   -2.36524758
MODE=  12   8
 GRID=   7
   DE2  =     -114.3082567130 DDPL2 =    0.19625267    0.00000000   -2.36524757
MODE=  12   8
 GRID=   8
   DE2  =     -114.3139643631 DDPL2 =    0.11529365    0.00000000   -2.38773364
MODE=  12   8
 GRID=   9
   DE2  =     -114.2997083243 DDPL2 =    0.27055981    0.00000000   -2.33468143
MODE=  12   8
 GRID=  10
   DE2  =     -114.3081889697 DDPL2 =   -0.03930281    0.00000000   -2.37887409
MODE=  12   8
 GRID=  11
   DE2  =     -114.3139569109 DDPL2 =    0.03727976    0.00000000   -2.39275416
MODE=  12   8
 GRID=  12
   DE2  =     -114.2995504619 DDPL2 =    0.18419843    0.00000000   -2.35065387
MODE=  12   7
 GRID=   1
   DE2  =     -114.2997373489 DDPL2 =   -0.22763011    0.03295878   -2.33717496
MODE=  12   7
 GRID=   2
   DE2  =     -114.3140069659 DDPL2 =   -0.07637383    0.03404783   -2.38476223
MODE=  12   7
 GRID=   3
   DE2  =     -114.3085823273 DDPL2 =   -0.07916573    0.10091179   -2.32403549
MODE=  12   7
 GRID=   4
   DE2  =     -114.2997373489 DDPL2 =   -0.22763009   -0.03295877   -2.33717498
MODE=  12   7
 GRID=   5
   DE2  =     -114.3140069659 DDPL2 =   -0.07637383   -0.03404783   -2.38476223
MODE=  12   7
 GRID=   6
   DE2  =     -114.3085823273 DDPL2 =   -0.07916573   -0.10091179   -2.32403549
MODE=  12   7
 GRID=   7
   DE2  =     -114.3085823278 DDPL2 =    0.07916577    0.10091176   -2.32403549
MODE=  12   7
 GRID=   8
   DE2  =     -114.3140069652 DDPL2 =    0.07637387    0.03404782   -2.38476243
MODE=  12   7
 GRID=   9
   DE2  =     -114.2997373475 DDPL2 =    0.22763014    0.03295877   -2.33717499
MODE=  12   7
 GRID=  10
   DE2  =     -114.3085823273 DDPL2 =    0.07916571   -0.10091178   -2.32403551
MODE=  12   7
 GRID=  11
   DE2  =     -114.3140069652 DDPL2 =    0.07637387   -0.03404782   -2.38476243
MODE=  12   7
 GRID=  12
   DE2  =     -114.2997373475 DDPL2 =    0.22763014   -0.03295877   -2.33717499
MODE=  11  10
 GRID=   1
   DE2  =     -114.2962817242 DDPL2 =    0.00000000    0.00000000   -2.50303413
MODE=  11  10
 GRID=   2
   DE2  =     -114.3135576551 DDPL2 =    0.00000000    0.00000000   -2.37603489
MODE=  11  10
 GRID=   3
   DE2  =     -114.3042771020 DDPL2 =    0.00000000    0.00000000   -2.16893251
MODE=  11  10
 GRID=   4
   DE2  =     -114.2962559994 DDPL2 =    0.00000000    0.00000000   -2.64156066
MODE=  11  10
 GRID=   5
   DE2  =     -114.3136538633 DDPL2 =    0.00000000    0.00000000   -2.53935454
MODE=  11  10
 GRID=   6
   DE2  =     -114.3070782215 DDPL2 =    0.00000000    0.00000000   -2.66029333
MODE=  11  10
 GRID=   7
   DE2  =     -114.3041180015 DDPL2 =    0.00000000    0.00000000   -1.99759937
MODE=  11  10
 GRID=   8
   DE2  =     -114.3137710279 DDPL2 =    0.00000000    0.00000000   -2.22992595
MODE=  11  10
 GRID=   9
   DE2  =     -114.3030837220 DDPL2 =    0.00000000    0.00000000   -2.06668836
MODE=  11  10
 GRID=  10
   DE2  =     -114.3069467975 DDPL2 =    0.00000000    0.00000000   -2.56173877
MODE=  11  10
 GRID=  11
   DE2  =     -114.3138704586 DDPL2 =    0.00000000    0.00000000   -2.41777745
MODE=  11  10
 GRID=  12
   DE2  =     -114.3031273883 DDPL2 =    0.00000000    0.00000000   -2.27811470
MODE=  11   9
 GRID=   1
   DE2  =     -114.2964651388 DDPL2 =    0.00000000    0.00000000   -2.53896659
MODE=  11   9
 GRID=   2
   DE2  =     -114.3137461116 DDPL2 =    0.00000000    0.00000000   -2.42310765
MODE=  11   9
 GRID=   3
   DE2  =     -114.3070583845 DDPL2 =    0.00000000    0.00000000   -2.31871902
MODE=  11   9
 GRID=   4
   DE2  =     -114.2964730827 DDPL2 =    0.00000000    0.00000000   -2.60868493
MODE=  11   9
 GRID=   5
   DE2  =     -114.3137251982 DDPL2 =    0.00000000    0.00000000   -2.49602555
MODE=  11   9
 GRID=   6
   DE2  =     -114.3068485158 DDPL2 =    0.00000000    0.00000000   -2.54450893
MODE=  11   9
 GRID=   7
   DE2  =     -114.3068939099 DDPL2 =    0.00000000    0.00000000   -2.18064047
MODE=  11   9
 GRID=   8
   DE2  =     -114.3139589812 DDPL2 =    0.00000000    0.00000000   -2.28763285
MODE=  11   9
 GRID=   9
   DE2  =     -114.3032804859 DDPL2 =    0.00000000    0.00000000   -2.13426698
MODE=  11   9
 GRID=  10
   DE2  =     -114.3067617487 DDPL2 =    0.00000000    0.00000000   -2.41651100
MODE=  11   9
 GRID=  11
   DE2  =     -114.3139398284 DDPL2 =    0.00000000    0.00000000   -2.36425634
MODE=  11   9
 GRID=  12
   DE2  =     -114.3032642653 DDPL2 =    0.00000000    0.00000000   -2.21490575
MODE=  11   8
 GRID=   1
   DE2  =     -114.2968327565 DDPL2 =    0.03191709    0.00000000   -2.57499217
MODE=  11   8
 GRID=   2
   DE2  =     -114.3139441494 DDPL2 =    0.03621604    0.00000000   -2.46074720
MODE=  11   8
 GRID=   3
   DE2  =     -114.3087288850 DDPL2 =    0.10947504    0.00000000   -2.44219426
MODE=  11   8
 GRID=   4
   DE2  =     -114.2968327568 DDPL2 =   -0.03191709    0.00000000   -2.57499210
MODE=  11   8
 GRID=   5
   DE2  =     -114.3139441494 DDPL2 =   -0.03621604    0.00000000   -2.46074720
MODE=  11   8
 GRID=   6
   DE2  =     -114.3087288850 DDPL2 =   -0.10947504    0.00000000   -2.44219426
MODE=  11   8
 GRID=   7
   DE2  =     -114.3077903862 DDPL2 =    0.12319055    0.00000000   -2.30923671
MODE=  11   8
 GRID=   8
   DE2  =     -114.3140619007 DDPL2 =    0.04080776    0.00000000   -2.32713530
MODE=  11   8
 GRID=   9
   DE2  =     -114.3033268836 DDPL2 =    0.04550200    0.00000000   -2.17576785
MODE=  11   8
 GRID=  10
   DE2  =     -114.3077903859 DDPL2 =   -0.12319055    0.00000000   -2.30923675
MODE=  11   8
 GRID=  11
   DE2  =     -114.3140619007 DDPL2 =   -0.04080776    0.00000000   -2.32713530
MODE=  11   8
 GRID=  12
   DE2  =     -114.3033268836 DDPL2 =   -0.04550200    0.00000000   -2.17576785
MODE=  11   7
 GRID=   1
   DE2  =     -114.2970108189 DDPL2 =   -0.00000001    0.03650213   -2.56875170
MODE=  11   7
 GRID=   2
   DE2  =     -114.3140159888 DDPL2 =    0.00000000    0.03507660   -2.45501862
MODE=  11   7
 GRID=   3
   DE2  =     -114.3092909712 DDPL2 =    0.00000000    0.10406332   -2.39206658
MODE=  11   7
 GRID=   4
   DE2  =     -114.2970108186 DDPL2 =    0.00000000   -0.03650214   -2.56875171
MODE=  11   7
 GRID=   5
   DE2  =     -114.3140159888 DDPL2 =    0.00000000   -0.03507660   -2.45501862
MODE=  11   7
 GRID=   6
   DE2  =     -114.3092909712 DDPL2 =    0.00000000   -0.10406332   -2.39206658
MODE=  11   7
 GRID=   7
   DE2  =     -114.3079001017 DDPL2 =    0.00000000    0.09825334   -2.26330821
MODE=  11   7
 GRID=   8
   DE2  =     -114.3140771684 DDPL2 =    0.00000000    0.03318033   -2.32190049
MODE=  11   7
 GRID=   9
   DE2  =     -114.3033134451 DDPL2 =    0.00000000    0.03081811   -2.17101969
MODE=  11   7
 GRID=  10
   DE2  =     -114.3079001019 DDPL2 =    0.00000000   -0.09825335   -2.26330817
MODE=  11   7
 GRID=  11
   DE2  =     -114.3140771684 DDPL2 =    0.00000000   -0.03318033   -2.32190049
MODE=  11   7
 GRID=  12
   DE2  =     -114.3033134451 DDPL2 =    0.00000000   -0.03081811   -2.17101969
MODE=  10   9
 GRID=   1
   DE2  =     -114.3044440111 DDPL2 =    0.00000000    0.00000000   -2.04914351
MODE=  10   9
 GRID=   2
   DE2  =     -114.3144078390 DDPL2 =    0.00000000    0.00000000   -2.26576911
MODE=  10   9
 GRID=   3
   DE2  =     -114.3070507857 DDPL2 =    0.00000000    0.00000000   -2.16355906
MODE=  10   9
 GRID=   4
   DE2  =     -114.3052428761 DDPL2 =    0.00000000    0.00000000   -2.11541083
MODE=  10   9
 GRID=   5
   DE2  =     -114.3144665124 DDPL2 =    0.00000000    0.00000000   -2.33808582
MODE=  10   9
 GRID=   6
   DE2  =     -114.3071250048 DDPL2 =    0.00000000    0.00000000   -2.38720343
MODE=  10   9
 GRID=   7
   DE2  =     -114.3078706454 DDPL2 =    0.00000000    0.00000000   -2.33030556
MODE=  10   9
 GRID=   8
   DE2  =     -114.3145996390 DDPL2 =    0.00000000    0.00000000   -2.43895244
MODE=  10   9
 GRID=   9
   DE2  =     -114.3076470526 DDPL2 =    0.00000000    0.00000000   -2.56974476
MODE=  10   9
 GRID=  10
   DE2  =     -114.3079199487 DDPL2 =    0.00000000    0.00000000   -2.56672510
MODE=  10   9
 GRID=  11
   DE2  =     -114.3146495426 DDPL2 =    0.00000000    0.00000000   -2.51565338
MODE=  10   9
 GRID=  12
   DE2  =     -114.3082002765 DDPL2 =    0.00000000    0.00000000   -2.64908533
MODE=  10   8
 GRID=   1
   DE2  =     -114.3051135165 DDPL2 =    0.03568693    0.00000000   -2.08323231
MODE=  10   8
 GRID=   2
   DE2  =     -114.3146264380 DDPL2 =    0.03802000    0.00000000   -2.30305945
MODE=  10   8
 GRID=   3
   DE2  =     -114.3087146643 DDPL2 =    0.11493382    0.00000000   -2.28548089
MODE=  10   8
 GRID=   4
   DE2  =     -114.3051135158 DDPL2 =   -0.03568693    0.00000000   -2.08323226
MODE=  10   8
 GRID=   5
   DE2  =     -114.3146264380 DDPL2 =   -0.03802000    0.00000000   -2.30305945
MODE=  10   8
 GRID=   6
   DE2  =     -114.3087146643 DDPL2 =   -0.11493382    0.00000000   -2.28548089
MODE=  10   8
 GRID=   7
   DE2  =     -114.3089350039 DDPL2 =    0.11633141    0.00000000   -2.45953294
MODE=  10   8
 GRID=   8
   DE2  =     -114.3147473885 DDPL2 =    0.03852083    0.00000000   -2.47852930
MODE=  10   8
 GRID=   9
   DE2  =     -114.3079888314 DDPL2 =    0.03741644    0.00000000   -2.61068789
MODE=  10   8
 GRID=  10
   DE2  =     -114.3089350040 DDPL2 =   -0.11633138    0.00000000   -2.45953296
MODE=  10   8
 GRID=  11
   DE2  =     -114.3147473885 DDPL2 =   -0.03852083    0.00000000   -2.47852930
MODE=  10   8
 GRID=  12
   DE2  =     -114.3079888314 DDPL2 =   -0.03741644    0.00000000   -2.61068789
MODE=  10   7
 GRID=   1
   DE2  =     -114.3051326537 DDPL2 =    0.00000003    0.02063064   -2.07781998
MODE=  10   7
 GRID=   2
   DE2  =     -114.3146570414 DDPL2 =    0.00000000    0.02981862   -2.29758271
MODE=  10   7
 GRID=   3
   DE2  =     -114.3089471202 DDPL2 =    0.00000001    0.08838183   -2.23743386
MODE=  10   7
 GRID=   4
   DE2  =     -114.3051326539 DDPL2 =    0.00000000   -0.02063065   -2.07782010
MODE=  10   7
 GRID=   5
   DE2  =     -114.3146570414 DDPL2 =    0.00000000   -0.02981862   -2.29758271
MODE=  10   7
 GRID=   6
   DE2  =     -114.3089471202 DDPL2 =    0.00000000   -0.08838183   -2.23743386
MODE=  10   7
 GRID=   7
   DE2  =     -114.3093192856 DDPL2 =    0.00000000    0.11384852   -2.41169224
MODE=  10   7
 GRID=   8
   DE2  =     -114.3147968947 DDPL2 =    0.00000000    0.03842442   -2.47306160
MODE=  10   7
 GRID=   9
   DE2  =     -114.3080662495 DDPL2 =    0.00000000    0.04656540   -2.60528746
MODE=  10   7
 GRID=  10
   DE2  =     -114.3093192864 DDPL2 =    0.00000000   -0.11384851   -2.41169221
MODE=  10   7
 GRID=  11
   DE2  =     -114.3147968947 DDPL2 =    0.00000000   -0.03842442   -2.47306160
MODE=  10   7
 GRID=  12
   DE2  =     -114.3080662495 DDPL2 =    0.00000000   -0.04656540   -2.60528746
MODE=   9   8
 GRID=   1
   DE2  =     -114.3077586148 DDPL2 =    0.05234585   -0.00000002   -2.24846728
MODE=   9   8
 GRID=   2
   DE2  =     -114.3147879181 DDPL2 =    0.04394385    0.00000000   -2.35500521
MODE=   9   8
 GRID=   3
   DE2  =     -114.3086740886 DDPL2 =    0.13286697    0.00000000   -2.33336573
MODE=   9   8
 GRID=   4
   DE2  =     -114.3077586124 DDPL2 =   -0.05234585    0.00000000   -2.24846732
MODE=   9   8
 GRID=   5
   DE2  =     -114.3147879181 DDPL2 =   -0.04394385    0.00000000   -2.35500521
MODE=   9   8
 GRID=   6
   DE2  =     -114.3086740886 DDPL2 =   -0.13286697    0.00000000   -2.33336573
MODE=   9   8
 GRID=   7
   DE2  =     -114.3091864559 DDPL2 =    0.09731769    0.00000000   -2.41555565
MODE=   9   8
 GRID=   8
   DE2  =     -114.3148271070 DDPL2 =    0.03220783    0.00000000   -2.43056903
MODE=   9   8
 GRID=   9
   DE2  =     -114.3077698184 DDPL2 =    0.01728085    0.00000000   -2.48154028
MODE=   9   8
 GRID=  10
   DE2  =     -114.3091864557 DDPL2 =   -0.09731765    0.00000000   -2.41555571
MODE=   9   8
 GRID=  11
   DE2  =     -114.3148271070 DDPL2 =   -0.03220783    0.00000000   -2.43056903
MODE=   9   8
 GRID=  12
   DE2  =     -114.3077698184 DDPL2 =   -0.01728085    0.00000000   -2.48154028
MODE=   9   7
 GRID=   1
   DE2  =     -114.3079539428 DDPL2 =    0.00000002    0.03627954   -2.24371330
MODE=   9   7
 GRID=   2
   DE2  =     -114.3148772337 DDPL2 =    0.00000000    0.03477113   -2.34973244
MODE=   9   7
 GRID=   3
   DE2  =     -114.3094108374 DDPL2 =    0.00000000    0.10285188   -2.28721031
MODE=   9   7
 GRID=   4
   DE2  =     -114.3079539427 DDPL2 =    0.00000000   -0.03627951   -2.24371332
MODE=   9   7
 GRID=   5
   DE2  =     -114.3148772337 DDPL2 =    0.00000000   -0.03477113   -2.34973244
MODE=   9   7
 GRID=   6
   DE2  =     -114.3094108374 DDPL2 =    0.00000000   -0.10285188   -2.28721031
MODE=   9   7
 GRID=   7
   DE2  =     -114.3090761525 DDPL2 =    0.00000000    0.10020465   -2.36608819
MODE=   9   7
 GRID=   8
   DE2  =     -114.3148193125 DDPL2 =    0.00000000    0.03374277   -2.42492973
MODE=   9   7
 GRID=   9
   DE2  =     -114.3076791432 DDPL2 =    0.00000000    0.03334080   -2.47577358
MODE=   9   7
 GRID=  10
   DE2  =     -114.3090761534 DDPL2 =    0.00000000   -0.10020464   -2.36608812
MODE=   9   7
 GRID=  11
   DE2  =     -114.3148193125 DDPL2 =    0.00000000   -0.03374277   -2.42492973
MODE=   9   7
 GRID=  12
   DE2  =     -114.3076791432 DDPL2 =    0.00000000   -0.03334080   -2.47577358
MODE=   8   7
 GRID=   1
   DE2  =     -114.3091256337 DDPL2 =    0.11652124    0.03430262   -2.37043015
MODE=   8   7
 GRID=   2
   DE2  =     -114.3150016695 DDPL2 =    0.03857525    0.03420079   -2.38852461
MODE=   8   7
 GRID=   3
   DE2  =     -114.3093869424 DDPL2 =    0.03926305    0.10136851   -2.32788125
MODE=   8   7
 GRID=   4
   DE2  =     -114.3091256336 DDPL2 =    0.11652122   -0.03430265   -2.37043017
MODE=   8   7
 GRID=   5
   DE2  =     -114.3150016695 DDPL2 =    0.03857525   -0.03420079   -2.38852461
MODE=   8   7
 GRID=   6
   DE2  =     -114.3093869424 DDPL2 =    0.03926305   -0.10136851   -2.32788125
MODE=   8   7
 GRID=   7
   DE2  =     -114.3093869426 DDPL2 =   -0.03926306    0.10136849   -2.32788122
MODE=   8   7
 GRID=   8
   DE2  =     -114.3150016694 DDPL2 =   -0.03857526    0.03420083   -2.38852465
MODE=   8   7
 GRID=   9
   DE2  =     -114.3091256333 DDPL2 =   -0.11652130    0.03430261   -2.37043020