!    The use of RI-MP2 for VSCF calculations, just on water.
!    The RI program saves time, but lacks MP2-level dipoles, so the
!    best intensity result is recycling the harmonic MP2 $DIPDR.
!
!    This test originally from Tapta Kanchan Roy, but I used C2v.
!    Note that the grid size is kept very small to allow short runs,
!    and the basis set is also small, so its a test case, not production.
!
!       frequencies         bend    s-str.   a-str.     CPU
!    harmonic full MP2:   1677.59  3851.80  3971.05     4.8
!        VSCF full MP2:   1594.75  3646.05  3723.33    62.8
!          VSCF RI-MP2:   1594.78  3646.10  3723.35    36.7   <--- this run
!
!   intensities (km/mol)    bend    s-str.   a-str.
!    harmonic full MP2:     56.92     6.56    32.63
!        VSCF full MP2:     58.82     5.01    32.28
!    VSCF RI-MP2, DMDR:     56.94     6.53    31.84  <---- this run.
!  VSCF RI-MP2, SCF mu:     77.94    17.05    45.07
!
!  This run takes 36 seconds on 2.66 GHz Cloverton (14 July 2016)
!
 $contrl scftyp=rhf mplevl=2 runtyp=vscf ispher=1 $end
 $system mwords=10 memddi=10 $end
 $vscf   ngrid=8 dmdr=.true. $end
 $mp2    code=rimp2  $end
 $rimp2  iauxbf=1 $end
 $auxbas cabnam=CCD $end
 $basis  gbasis=CCD $end
 $guess  guess=Huckel $end
 $scf    dirscf=.true.  $end
 $data
water: fully accurate MP2/cc-pVDZ geometry
Cnv 2

O   8.0   0.0000000000   0.0000000000  -0.0719108010
H   1.0  -0.7493351345   0.0000000000   0.5359554006
 $end

--------- harmonic information is from a full MP2 calculation ----------
 $GRAD  
E=      -76.2286665043  GMAX=   0.0000007  GRMS=   0.0000004
O            8.    0.0000000000E+00    0.0000000000E+00   -7.3115476606E-07
H            1.    5.9077466430E-07    0.0000000000E+00    3.6557728356E-07
H            1.   -5.9077466252E-07    0.0000000000E+00    3.6557728667E-07
 $END
 $HESS
ENERGY IS      -76.2286665043 E(NUC) IS        9.1280602789
 1  1 6.74207051E-01 0.00000000E+00 4.44089210E-14-3.37102124E-01-1.16117348E-13
 1  2-2.73482418E-01-3.37102124E-01-1.16096707E-13 2.73482418E-01
 2  1 0.00000000E+00 1.74819812E-05 6.66133815E-14 1.99819504E-13-9.99307796E-06
 2  2-4.10799264E-13 1.22124533E-13-9.99285090E-06 5.21804822E-13
 3  1 4.44089210E-14 6.66133815E-14 4.79298321E-01-2.06691359E-01 6.66007242E-14
 3  2-2.39651763E-01 2.06691359E-01-6.66133815E-14-2.39651763E-01
 4  1-3.37102124E-01 1.99819504E-13-2.06691359E-01 3.70219038E-01 4.77441238E-13
 4  2 2.40087602E-01-3.31183158E-02-1.88739942E-13-3.33958175E-02
 5  1-1.16117348E-13-9.99307796E-06 6.66007242E-14 4.77441238E-13 7.74866263E-06
 5  2 2.88687389E-13-1.88739942E-13 3.49627711E-06-2.04484495E-18
 6  1-2.73482418E-01-4.10799264E-13-2.39651763E-01 2.40087602E-01 2.88687389E-13
 6  2 2.30735626E-01 3.33958175E-02 2.04496315E-18 8.91874044E-03
 7  1-3.37102124E-01 1.22124533E-13 2.06691359E-01-3.31183158E-02-1.88739942E-13
 7  2 3.33958175E-02 3.70219038E-01 4.77395901E-13-2.40087602E-01
 8  1-1.16096707E-13-9.99285090E-06-6.66133815E-14-1.88739942E-13 3.49627711E-06
 8  2 2.04496315E-18 4.77395901E-13 7.74866263E-06-2.88657986E-13
 9  1 2.73482418E-01 5.21804822E-13-2.39651763E-01-3.33958175E-02-2.04484495E-18
 9  2 8.91874044E-03-2.40087602E-01-2.88657986E-13 2.30735626E-01
 $END
 $DIPDR
 -2.14903602E+00 0.00000000E+00 0.00000000E+00
  0.00000000E+00-3.29378052E+00 0.00000000E+00
  0.00000000E+00 0.00000000E+00-1.56207073E+00
  1.07448061E+00 9.84639624E-17-2.65885073E-01
 -3.03955118E-12 1.64697075E+00-3.21162060E-12
 -4.64341772E-01 4.88540610E-17 7.81052985E-01
  1.07448061E+00 2.83541406E-17 2.65885073E-01
 -3.03962129E-12 1.64697075E+00 3.21165317E-12
  4.64341772E-01 8.01140546E-18 7.81052985E-01
 $END

! TRAVIS-CI SMALL
! TRAVIS-CI SKIP
! ACCURACY BETWEEN INTEL AND GNU DOES NOT MATCH
