!   VSCF test of coordinate system to be used, for water, namely,
!   set -INTCRD- on and off to use internal or Cartesian coordinates
!   RMS grad at this geometry is 0.000000049, E(MP2)= -76.2172799213
!
!   RESULTS OF VIBRATIONAL SCF CALCULATION: (FREQUENCIES IN CM-1)
!   MODE  HARMONIC   DIAGONAL     VSCF      PT2-VSCF   VCI-VSCF  DPT2-VSCF
!     9    4033.29    4128.51    3885.50    3850.52    3885.50    3850.52
!     8    3893.07    3806.20    3786.47    3722.82    3786.64    3722.83
!     7    1680.23    1654.14    1653.69    1652.07    1653.54    1652.07
!   VMP2's ZPE= 4756.76 cm-1, IR intensities are: 34.18, 2.81, 81.35
!
!   This test takes 104 seconds on 2.66 GHz Cloverton (30 Apr 2015)
!   results same since 2008.
!
!   ------------------------------------------------------------------------
!   if this is run using Cartesian coordinates, expect:
!   MODE  HARMONIC   DIAGONAL     VSCF      PT2-VSCF   VCI-VSCF  DPT2-VSCF
!     9    4033.29    4127.99    3849.04    3810.72    3849.04    3810.72
!     8    3893.07    3805.99    3771.93    3710.48    3772.09    3710.49
!     7    1680.23    1667.36    1621.05    1615.43    1620.85    1615.44
!   VMP2's ZPE= 4736.65, intensities are: 34.03, 2.92, 79.88
!
!   experimental results: fundamental frequencies= 3756, 3652, 1595
!
 $mp2 code=ddi $end
 $contrl runtyp=vscf scftyp=rhf mplevl=2 ispher=1 nzvar=3 $end
 $system mwords=5 memddi=5 $end
 $scf    dirscf=.true. $end
--- $gddi   ngroup=2 $end
 $zmat   izmat(1)=1,2,1 1,3,1 2,3,1,2 $end
 $basis  gbasis=n31 ngauss=6 ndfunc=1 npfunc=1 $end
 $vscf   ncoup=2 intcrd=.true. petyp=direct vdpt=.t. vci=.f. $end
 $data
H2O...test case from Bosiljka Njegic...VSCF on a direct PES surface
Cnv 2

O           8.0    .0000000000    .0000000000   -.0615544042
H           1.0    .7574776761    .0000000000    .5307772021
 $end

 $HESS
ENERGY IS      -76.2172799213 E(NUC) IS        9.1544642731
 1  1 7.14154435E-01 0.00000000E+00-2.02169485E-13-3.57075416E-01-4.08529599E-14
 1  2 2.79246507E-01-3.57075416E-01-4.08310962E-14-2.79246507E-01
 2  1 0.00000000E+00 1.89784303E-05-4.88579361E-13-4.67821565E-15-1.02587935E-05
 2  2 3.23651489E-13 1.71426763E-13-1.02619680E-05 3.77156243E-13
 3  1-2.02169485E-13-4.88579361E-13 4.73292874E-01 2.09620105E-01-5.93005424E-12
 3  2-2.36648379E-01-2.09620105E-01 5.93006708E-12-2.36648379E-01
 4  1-3.57075416E-01-4.67821565E-15 2.09620105E-01 3.88162750E-01-1.75897513E-13
 4  2-2.44432935E-01-3.10891362E-02-8.91833347E-14 3.48146456E-02
 5  1-4.08529599E-14-1.02587935E-05-5.93005424E-12-1.75897513E-13 8.16469143E-06
 5  2 1.71468106E-13-8.91833347E-14 2.86685488E-06 8.18955138E-14
 6  1 2.79246507E-01 3.23651489E-13-2.36648379E-01-2.44432935E-01 1.71468106E-13
 6  2 2.27489380E-01-3.48146456E-02-8.18955139E-14 9.16094064E-03
 7  1-3.57075416E-01 1.71426763E-13-2.09620105E-01-3.10891362E-02-8.91833347E-14
 7  2-3.48146456E-02 3.88162750E-01-1.75945049E-13 2.44432935E-01
 8  1-4.08310962E-14-1.02619680E-05 5.93006708E-12-8.91833347E-14 2.86685488E-06
 8  2-8.18955139E-14-1.75945049E-13 8.16469143E-06-1.71498041E-13
 9  1-2.79246507E-01 3.77156243E-13-2.36648379E-01 3.48146456E-02 8.18955138E-14
 9  2 9.16094064E-03 2.44432935E-01-1.71498041E-13 2.27489380E-01
 $END


! TRAVIS-CI SMALL

! TRAVIS-CI SKIP
