!  ground state 1A' H2CO...analytic derivative test...TZ+P basis
!  in memory transformation and in memory CPHF...52 AOs
!
!  Duplicates Table 8 of M.Duran, Y.Yamaguchi, R.B.Remington,
!  H.F.Schaefer, Chem. Phys. 122, 201-233(1988).
!
!  literature: rCO=1.1823, rCH=1.0943, aHCH=116.03
!  E=-113.90006, dipole=2.749 D, mean polarizability=1.899 A**3
!       FREQ= 1341.5  1369.6  1654.8  2000.8  3099.2  3173.7
!  intensity=   0.74   21.91   14.45  142.68   53.93  101.06 km/mol
!  intensity=  0.0175 0.5185  0.3420   3.377   1.276   2.392 D**2/amu-A**2
!
!  GAMESS: rCO=1.1823232, rCH=1.0942602, aHCH=116.02995, aHCO=121.9850250
!  FINAL E=-113.9000568818 after 11 iters
!  dipole=2.749020 D, mean polarizability=1.89895 A**3
!       FREQ= 1341.45 1369.60 1654.81 2000.80 3099.24 3173.72
!  intensity= 0.01745 0.51848 0.34192 3.37685 1.27624 2.39161
!
!  This run takes 3 seconds on a 2.66 GHz Cloverton (17 Mar 2015)
!  The results haven't changed substantially since 2005
!
 $contrl scftyp=rhf runtyp=hessian nzvar=6 $end
 $system memory=700000 $end
 $cphf   polar=.true. $end
 $zmat   izmat(1)=1,1,2  1,1,3,  1,1,4,  2,2,1,3,  2,2,1,4,  4,2,1,3,4  $end
 $data
formaldehyde...TZ+P basis
Cnv 2

CARBON      6.0    .0000000000    .0000000000   -.0000139324
 s 4
   1 4232.61   0.006228
   2  634.882  0.047676
   3  146.097  0.231439
   4   42.4974 0.789108
 s 2
   1 14.1892  0.791751
   2  1.9666  0.321870
 s 1 ; 1 5.1477  1.0
 s 1 ; 1 0.4962  1.0
 s 1 ; 1 0.1533  1.0
 p 3
   1 18.1557 0.039196
   2  3.9864 0.244144
   3  1.1429 0.816775
 p 1 ; 1 0.3594 1.0
 p 1 ; 1 0.1146 1.0
 d 1 ; 1 0.75 1.0

OXYGEN      8.0    .0000000000    .0000000000   1.1823093117
 s 4
   1 7816.54   0.006436
   2 1175.82   0.048924
   3  273.188  0.233819
   4   81.1696 0.784798
 s 2
   1 27.1836 0.803381
   2  3.4136 0.316720
 s 1 ; 1 9.5322 1.0
 s 1 ; 1 0.9398 1.0
 s 1 ; 1 0.2846 1.0
 p 3
   1 35.1832  0.040023
   2  7.9040  0.253849
   3  2.3051  0.806842
 p 1 ; 1 0.7171 1.0
 p 1 ; 1 0.2137 1.0
 d 1 ; 1 0.85 1.0

HYDROGEN    1.0    .9281368282    .0000000000   -.5796409466
 s 2  ! s basis scale factor=1.2
   1 19.2406 0.130844
   1  2.8992 0.921539
 s 1 ; 1 0.6534 1.0
 s 1 ; 1 0.1776 1.0
 p 1 ; 1 0.75 1.0

 $end

! TRAVIS-CI SMALL

! TRAVIS-CI SKIP
