!   HCN...produce core hole states at either heavy atom.
!   neutral parent has 7 alpha and 7 beta occupied.
!   6-311G(d,p) has 44 AOs and 42 MOs.
!
!   Test case tries to reproduce delta-HF results in Table I of
!     "Self consistent-field calculations of core excited states".
!     N.A.Besley, A.T.B.Gilbert, P.M.W.Gill  JCP 130,124308(2009)
!   For delta-MP2 results, see
!     J.Shim, M.Klobukowski, M.Barysz, J.Leszczynski
!     Phys.Chem.Chem.Phys. 13, 5703(2011)
!   We make a guess that "HF" means UHF, and "B3LYP" means Gaussian flavor.
!   Note that "MOM" is just a new name for Paul Bagus' 1965 idea that
!   the orbital overlap with previous iterations should be maintained,
!   in order to converge core hole states.  See ref. 20 in the cited paper.
!
!   neutral parent: FINAL RHF E= -92.8974145459 AFTER  10 ITERATIONS
!    lowest +1 ion: FINAL UHF E= -92.3377640955 AFTER  12 ITERATIONS
!   N atom 1s hole: FINAL UHF E= -77.9548875069 AFTER  15 ITERATIONS
!   C atom 1s hole: FINAL UHF E= -82.1198025232 AFTER  23 ITERATIONS
!     this puts the HF level result as +406.6 for N's hole,
!                                  and +293.3 for C's hole.
!   The paper says 406.82 and 293.88, respectively.
!
!   This test takes 1 second on any kind of computer (3 May 2011)
!
 $contrl scftyp=uhf mult=2 icharg=+1 runtyp=energy ispher=1 $end
 $basis  gbasis=n311 ngauss=6 ndfunc=1 npfunc=1 $end
!    core hole is produced by moving either N or C's 1s to the
!    first unoccupied position in the beta orbital space, and
!    then nailing it into that position.
x$guess  guess=moread norb=42 norder=1 jorder(1)=2,3,4,5,6,7,1 $end
 $guess  guess=moread norb=42 norder=1 jorder(1)=1,3,4,5,6,7,2 $end
 $scf    rstrct=.true. $end

How the parent was done, and where the orbitals came from:
--- $contrl scftyp=rhf runtyp=energy ispher=1 $end
--- $basis  gbasis=n311 ngauss=6 ndfunc=1 npfunc=1 $end
--- $guess  guess=huckel $end

How the geometry optimization was done: Gaussian-flavor of B3LYP used.
--- $contrl scftyp=rhf dfttyp=b3lyp1 runtyp=optimize ispher=0 $end
--- $basis  gbasis=n31 ngauss=6 ndfunc=1 $end
--- $statpt opttol=1d-5 $end
--- $guess  guess=huckel $end

 $data
HCN...B3LYP/6-31G(d) geometry
Cnv 4

H  1.0  0.0  0.0  -1.0704462
C  6.0  0.0  0.0   0.0
N  7.0  0.0  0.0  +1.1570567
 $end

--- CLOSED SHELL ORBITALS --- E(RHF)= -92.8974145459:
the orbital set was doubled up, back to back, to provide alpha/beta sets
 $VEC
 1  1-5.94745704E-05 1.95401408E-04 1.23943139E-04 0.00000000E+00 0.00000000E+00
 1  2 1.37141366E-05 8.99058864E-05-6.04736649E-05 0.00000000E+00 0.00000000E+00
 1  3 2.16540602E-04 5.13139956E-04 0.00000000E+00 0.00000000E+00 4.29250850E-04
 1  4 4.38959450E-04 0.00000000E+00 0.00000000E+00 5.67099950E-04-8.14786839E-05
 1  5-8.14786839E-05 1.62957368E-04 0.00000000E+00 0.00000000E+00 0.00000000E+00
 1  6 5.57777757E-01 4.68384622E-01 0.00000000E+00 0.00000000E+00-2.06545724E-03
 1  7 4.12089268E-03 0.00000000E+00 0.00000000E+00 6.88744224E-04-8.21330262E-04
 1  8 0.00000000E+00 0.00000000E+00 1.28998236E-05-1.98130205E-04-1.98130205E-04
 1  9 3.96260411E-04 0.00000000E+00 0.00000000E+00 0.00000000E+00
 2  1 9.77268541E-05-8.11546507E-04 9.30440732E-06 0.00000000E+00 0.00000000E+00
 2  2-5.30873429E-04 5.63197346E-01 4.66499599E-01 0.00000000E+00 0.00000000E+00
 2  3-6.73152732E-04 4.90283058E-03 0.00000000E+00 0.00000000E+00 1.07911165E-03
 2  4 1.16987949E-03 0.00000000E+00 0.00000000E+00-4.54661542E-05-8.86219080E-04
 2  5-8.86219080E-04 1.77243816E-03 0.00000000E+00 0.00000000E+00 0.00000000E+00
 2  6-4.71027513E-04-4.67980031E-04 0.00000000E+00 0.00000000E+00-3.95754751E-04
 2  7-1.78712921E-04 0.00000000E+00 0.00000000E+00 3.14643618E-04-8.56248431E-04
 2  8 0.00000000E+00 0.00000000E+00 3.49018060E-04-1.82972145E-05-1.82972145E-05
 2  9 3.65944289E-05 0.00000000E+00 0.00000000E+00 0.00000000E+00
 3  1 1.72549676E-02-4.35587299E-03-1.94539133E-02 0.00000000E+00 0.00000000E+00
 3  2-4.89930042E-03-7.96235825E-02-1.29251303E-01 0.00000000E+00 0.00000000E+00
 3  3 1.02124788E-01 3.22609757E-01 0.00000000E+00 0.00000000E+00 1.08872420E-01
 3  4 7.62651819E-02 0.00000000E+00 0.00000000E+00-4.43201353E-02-1.65542133E-02
 3  5-1.65542133E-02 3.31084267E-02 0.00000000E+00 0.00000000E+00 0.00000000E+00
 3  6-9.73904965E-02-1.60751943E-01 0.00000000E+00 0.00000000E+00-8.88263709E-02
 3  7 4.21386975E-01 0.00000000E+00 0.00000000E+00-1.26600175E-01 3.23862094E-01
 3  8 0.00000000E+00 0.00000000E+00-6.32366961E-02-1.38329200E-02-1.38329200E-02
 3  9 2.76658400E-02 0.00000000E+00 0.00000000E+00 0.00000000E+00
 4  1 1.77660629E-01 2.66103136E-01 1.95698957E-02 0.00000000E+00 0.00000000E+00
 4  2 3.45731256E-02-6.79990944E-02-1.15204628E-01 0.00000000E+00 0.00000000E+00
 4  3-1.51222345E-01 3.06285382E-01 0.00000000E+00 0.00000000E+00-2.05619579E-01
 4  4 2.50665909E-01 0.00000000E+00 0.00000000E+00-9.58869072E-02-1.08708109E-02
 4  5-1.08708109E-02 2.17416219E-02 0.00000000E+00 0.00000000E+00 0.00000000E+00
 4  6 3.85318284E-02 6.52682004E-02 0.00000000E+00 0.00000000E+00-3.96974710E-03
 4  7-1.89179835E-01 0.00000000E+00 0.00000000E+00-4.07292862E-03-1.50686800E-01
 4  8 0.00000000E+00 0.00000000E+00-1.54103272E-02 3.28405838E-03 3.28405838E-03
 4  9-6.56811676E-03 0.00000000E+00 0.00000000E+00 0.00000000E+00
 5  1 5.04874574E-02 1.13477641E-01 5.09373647E-02 0.00000000E+00 0.00000000E+00
 5  2 1.35720114E-02 3.33478972E-02 5.58664225E-02 0.00000000E+00 0.00000000E+00
 5  3-1.25258176E-01-1.60642266E-01 0.00000000E+00 0.00000000E+00-1.52571969E-01
 5  4 5.58877832E-03 0.00000000E+00 0.00000000E+00 2.07055399E-02 1.72984145E-03
 5  5 1.72984145E-03-3.45968290E-03 0.00000000E+00 0.00000000E+00 0.00000000E+00
 5  6-5.80377588E-02-9.80296036E-02 0.00000000E+00 0.00000000E+00 2.33781113E-01
 5  7 2.89139359E-01 0.00000000E+00 0.00000000E+00 3.46222485E-01 3.42412476E-01
 5  8 0.00000000E+00 0.00000000E+00 2.81411844E-01 1.51335770E-02 1.51335770E-02
 5  9-3.02671541E-02 0.00000000E+00 0.00000000E+00 0.00000000E+00
 6  1 0.00000000E+00 0.00000000E+00 0.00000000E+00 1.53851570E-02 0.00000000E+00
 6  2 0.00000000E+00 0.00000000E+00 0.00000000E+00 1.74011513E-01 0.00000000E+00
 6  3 0.00000000E+00 0.00000000E+00 2.83917449E-01 0.00000000E+00 0.00000000E+00
 6  4 0.00000000E+00 2.28699718E-01 0.00000000E+00 0.00000000E+00 0.00000000E+00
 6  5 0.00000000E+00 0.00000000E+00 0.00000000E+00 4.17191971E-02 0.00000000E+00
 6  6 0.00000000E+00 0.00000000E+00 1.93265740E-01 0.00000000E+00 0.00000000E+00
 6  7 0.00000000E+00 3.08636236E-01 0.00000000E+00 0.00000000E+00 0.00000000E+00
 6  8 2.47739546E-01 0.00000000E+00 0.00000000E+00 0.00000000E+00 0.00000000E+00
 6  9 0.00000000E+00 0.00000000E+00-3.77388906E-02 0.00000000E+00
 7  1 0.00000000E+00 0.00000000E+00 0.00000000E+00 0.00000000E+00 1.53851570E-02
 7  2 0.00000000E+00 0.00000000E+00 0.00000000E+00 0.00000000E+00 1.74011513E-01
 7  3 0.00000000E+00 0.00000000E+00 0.00000000E+00 2.83917449E-01 0.00000000E+00
 7  4 0.00000000E+00 0.00000000E+00 2.28699718E-01 0.00000000E+00 0.00000000E+00
 7  5 0.00000000E+00 0.00000000E+00 0.00000000E+00 0.00000000E+00 4.17191971E-02
 7  6 0.00000000E+00 0.00000000E+00 0.00000000E+00 1.93265740E-01 0.00000000E+00
 7  7 0.00000000E+00 0.00000000E+00 3.08636236E-01 0.00000000E+00 0.00000000E+00
 7  8 0.00000000E+00 2.47739546E-01 0.00000000E+00 0.00000000E+00 0.00000000E+00
 7  9 0.00000000E+00 0.00000000E+00 0.00000000E+00-3.77388906E-02
 8  1 2.72476480E-02-3.20081142E-02 2.25654083E+00 0.00000000E+00 0.00000000E+00
 8  2-1.83514621E-02 3.77861853E-02 6.20110184E-02 0.00000000E+00 0.00000000E+00
 8  3 9.24730198E-02-7.56981151E-02 0.00000000E+00 0.00000000E+00 6.26601806E-02
 8  4-1.43607226E+00 0.00000000E+00 0.00000000E+00 9.19113900E-01 1.93518626E-03
 8  5 1.93518626E-03-3.87037252E-03 0.00000000E+00 0.00000000E+00 0.00000000E+00
 8  6-6.08542724E-03-1.30458760E-02 0.00000000E+00 0.00000000E+00-3.62293953E-02
 8  7 7.79539168E-02 0.00000000E+00 0.00000000E+00-7.03065592E-02-3.47695769E-01
 8  8 0.00000000E+00 0.00000000E+00-2.56427794E-02-4.40318803E-03-4.40318803E-03
 8  9 8.80637605E-03 0.00000000E+00 0.00000000E+00 0.00000000E+00
 9  1 0.00000000E+00 0.00000000E+00 0.00000000E+00 3.90756640E-02 0.00000000E+00
 9  2 0.00000000E+00 0.00000000E+00 0.00000000E+00 1.57596270E-01 0.00000000E+00
 9  3 0.00000000E+00 0.00000000E+00 2.09203608E-01 0.00000000E+00 0.00000000E+00
 9  4 0.00000000E+00 8.37114106E-01 0.00000000E+00 0.00000000E+00 0.00000000E+00
 9  5 0.00000000E+00 0.00000000E+00 0.00000000E+00-4.82789691E-02 0.00000000E+00
 9  6 0.00000000E+00 0.00000000E+00-1.89726808E-01 0.00000000E+00 0.00000000E+00
 9  7 0.00000000E+00-2.42532087E-01 0.00000000E+00 0.00000000E+00 0.00000000E+00
 9  8-7.12812684E-01 0.00000000E+00 0.00000000E+00 0.00000000E+00 0.00000000E+00
 9  9 0.00000000E+00 0.00000000E+00-9.39518672E-03 0.00000000E+00
10  1 0.00000000E+00 0.00000000E+00 0.00000000E+00 0.00000000E+00 3.90756640E-02
10  2 0.00000000E+00 0.00000000E+00 0.00000000E+00 0.00000000E+00 1.57596270E-01
10  3 0.00000000E+00 0.00000000E+00 0.00000000E+00 2.09203608E-01 0.00000000E+00
10  4 0.00000000E+00 0.00000000E+00 8.37114106E-01 0.00000000E+00 0.00000000E+00
10  5 0.00000000E+00 0.00000000E+00 0.00000000E+00 0.00000000E+00-4.82789691E-02
10  6 0.00000000E+00 0.00000000E+00 0.00000000E+00-1.89726808E-01 0.00000000E+00
10  7 0.00000000E+00 0.00000000E+00-2.42532087E-01 0.00000000E+00 0.00000000E+00
10  8 0.00000000E+00-7.12812684E-01 0.00000000E+00 0.00000000E+00 0.00000000E+00
10  9 0.00000000E+00 0.00000000E+00 0.00000000E+00-9.39518672E-03
11  1 1.23108446E-01 4.64608048E-01-7.86267389E-01 0.00000000E+00 0.00000000E+00
11  2 1.04647132E-02 1.16603889E-02 2.29210830E-02 0.00000000E+00 0.00000000E+00
11  3 3.48629154E-02 2.01715701E-02 0.00000000E+00 0.00000000E+00-4.25702925E-03
11  4-2.67140975E+00 0.00000000E+00 0.00000000E+00-2.03256110E+00 1.14590265E-02
11  5 1.14590265E-02-2.29180531E-02 0.00000000E+00 0.00000000E+00 0.00000000E+00
11  6-4.36463468E-02-7.19628798E-02 0.00000000E+00 0.00000000E+00-5.30961680E-02
11  7 9.95357880E-02 0.00000000E+00 0.00000000E+00-1.12317386E-01 2.93461416E+00
11  8 0.00000000E+00 0.00000000E+00-1.09654168E+00-2.69165466E-02-2.69165466E-02
11  9 5.38330933E-02 0.00000000E+00 0.00000000E+00 0.00000000E+00
12  1 0.00000000E+00 0.00000000E+00 0.00000000E+00-2.45205604E-02 0.00000000E+00
12  2 0.00000000E+00 0.00000000E+00 0.00000000E+00-2.12088472E-01 0.00000000E+00
12  3 0.00000000E+00 0.00000000E+00-9.20731367E-01 0.00000000E+00 0.00000000E+00
12  4 0.00000000E+00 1.10410996E+00 0.00000000E+00 0.00000000E+00 0.00000000E+00
12  5 0.00000000E+00 0.00000000E+00 0.00000000E+00-2.89115074E-02 0.00000000E+00
12  6 0.00000000E+00 0.00000000E+00-9.54945012E-03 0.00000000E+00 0.00000000E+00
12  7 0.00000000E+00-9.19741338E-02 0.00000000E+00 0.00000000E+00 0.00000000E+00
12  8 1.03444376E-01 0.00000000E+00 0.00000000E+00 0.00000000E+00 0.00000000E+00
12  9 0.00000000E+00 0.00000000E+00 3.90597352E-02 0.00000000E+00
13  1 0.00000000E+00 0.00000000E+00 0.00000000E+00 0.00000000E+00-2.45205604E-02
13  2 0.00000000E+00 0.00000000E+00 0.00000000E+00 0.00000000E+00-2.12088472E-01
13  3 0.00000000E+00 0.00000000E+00 0.00000000E+00-9.20731367E-01 0.00000000E+00
13  4 0.00000000E+00 0.00000000E+00 1.10410996E+00 0.00000000E+00 0.00000000E+00
13  5 0.00000000E+00 0.00000000E+00 0.00000000E+00 0.00000000E+00-2.89115074E-02
13  6 0.00000000E+00 0.00000000E+00 0.00000000E+00-9.54945012E-03 0.00000000E+00
13  7 0.00000000E+00 0.00000000E+00-9.19741338E-02 0.00000000E+00 0.00000000E+00
13  8 0.00000000E+00 1.03444376E-01 0.00000000E+00 0.00000000E+00 0.00000000E+00
13  9 0.00000000E+00 0.00000000E+00 0.00000000E+00 3.90597352E-02
14  1 5.55078203E-02 2.17385125E+00 7.92994255E-01 0.00000000E+00 0.00000000E+00
14  2 9.64632151E-02 1.82483378E-02 3.58818522E-02 0.00000000E+00 0.00000000E+00
14  3 5.99473642E-03 3.26103893E-02 0.00000000E+00 0.00000000E+00 1.79363093E-01
14  4 1.07080985E+00 0.00000000E+00 0.00000000E+00 4.07911010E+00 2.42412501E-02
14  5 2.42412501E-02-4.84825002E-02 0.00000000E+00 0.00000000E+00 0.00000000E+00
14  6 2.85051491E-02 4.43721433E-02 0.00000000E+00 0.00000000E+00-9.86318782E-02
14  7 2.64695645E-03 0.00000000E+00 0.00000000E+00-3.09951008E-01-3.70248344E+00
14  8 0.00000000E+00 0.00000000E+00 1.38971554E+00 1.22607471E-02 1.22607471E-02
14  9-2.45214942E-02 0.00000000E+00 0.00000000E+00 0.00000000E+00
15  1-7.64709543E-03-2.69657619E-01-8.11386239E-01 0.00000000E+00 0.00000000E+00
15  2 4.01087825E-02-2.31215454E-02-4.92221100E-02 0.00000000E+00 0.00000000E+00
15  3 1.17081207E-01 4.70411358E-01 0.00000000E+00 0.00000000E+00 7.00100885E-01
15  4 1.75313685E+00 0.00000000E+00 0.00000000E+00-1.02077991E+00 2.06274872E-02
15  5 2.06274872E-02-4.12549744E-02 0.00000000E+00 0.00000000E+00 0.00000000E+00
15  6 2.73150722E-02 4.76816286E-02 0.00000000E+00 0.00000000E+00-6.13309174E-02
15  7-8.11000679E-02 0.00000000E+00 0.00000000E+00-3.66114575E-01-6.85928678E-01
15  8 0.00000000E+00 0.00000000E+00 1.81419694E+00-1.20016674E-02-1.20016674E-02
15  9 2.40033347E-02 0.00000000E+00 0.00000000E+00 0.00000000E+00
16  1 5.47688459E-02-4.40075033E-02-1.82925399E+00 0.00000000E+00 0.00000000E+00
16  2-2.61171449E-01 1.05269739E-01 2.06299822E-01 0.00000000E+00 0.00000000E+00
16  3 9.49667129E-02-1.47217820E+00 0.00000000E+00 0.00000000E+00 5.32801068E-01
16  4 2.98436210E+00 0.00000000E+00 0.00000000E+00-1.19846646E+00-1.70091264E-01
16  5-1.70091264E-01 3.40182527E-01 0.00000000E+00 0.00000000E+00 0.00000000E+00
16  6-1.25217757E-02-1.34136140E-02 0.00000000E+00 0.00000000E+00-4.52115808E-02
16  7-2.96573408E-02 0.00000000E+00 0.00000000E+00 2.55561769E-01-2.96171860E-01
16  8 0.00000000E+00 0.00000000E+00 6.53439554E-03 6.13387241E-02 6.13387241E-02
16  9-1.22677448E-01 0.00000000E+00 0.00000000E+00 0.00000000E+00
17  1 0.00000000E+00 0.00000000E+00 0.00000000E+00-3.91018848E-02 0.00000000E+00
17  2 0.00000000E+00 0.00000000E+00 0.00000000E+00 9.98050728E-02 0.00000000E+00
17  3 0.00000000E+00 0.00000000E+00 2.39925267E-01 0.00000000E+00 0.00000000E+00
17  4 0.00000000E+00-7.54275914E-01 0.00000000E+00 0.00000000E+00 0.00000000E+00
17  5 0.00000000E+00 0.00000000E+00 0.00000000E+00-1.19014704E-01 0.00000000E+00
17  6 0.00000000E+00 0.00000000E+00-2.32899568E-01 0.00000000E+00 0.00000000E+00
17  7 0.00000000E+00-8.86319406E-01 0.00000000E+00 0.00000000E+00 0.00000000E+00
17  8 1.45506254E+00 0.00000000E+00 0.00000000E+00 0.00000000E+00 0.00000000E+00
17  9 0.00000000E+00 0.00000000E+00 8.27167890E-03 0.00000000E+00
18  1 0.00000000E+00 0.00000000E+00 0.00000000E+00 0.00000000E+00-3.91018848E-02
18  2 0.00000000E+00 0.00000000E+00 0.00000000E+00 0.00000000E+00 9.98050728E-02
18  3 0.00000000E+00 0.00000000E+00 0.00000000E+00 2.39925267E-01 0.00000000E+00
18  4 0.00000000E+00 0.00000000E+00-7.54275914E-01 0.00000000E+00 0.00000000E+00
18  5 0.00000000E+00 0.00000000E+00 0.00000000E+00 0.00000000E+00-1.19014704E-01
18  6 0.00000000E+00 0.00000000E+00 0.00000000E+00-2.32899568E-01 0.00000000E+00
18  7 0.00000000E+00 0.00000000E+00-8.86319406E-01 0.00000000E+00 0.00000000E+00
18  8 0.00000000E+00 1.45506254E+00 0.00000000E+00 0.00000000E+00 0.00000000E+00
18  9 0.00000000E+00 0.00000000E+00 0.00000000E+00 8.27167890E-03
19  1-8.30677076E-02 1.41589812E+00-7.50893866E-02 0.00000000E+00 0.00000000E+00
19  2-5.96745782E-03-4.66202458E-02-8.64233893E-02 0.00000000E+00 0.00000000E+00
19  3 2.54534314E-01 4.07142858E-01 0.00000000E+00 0.00000000E+00 7.13520699E-01
19  4-5.27686426E-01 0.00000000E+00 0.00000000E+00 7.95218880E-01 2.18645802E-01
19  5 2.18645802E-01-4.37291604E-01 0.00000000E+00 0.00000000E+00 0.00000000E+00
19  6 4.22368514E-02 7.45487180E-02 0.00000000E+00 0.00000000E+00 2.67941072E-01
19  7-2.77415841E-01 0.00000000E+00 0.00000000E+00 5.70287191E-01-5.21492009E-01
19  8 0.00000000E+00 0.00000000E+00-2.44644296E-01-7.36685354E-02-7.36685354E-02
19  9 1.47337071E-01 0.00000000E+00 0.00000000E+00 0.00000000E+00
20  1-1.48688030E-01-4.65466577E-01-9.85913868E-01 0.00000000E+00 0.00000000E+00
20  2 4.71740425E-02 2.88729358E-02 9.22089863E-02 0.00000000E+00 0.00000000E+00
20  3-2.49577734E-02-9.21463600E-01 0.00000000E+00 0.00000000E+00-6.43681551E-01
20  4-3.62968074E+00 0.00000000E+00 0.00000000E+00-3.87334191E+00 2.56695125E-01
20  5 2.56695125E-01-5.13390250E-01 0.00000000E+00 0.00000000E+00 0.00000000E+00
20  6 8.95475147E-02 1.92346712E-01 0.00000000E+00 0.00000000E+00-3.16699729E-02
20  7-1.71953733E+00 0.00000000E+00 0.00000000E+00-5.73878053E-01 7.36509113E+00
20  8 0.00000000E+00 0.00000000E+00-2.12592781E+00-2.77995773E-02-2.77995773E-02
20  9 5.55991545E-02 0.00000000E+00 0.00000000E+00 0.00000000E+00
21  1 0.00000000E+00 0.00000000E+00 0.00000000E+00 6.53076627E-01 0.00000000E+00
21  2 0.00000000E+00 0.00000000E+00 0.00000000E+00-3.44924718E-02 0.00000000E+00
21  3 0.00000000E+00 0.00000000E+00-2.65019996E-02 0.00000000E+00 0.00000000E+00
21  4 0.00000000E+00-4.06183067E-01 0.00000000E+00 0.00000000E+00 0.00000000E+00
21  5 0.00000000E+00 0.00000000E+00 0.00000000E+00-5.63744410E-01 0.00000000E+00
21  6 0.00000000E+00 0.00000000E+00 5.62670254E-02 0.00000000E+00 0.00000000E+00
21  7 0.00000000E+00 1.78224917E-01 0.00000000E+00 0.00000000E+00 0.00000000E+00
21  8 2.93473264E-01 0.00000000E+00 0.00000000E+00 0.00000000E+00 0.00000000E+00
21  9 0.00000000E+00 0.00000000E+00 1.20037214E-01 0.00000000E+00
22  1 0.00000000E+00 0.00000000E+00 0.00000000E+00 0.00000000E+00 6.53076627E-01
22  2 0.00000000E+00 0.00000000E+00 0.00000000E+00 0.00000000E+00-3.44924718E-02
22  3 0.00000000E+00 0.00000000E+00 0.00000000E+00-2.65019996E-02 0.00000000E+00
22  4 0.00000000E+00 0.00000000E+00-4.06183067E-01 0.00000000E+00 0.00000000E+00
22  5 0.00000000E+00 0.00000000E+00 0.00000000E+00 0.00000000E+00-5.63744410E-01
22  6 0.00000000E+00 0.00000000E+00 0.00000000E+00 5.62670254E-02 0.00000000E+00
22  7 0.00000000E+00 0.00000000E+00 1.78224917E-01 0.00000000E+00 0.00000000E+00
22  8 0.00000000E+00 2.93473264E-01 0.00000000E+00 0.00000000E+00 0.00000000E+00
22  9 0.00000000E+00 0.00000000E+00 0.00000000E+00 1.20037214E-01
23  1 0.00000000E+00 0.00000000E+00 0.00000000E+00 0.00000000E+00 0.00000000E+00
23  2 0.00000000E+00 0.00000000E+00 0.00000000E+00 0.00000000E+00 0.00000000E+00
23  3 0.00000000E+00 0.00000000E+00 0.00000000E+00 0.00000000E+00 0.00000000E+00
23  4 0.00000000E+00 0.00000000E+00 0.00000000E+00 0.00000000E+00 0.00000000E+00
23  5 0.00000000E+00 0.00000000E+00 9.45493157E-01 0.00000000E+00 0.00000000E+00
23  6 0.00000000E+00 0.00000000E+00 0.00000000E+00 0.00000000E+00 0.00000000E+00
23  7 0.00000000E+00 0.00000000E+00 0.00000000E+00 0.00000000E+00 0.00000000E+00
23  8 0.00000000E+00 0.00000000E+00 0.00000000E+00 0.00000000E+00 0.00000000E+00
23  9 0.00000000E+00 2.08209087E-01 0.00000000E+00 0.00000000E+00
24  1 0.00000000E+00 0.00000000E+00 0.00000000E+00 0.00000000E+00 0.00000000E+00
24  2 0.00000000E+00 0.00000000E+00 0.00000000E+00 0.00000000E+00 0.00000000E+00
24  3 0.00000000E+00 0.00000000E+00 0.00000000E+00 0.00000000E+00 0.00000000E+00
24  4 0.00000000E+00 0.00000000E+00 0.00000000E+00 0.00000000E+00 8.18821093E-01
24  5-8.18821093E-01 0.00000000E+00 0.00000000E+00 0.00000000E+00 0.00000000E+00
24  6 0.00000000E+00 0.00000000E+00 0.00000000E+00 0.00000000E+00 0.00000000E+00
24  7 0.00000000E+00 0.00000000E+00 0.00000000E+00 0.00000000E+00 0.00000000E+00
24  8 0.00000000E+00 0.00000000E+00 0.00000000E+00 1.80314358E-01-1.80314358E-01
24  9 0.00000000E+00 0.00000000E+00 0.00000000E+00 0.00000000E+00
25  1 0.00000000E+00 0.00000000E+00 0.00000000E+00 8.99448655E-01 0.00000000E+00
25  2 0.00000000E+00 0.00000000E+00 0.00000000E+00-1.09509865E-01 0.00000000E+00
25  3 0.00000000E+00 0.00000000E+00-1.77682615E-01 0.00000000E+00 0.00000000E+00
25  4 0.00000000E+00-2.04350930E-01 0.00000000E+00 0.00000000E+00 0.00000000E+00
25  5 0.00000000E+00 0.00000000E+00 0.00000000E+00 7.16140125E-01 0.00000000E+00
25  6 0.00000000E+00 0.00000000E+00-9.26125348E-02 0.00000000E+00 0.00000000E+00
25  7 0.00000000E+00-2.56978654E-01 0.00000000E+00 0.00000000E+00 0.00000000E+00
25  8 1.99586402E-01 0.00000000E+00 0.00000000E+00 0.00000000E+00 0.00000000E+00
25  9 0.00000000E+00 0.00000000E+00-3.80326209E-01 0.00000000E+00
26  1 0.00000000E+00 0.00000000E+00 0.00000000E+00 0.00000000E+00 8.99448655E-01
26  2 0.00000000E+00 0.00000000E+00 0.00000000E+00 0.00000000E+00-1.09509865E-01
26  3 0.00000000E+00 0.00000000E+00 0.00000000E+00-1.77682615E-01 0.00000000E+00
26  4 0.00000000E+00 0.00000000E+00-2.04350930E-01 0.00000000E+00 0.00000000E+00
26  5 0.00000000E+00 0.00000000E+00 0.00000000E+00 0.00000000E+00 7.16140125E-01
26  6 0.00000000E+00 0.00000000E+00 0.00000000E+00-9.26125348E-02 0.00000000E+00
26  7 0.00000000E+00 0.00000000E+00-2.56978654E-01 0.00000000E+00 0.00000000E+00
26  8 0.00000000E+00 1.99586402E-01 0.00000000E+00 0.00000000E+00 0.00000000E+00
26  9 0.00000000E+00 0.00000000E+00 0.00000000E+00-3.80326209E-01
27  1 8.01012190E-01-2.10133164E+00 2.24098968E-02 0.00000000E+00 0.00000000E+00
27  2 9.49754923E-02-1.34539692E-02-3.00150870E-02 0.00000000E+00 0.00000000E+00
27  3 3.76713229E-01-5.48633990E-03 0.00000000E+00 0.00000000E+00-7.55038269E-02
27  4-1.27673133E+00 0.00000000E+00 0.00000000E+00-2.17844268E+00-4.12805104E-01
27  5-4.12805104E-01 8.25610207E-01 0.00000000E+00 0.00000000E+00 0.00000000E+00
27  6 7.22394744E-02 1.67748977E-01 0.00000000E+00 0.00000000E+00 8.91754371E-02
27  7-1.55565366E+00 0.00000000E+00 0.00000000E+00 6.23986010E-01 3.45297490E+00
27  8 0.00000000E+00 0.00000000E+00-1.30268491E+00-6.44548917E-02-6.44548917E-02
27  9 1.28909783E-01 0.00000000E+00 0.00000000E+00 0.00000000E+00
28  1 0.00000000E+00 0.00000000E+00 0.00000000E+00 0.00000000E+00 0.00000000E+00
28  2 0.00000000E+00 0.00000000E+00 0.00000000E+00 0.00000000E+00 0.00000000E+00
28  3 0.00000000E+00 0.00000000E+00 0.00000000E+00 0.00000000E+00 0.00000000E+00
28  4 0.00000000E+00 0.00000000E+00 0.00000000E+00 0.00000000E+00-3.14709453E-01
28  5 3.14709453E-01 0.00000000E+00 0.00000000E+00 0.00000000E+00 0.00000000E+00
28  6 0.00000000E+00 0.00000000E+00 0.00000000E+00 0.00000000E+00 0.00000000E+00
28  7 0.00000000E+00 0.00000000E+00 0.00000000E+00 0.00000000E+00 0.00000000E+00
28  8 0.00000000E+00 0.00000000E+00 0.00000000E+00 8.58485151E-01-8.58485151E-01
28  9 0.00000000E+00 0.00000000E+00 0.00000000E+00 0.00000000E+00
29  1 0.00000000E+00 0.00000000E+00 0.00000000E+00 0.00000000E+00 0.00000000E+00
29  2 0.00000000E+00 0.00000000E+00 0.00000000E+00 0.00000000E+00 0.00000000E+00
29  3 0.00000000E+00 0.00000000E+00 0.00000000E+00 0.00000000E+00 0.00000000E+00
29  4 0.00000000E+00 0.00000000E+00 0.00000000E+00 0.00000000E+00 0.00000000E+00
29  5 0.00000000E+00 0.00000000E+00-3.63395175E-01 0.00000000E+00 0.00000000E+00
29  6 0.00000000E+00 0.00000000E+00 0.00000000E+00 0.00000000E+00 0.00000000E+00
29  7 0.00000000E+00 0.00000000E+00 0.00000000E+00 0.00000000E+00 0.00000000E+00
29  8 0.00000000E+00 0.00000000E+00 0.00000000E+00 0.00000000E+00 0.00000000E+00
29  9 0.00000000E+00 9.91293266E-01 0.00000000E+00 0.00000000E+00
30  1-8.46595313E-01 3.47561897E+00 2.22713784E-01 0.00000000E+00 0.00000000E+00
30  2 1.73811683E+00 5.58106824E-02 1.88475048E-01 0.00000000E+00 0.00000000E+00
30  3 2.23687056E-01-1.53664758E+00 0.00000000E+00 0.00000000E+00 8.04489040E-01
30  4-2.27162179E-01 0.00000000E+00 0.00000000E+00 2.13182701E+00 3.99797953E-01
30  5 3.99797953E-01-7.99595907E-01 0.00000000E+00 0.00000000E+00 0.00000000E+00
30  6-1.68942963E-02-4.82247925E-02 0.00000000E+00 0.00000000E+00 7.10476765E-02
30  7 5.36002025E-01 0.00000000E+00 0.00000000E+00-3.10450487E-01-1.70999857E+00
30  8 0.00000000E+00 0.00000000E+00 2.46531958E-01-1.99084458E-01-1.99084458E-01
30  9 3.98168917E-01 0.00000000E+00 0.00000000E+00 0.00000000E+00
31  1 0.00000000E+00 0.00000000E+00 0.00000000E+00 3.63024464E-01 0.00000000E+00
31  2 0.00000000E+00 0.00000000E+00 0.00000000E+00 1.09074366E+00 0.00000000E+00
31  3 0.00000000E+00 0.00000000E+00-1.03646012E+00 0.00000000E+00 0.00000000E+00
31  4 0.00000000E+00 5.05084806E-01 0.00000000E+00 0.00000000E+00 0.00000000E+00
31  5 0.00000000E+00 0.00000000E+00 0.00000000E+00 6.08097085E-01 0.00000000E+00
31  6 0.00000000E+00 0.00000000E+00-6.35306283E-02 0.00000000E+00 0.00000000E+00
31  7 0.00000000E+00 7.76565356E-03 0.00000000E+00 0.00000000E+00 0.00000000E+00
31  8-2.49481986E-01 0.00000000E+00 0.00000000E+00 0.00000000E+00 0.00000000E+00
31  9 0.00000000E+00 0.00000000E+00 5.54818598E-01 0.00000000E+00
32  1 0.00000000E+00 0.00000000E+00 0.00000000E+00 0.00000000E+00 3.63024464E-01
32  2 0.00000000E+00 0.00000000E+00 0.00000000E+00 0.00000000E+00 1.09074366E+00
32  3 0.00000000E+00 0.00000000E+00 0.00000000E+00-1.03646012E+00 0.00000000E+00
32  4 0.00000000E+00 0.00000000E+00 5.05084806E-01 0.00000000E+00 0.00000000E+00
32  5 0.00000000E+00 0.00000000E+00 0.00000000E+00 0.00000000E+00 6.08097085E-01
32  6 0.00000000E+00 0.00000000E+00 0.00000000E+00-6.35306283E-02 0.00000000E+00
32  7 0.00000000E+00 0.00000000E+00 7.76565356E-03 0.00000000E+00 0.00000000E+00
32  8 0.00000000E+00-2.49481986E-01 0.00000000E+00 0.00000000E+00 0.00000000E+00
32  9 0.00000000E+00 0.00000000E+00 0.00000000E+00 5.54818598E-01
33  1-5.74869727E-01-1.03280813E+00-3.62576287E-01 0.00000000E+00 0.00000000E+00
33  2-1.04174518E+00-2.23681338E-02-2.00675269E-02 0.00000000E+00 0.00000000E+00
33  3-2.23018293E-01-2.26753006E-01 0.00000000E+00 0.00000000E+00-1.34073464E+00
33  4-9.48553487E-01 0.00000000E+00 0.00000000E+00-1.30341820E+00-3.92123829E-01
33  5-3.92123829E-01 7.84247657E-01 0.00000000E+00 0.00000000E+00 0.00000000E+00
33  6 1.67245715E-02 5.03500882E-02 0.00000000E+00 0.00000000E+00-3.49998949E-01
33  7-7.83565107E-01 0.00000000E+00 0.00000000E+00 3.66829093E-01 2.88920515E+00
33  8 0.00000000E+00 0.00000000E+00-1.50176728E+00-4.56068968E-01-4.56068968E-01
33  9 9.12137936E-01 0.00000000E+00 0.00000000E+00 0.00000000E+00
34  1 0.00000000E+00 0.00000000E+00 0.00000000E+00 2.55133924E-01 0.00000000E+00
34  2 0.00000000E+00 0.00000000E+00 0.00000000E+00-7.46139419E-01 0.00000000E+00
34  3 0.00000000E+00 0.00000000E+00 1.12081713E+00 0.00000000E+00 0.00000000E+00
34  4 0.00000000E+00-2.28256191E-01 0.00000000E+00 0.00000000E+00 0.00000000E+00
34  5 0.00000000E+00 0.00000000E+00 0.00000000E+00 8.34244690E-01 0.00000000E+00
34  6 0.00000000E+00 0.00000000E+00-2.50567845E-01 0.00000000E+00 0.00000000E+00
34  7 0.00000000E+00-4.56041834E-02 0.00000000E+00 0.00000000E+00 0.00000000E+00
34  8-3.11473858E-01 0.00000000E+00 0.00000000E+00 0.00000000E+00 0.00000000E+00
34  9 0.00000000E+00 0.00000000E+00 1.00092041E+00 0.00000000E+00
35  1 0.00000000E+00 0.00000000E+00 0.00000000E+00 0.00000000E+00 2.55133924E-01
35  2 0.00000000E+00 0.00000000E+00 0.00000000E+00 0.00000000E+00-7.46139419E-01
35  3 0.00000000E+00 0.00000000E+00 0.00000000E+00 1.12081713E+00 0.00000000E+00
35  4 0.00000000E+00 0.00000000E+00-2.28256191E-01 0.00000000E+00 0.00000000E+00
35  5 0.00000000E+00 0.00000000E+00 0.00000000E+00 0.00000000E+00 8.34244690E-01
35  6 0.00000000E+00 0.00000000E+00 0.00000000E+00-2.50567845E-01 0.00000000E+00
35  7 0.00000000E+00 0.00000000E+00-4.56041834E-02 0.00000000E+00 0.00000000E+00
35  8 0.00000000E+00-3.11473858E-01 0.00000000E+00 0.00000000E+00 0.00000000E+00
35  9 0.00000000E+00 0.00000000E+00 0.00000000E+00 1.00092041E+00
36  1-6.51837937E-01 9.47272296E-01-6.49839642E-01 0.00000000E+00 0.00000000E+00
36  2 1.04275311E-01-7.70940905E-02-1.77553912E-01 0.00000000E+00 0.00000000E+00
36  3-8.67195807E-01 1.19199977E+00 0.00000000E+00 0.00000000E+00 3.10977502E+00
36  4 2.47512288E+00 0.00000000E+00 0.00000000E+00 4.49180709E-01-7.73200983E-01
36  5-7.73200983E-01 1.54640197E+00 0.00000000E+00 0.00000000E+00 0.00000000E+00
36  6 5.36218799E-02 1.44096714E-01 0.00000000E+00 0.00000000E+00 2.45414060E-01
36  7-1.34008637E+00 0.00000000E+00 0.00000000E+00 1.51049190E+00-2.66316082E+00
36  8 0.00000000E+00 0.00000000E+00 1.10044541E+00 4.28871142E-01 4.28871142E-01
36  9-8.57742285E-01 0.00000000E+00 0.00000000E+00 0.00000000E+00
37  1 8.66566556E-01 1.36277377E+00-1.72064152E-02 0.00000000E+00 0.00000000E+00
37  2 1.30863131E+00 6.96881094E-02 1.48133056E-01 0.00000000E+00 0.00000000E+00
37  3-1.05315771E+00-1.07269137E+00 0.00000000E+00 0.00000000E+00 2.20646848E+00
37  4-1.43420685E-01 0.00000000E+00 0.00000000E+00 2.11981463E-01 6.34797161E-01
37  5 6.34797161E-01-1.26959432E+00 0.00000000E+00 0.00000000E+00 0.00000000E+00
37  6-1.72683652E-02-3.43345320E-02 0.00000000E+00 0.00000000E+00-2.71304677E-01
37  7 3.53201636E-01 0.00000000E+00 0.00000000E+00 2.21762141E-02-6.20247021E-01
37  8 0.00000000E+00 0.00000000E+00 2.70268220E-01-2.19616697E-01-2.19616697E-01
37  9 4.39233394E-01 0.00000000E+00 0.00000000E+00 0.00000000E+00
38  1 0.00000000E+00 0.00000000E+00 0.00000000E+00-1.82226193E-01 0.00000000E+00
38  2 0.00000000E+00 0.00000000E+00 0.00000000E+00 1.17111465E-01 0.00000000E+00
38  3 0.00000000E+00 0.00000000E+00-3.36791988E-01 0.00000000E+00 0.00000000E+00
38  4 0.00000000E+00 2.59458148E-01 0.00000000E+00 0.00000000E+00 0.00000000E+00
38  5 0.00000000E+00 0.00000000E+00 0.00000000E+00-4.27211780E-01 0.00000000E+00
38  6 0.00000000E+00 0.00000000E+00-1.28456391E+00 0.00000000E+00 0.00000000E+00
38  7 0.00000000E+00 1.57859588E+00 0.00000000E+00 0.00000000E+00 0.00000000E+00
38  8-5.99343238E-01 0.00000000E+00 0.00000000E+00 0.00000000E+00 0.00000000E+00
38  9 0.00000000E+00 0.00000000E+00-2.88846361E-01 0.00000000E+00
39  1 0.00000000E+00 0.00000000E+00 0.00000000E+00 0.00000000E+00-1.82226193E-01
39  2 0.00000000E+00 0.00000000E+00 0.00000000E+00 0.00000000E+00 1.17111465E-01
39  3 0.00000000E+00 0.00000000E+00 0.00000000E+00-3.36791988E-01 0.00000000E+00
39  4 0.00000000E+00 0.00000000E+00 2.59458148E-01 0.00000000E+00 0.00000000E+00
39  5 0.00000000E+00 0.00000000E+00 0.00000000E+00 0.00000000E+00-4.27211780E-01