!  test of optimization in an applied electric field:
!   FINAL E=   -75.2052537964, 10 iters, RMS GRADIENT =  .0488660
!   FINAL E=   -75.2275315354,  7 iters, RMS GRADIENT =  .0164264
!   FINAL E=   -75.2298803669,  7 iters, RMS GRADIENT =  .0054020
!   FINAL E=   -75.2301504520,  6 iters, RMS GRADIENT =  .0004631
!   FINAL E=   -75.2301516291,  5 iters, RMS GRADIENT =  .0000146
!   FINAL E=   -75.2301516302,  3 iters, RMS GRADIENT =  .0000002
!
!  This run takes 1 seconds on any computer ( 2 Jul 2008)
!
 $CONTRL SCFTYP=RHF RUNTYP=optimize UNITS=BOHR NZVAR=0 $END
 $SYSTEM TIMLIM=4 mwords=1 $END
!   Note that SYM is true only because the field is applied
!   along the symmetry axis of the molecule, C2(Z).
 $efield evec(1)=0,0,-0.25 sym=.true. $end
 $BASIS  GBASIS=STO NGAUSS=3 $END
 $ZMAT   IZMAT(1)=1,1,2,   1,1,3,   2,2,1,3  $END
 $GUESS  GUESS=HUCKEL   $END
 $statpt opttol=1d-5 $end
 $DATA
Water at the RHF/STO-3G equilibrium geometry
CNV      2

OXYGEN       8.   0.0   0.0            0.0702816679
HYDROGEN     1.   0.0   1.4325665478  -1.1312080153
 $END

! TRAVIS-CI SMALL

