!   water hexamer, with an attached electron, <S**2>= 0.751
!   in this case, the electron is inside a cavity, not surface bound.
!   This example came from Albert DeFusco in August 2008.
!
!   The point of this test case is assessing integral accuracy.
!
!   In addition to augmentation at every atom in aug-cc-pVDZ, there
!   is a 5s,4p set of uncontracted GTOs with very small exponents,
!   at a floating center.
!   There are 275 AOs, 263 MOs, with no dropped orbitals or warning
!   messages issued related to linear dependence in the basis set.
!
!   inttyp           best              best              rysquad
!   grdtyp           best              best              rysquad
!   dirscf          .false.           .true.             .true.
!   FINAL E     -456.2459416027   -456.2459416028   -456.2459416026
!   no.iters          29                22                 26
!   MAX grad       0.014731377       0.014731377       0.014731370
!   RMS grad       0.007188667       0.007188668       0.007188468
!   CPU time         548               1540               2547
!   timings above from 2.66 GHz Cloverton (14 Aug 2008)
!
!   There is a statement in INTRO.DOC from November 2004 when the
!   smorgasboard of 4 different integral codes called "best" was
!   adjusted for accuracy:
!      "Both rotated axis codes, the sp gradient code, and ERIC
!       share a common, fully accurate evaluation of Fm(t) integrals,
!       and have been tested for very small (down to 0.005) and
!       very large (1.0d+11) Gaussian exponents. 
!   The results here, for exponents down to 0.00025 imply that
!   this statement might be a bit conservative.  Since this basis
!   does not go beyond d's, almost all integrals in the 'best' run
!   are handled by the two rotated axis codes, with no ERIC, and
!   Rys quadrature taking only the quartets where all four shells
!   are single GTO primitives.
!   The smorgasboard of 2 different gradient codes called "best"
!   does not seem to be as accurate as the energy, but it is good
!   to OPTTOL=1D-5.
!
!   We can see that anyone who uses inttyp=rysquad thinking they
!   are doing something more accurate is wrong, but is wasting
!   machine time.
!
!   Note that a few parameters have been set to help accuracy,
!   namely ICUT, CONV, and FDIFF.  Rather than feed in converged
!   UHF orbitals, we make it iterate from the neutral RHF orbitals.
!
!   default accuracy requires 1508 seconds on 2.66 GHz Cloverton (1 Aug 2016)
!
 $contrl scftyp=uhf mult=2 runtyp=gradient icharg=-1 ispher=1
         maxit=40 icut=11 inttyp=best grdtyp=best $end
 $SYSTEM MWORDS=10 $END
 $guess  guess=moread norb=263 $end
 $scf    dirscf=.true. fdiff=.false. diis=.true. conv=1.0d-7 $end
 $DATA
cavity hexamer
C1
O 8.0 -3.73066 1.79863 0.444697
 accd

H 1.0 -2.78366 1.78893 0.305677
 accd

H 1.0 -4.10285 1.69387 -0.430937
 accd

O 8.0 -0.261472 2.12568 3.00413
 accd

H 1.0 -1.14331 2.16092 3.37474
 accd

H 1.0 -0.400678 2.01544 2.06355
 accd

O 8.0  2.31849 1.74853 -0.444695
 accd

H 1.0  1.37155 1.75196 -0.304962
 accd

H 1.0  2.69066 1.85328 0.430943
 accd

O 8.0 -1.15069 1.42147 -3.00413
 accd

H 1.0 -1.01148 1.53171 -2.06355
 accd

H 1.0 -0.269051 1.35717 -3.3713
 accd

O 8.0 -0.67948 -1.26318 0.351994
 accd

H 1.0 -0.687809 -0.312377 0.241786
 accd

H 1.0 -0.881503 -1.60739 -0.518025
 accd

O 8.0 -0.732681 4.81033 -0.351994
 accd

H 1.0 -0.724353 3.85953 -0.241786
 accd

H 1.0 -0.529112 5.15452 0.517675
 accd

X 0.0 -0.70608058 1.77357720  0.0
  S  1 ; 1  0.025     1.0
  S  1 ; 1  0.007896  1.0
  S  1 ; 1  0.0025    1.0
  S  1 ; 1  0.0007896 1.0
  S  1 ; 1  0.00025   1.0
  P  1 ; 1  0.2168    1.0
  P  1 ; 1  0.06856   1.0
  P  1 ; 1  0.002168  1.0
  P  1 ; 1  0.0006856 1.0

 $END


--- CLOSED SHELL ORBITALS --- GENERATED AT Thu Aug 14 16:58:54 2008
cavity hexamer                                                                  
E(RHF)=     -456.2362933571, E(NUC)=  232.3568016550,   13 ITERS
 $VEC   
 1  1-9.59362917E-05-2.31572605E-05 5.90127095E-05-3.93768032E-06-1.44237432E-06
 1  2-1.72814496E-05-6.15887488E-06 1.96930565E-05 1.67257239E-04 5.75435782E-06
 1  3 1.61852573E-06-7.37288355E-06-1.75898816E-06-1.60324504E-05-8.37754989E-07
 1  4-6.02580878E-04-4.23597950E-04 5.35938490E-05 2.15796129E-04-2.22015684E-05
 1  5 1.32026736E-05 8.99889480E-06 1.12889243E-05 8.69331193E-05-1.18551295E-06
 1  6 2.29586114E-05-2.00121821E-05-1.73679806E-05-1.88274022E-06-3.83964644E-06
 1  7-2.86374927E-03-1.54003797E-04-7.18452056E-05-4.78785166E-04 9.89796822E-06
 1  8-5.67755095E-06 1.82272141E-05 2.92463161E-06 4.70511333E-06 6.42729190E-05
 1  9-2.51488809E-05-1.21347486E-05-7.20872746E-06-1.52641021E-02-1.00856055E-04
 1 10 5.19721187E-04 1.12071205E-05 2.01283251E-06 1.52941981E-05 4.11939551E-05
 1 11-1.96985361E-05-1.42014733E-04-5.28369225E-06-1.78868735E-05 2.31705657E-05
 1 12-7.14294484E-07 1.08031434E-06 4.53640781E-06-2.20006631E-04 2.89901428E-04
 1 13 1.04853484E-05 2.12459965E-04 1.37657377E-05 6.39507412E-05-7.77164789E-05
 1 14 2.04236755E-06-3.30966203E-06-1.58847891E-05 6.10613695E-06 7.62583257E-04
 1 15 2.67379722E-06-6.11158581E-07-2.06081750E-07 5.79635560E-04 1.70220522E-04
 1 16-1.08202260E-05-1.72283944E-04 1.90907036E-06-1.38049754E-03-1.23337501E-05
 1 17-9.98870214E-07 1.38169407E-06-3.78374173E-03 8.01494105E-05-5.93610204E-05
 1 18-6.56762488E-04-9.39965890E-05-7.39988270E-06 1.08729612E-05 1.37115423E-05
 1 19 3.45099598E-07-7.65384935E-06-1.33099953E-04-1.52485951E-06 2.23782965E-05
 1 20 1.17457877E-05-6.91508520E-06-4.83070247E-06 1.53348081E-06 1.26665220E-05
 1 21-2.10559129E-07-1.14218125E-03 4.29375148E-05-2.05788062E-05-3.43441494E-04
 1 22-3.23255834E-05 2.59966927E-05 6.32889073E-06-1.09182043E-05-8.44345606E-05
 1 23-1.47903511E-06-4.49823271E-05-3.14310273E-04 7.75010357E-06-6.01283233E-07
 1 24 7.23579603E-06-2.57137837E-03-5.22690616E-04-7.69439100E-05-5.44058545E-04
 1 25 2.32413310E-06 1.34443739E-03 2.73005138E-06-2.18046033E-06-1.29727585E-05
 1 26 3.65340428E-04-2.17315737E-04-3.89431374E-05-3.10992817E-04 1.00148954E+00
 1 27 2.46517351E-03-8.68411884E-03 1.39956948E-03 5.55642018E-05 8.84602987E-04
 1 28-1.23399999E-03-6.78175901E-05-1.10922555E-03 3.52316579E-05-7.56622512E-05
 1 29 4.04305933E-05-8.97175543E-06-4.73792365E-05 1.36236436E-05-7.59583097E-03
 1 30-6.62683839E-04-1.35461478E-04-1.49375916E-03-1.00976442E-04 1.54606942E-04
 1 31-5.36305003E-05 3.12779363E-05 1.84280731E-04-1.57751674E-05 3.92449947E-04
 1 32 7.16807534E-03 7.54392625E-05 6.84551251E-05 5.63749386E-04-9.41967386E-04
 1 33-5.81113461E-04-5.49831615E-04-3.90817541E-03 3.14672144E-04 2.95995701E-03
 1 34 3.80975875E-04-3.03345661E-05-1.79024382E-04-1.04092855E-04-1.19557902E-03
 1 35 6.82528173E-05 3.40391611E-04-4.61522792E-05-9.74925075E-06-2.41513098E-05
 1 36 2.66121923E-06-2.58183059E-06-1.57272690E-05-9.39395595E-07-3.36368666E-05
 1 37 1.99858033E-04 3.45165127E-06 3.28004952E-06-6.73170079E-06 1.50728298E-06
 1 38-2.57641864E-06-1.28120036E-05-8.67018020E-04 1.26018973E-05-3.73736607E-04
 1 39 2.92712950E-04 1.71015133E-05-1.86118014E-05 1.51028818E-06-4.74288769E-06
 1 40-2.29461565E-06 7.47379070E-05 1.62421006E-05 3.28249314E-04-3.53045235E-06
 1 41-2.77717141E-05-6.80749282E-06-2.53996411E-03 3.54218500E-05-7.91953502E-05
 1 42-4.96672239E-04 1.38017417E-05 2.23112533E-04 5.11260879E-06 2.32334779E-05
 1 43 1.71972528E-05 3.67913554E-05 3.88521377E-06 3.93839450E-06-7.74393895E-06
 1 44-7.78759634E-05-2.33570034E-05 9.68816798E-05 4.63351577E-06 1.02517024E-05
 1 45-6.92266231E-06-3.32864035E-05-8.36792334E-05 5.75463157E-05-4.64022733E-06
 1 46 8.12458194E-06-3.48435461E-06-2.24506125E-06 1.99416267E-06 1.04025785E-05
 1 47-7.35280814E-04-7.30539811E-05 2.46089419E-04-1.70259247E-04 1.69613041E-05
 1 48-3.44439369E-05 1.74826329E-05 7.14740426E-06-7.90801406E-06-6.20017646E-05
 1 49-2.49227054E-05-5.34925610E-04 1.15001336E-06 1.49730863E-05 1.18216529E-05
 1 50-3.18123866E-03 1.32678852E-05-4.46223405E-04-5.90239561E-04-1.21499960E-05
 1 51 9.63144705E-04 2.14800587E-06 1.24407245E-05-5.95160894E-06 4.38840981E-04
 1 52-5.84500909E-05-2.60883100E-04-2.00558260E-04 1.50182066E-02-1.73540292E-04
 1 53 5.98694238E-05-2.46465654E-05 7.37473799E-06-1.23152496E-04-1.37249044E-04
 1 54-7.36946793E-04-3.87106613E-04 2.93628097E-04 1.50297389E-03-3.64916817E-06
 1 55-5.94530366E-06 2.80924960E-05 1.47883287E-06 2.51653007E-06-1.30979164E-05
 2  1-9.79049351E-05-8.22361705E-06 1.32621088E-05-1.38763506E-05-4.05596542E-07
 2  2 7.11119935E-06 1.33159898E-04 1.18665846E-06-1.69899865E-05 1.19283612E-05
 2  3-6.91930635E-06-5.00905489E-06 1.55702931E-06 1.21081294E-05-5.58536043E-07
 2  4-1.15733944E-03-5.50121918E-05 1.94246364E-05 3.50678807E-04-3.29922307E-05
 2  5 2.66507268E-05 6.34150388E-06-1.10344786E-05-8.14597444E-05-1.66786608E-07
 2  6-4.43808806E-05-3.16257047E-04-8.31523968E-06 6.14719692E-07-7.35591974E-06
 2  7-2.64942798E-03 5.18360748E-04 7.66080655E-05 5.27613768E-04 2.60015952E-06
 2  8 1.34312334E-03-2.10465077E-06 2.60556867E-06 1.30771813E-05 3.65259265E-04
 2  9 2.16051815E-04 3.75726698E-05 3.10629421E-04 1.00148835E+00 2.46310501E-03
 2 10-8.67062618E-03-1.40022362E-03-9.57929221E-05-8.79666828E-04 1.23622075E-03
 2 11 1.01226264E-04 1.09999906E-03 3.51687986E-05-7.67940553E-05 4.16252568E-05
 2 12-4.66296974E-06-4.79158966E-05 1.16425618E-05-7.60160577E-03 6.73710256E-04
 2 13 1.50952479E-04 1.49677129E-03-1.00942576E-04 1.58281120E-04-5.73385439E-05
 2 14 2.08710324E-05 1.85698143E-04-9.32386904E-06 3.15030016E-04 2.98894828E-03
 2 15-3.81049909E-04 1.76815561E-05 1.80647171E-04-8.35952311E-05 1.20202368E-03
 2 16-3.20402917E-05-3.50960794E-04 3.92350688E-04 7.12030319E-03-7.58981688E-05
 2 17-6.82058574E-05-5.64123505E-04-1.05501037E-03 5.84136524E-04 5.49727903E-04
 2 18 3.88708863E-03-1.00192254E-04-2.34460568E-05 5.95131028E-05 4.39076886E-06
 2 19 1.56691278E-06 1.70011514E-05 1.73083219E-06-2.00951841E-05-1.66477563E-04
 2 20 6.14555662E-06 1.33054211E-06-7.47609873E-06-1.89365664E-06-1.55632650E-05
 2 21-1.07869079E-06-6.36977396E-04 4.24369893E-04-5.48526850E-05-2.26170924E-04
 2 22-2.32945881E-05 1.43662995E-05 8.92828858E-06 1.14743463E-05 8.39285433E-05
 2 23-1.74392397E-07 2.14194776E-05-3.00749523E-05 1.76349580E-05 1.99683005E-06
 2 24 4.06951195E-06-2.93382567E-03 1.36060759E-04 7.19172984E-05 4.60273895E-04
 2 25 1.00278567E-05 3.82567761E-05-1.80847739E-05-3.21583341E-06-5.18702617E-06
 2 26 7.52269308E-05 1.78063101E-05 1.08413015E-05-2.60826486E-06 1.51940075E-02
 2 27-2.58976385E-05 2.55561159E-04 3.13732939E-05 9.13575534E-08 1.15943132E-05
 2 28-7.86621420E-05 1.89040100E-05 1.07321691E-04-4.25683685E-06-2.01039771E-05
 2 29 2.43608139E-05-1.31484930E-06-3.83782156E-07 4.94604186E-06-4.52003386E-04
 2 30-3.07757518E-04-6.31911095E-06-2.57802987E-04 1.09633844E-05 6.84748749E-05
 2 31-7.94382593E-05 4.32934177E-06 2.21681065E-06-1.64210056E-05 1.39306768E-05
 2 32-1.15736808E-03 1.45973259E-05 2.71079016E-06 1.56042895E-05-3.78629709E-03
 2 33-9.75969900E-05 4.70543525E-05 5.37935886E-04 1.56878055E-05 8.50306337E-04
 2 34 9.00256171E-06-3.42584840E-07-5.17186003E-06 5.70105482E-04-2.06442047E-04
 2 35 2.12904332E-05 1.80851894E-04-8.35803076E-05-2.33989572E-05 9.33331253E-05
 2 36-4.53401698E-06-1.01895404E-05 6.15827001E-06 3.30054820E-05 8.16876340E-05
 2 37-4.94538398E-05-4.40533129E-06 8.29626504E-06-3.89093375E-06-2.05876781E-06
 2 38 1.86416545E-06 9.80788810E-06-7.79561178E-04 7.28946993E-05-2.61394068E-04
 2 39 1.78283563E-04 1.72264607E-05-3.50267858E-05 1.78003251E-05 6.46321106E-06
 2 40-7.91518758E-06-5.90675828E-05-2.37156595E-05-5.17769322E-04-1.24761150E-06
 2 41-1.54800228E-05-1.18916646E-05-3.20774865E-03-1.07979226E-05 4.34019856E-04
 2 42 5.71633370E-04-1.13432838E-05 9.66986625E-04-1.74006468E-06-1.13722760E-05
 2 43 6.55410312E-06 4.22524122E-04 5.65945277E-05 2.58264060E-04 2.00734963E-04
 2 44-4.63321711E-05-1.07353930E-05-1.91624780E-05-2.65755528E-06 2.87218062E-06
 2 45 1.55669825E-05 7.22538056E-07 3.27147672E-05-1.98073889E-04 3.29608026E-06
 2 46 3.40760278E-06-6.70368303E-06 1.40865849E-06-2.60357658E-06-1.28054063E-05
 2 47-8.73233903E-04-1.27267487E-05 3.80498450E-04-2.95893037E-04 1.79457686E-05
 2 48-1.99531199E-05 2.00735130E-06-4.45002882E-06-2.29836722E-06 7.42257100E-05
 2 49 1.56557642E-05 3.18592988E-04 3.56524891E-06 2.88731255E-05 6.98190222E-06
 2 50-2.63024743E-03-3.55905385E-05 6.12222946E-05 4.81957175E-04 1.31349423E-05
 2 51 2.42092457E-04-4.92459067E-06-2.30035612E-05-1.74408712E-05 4.63238313E-05
 2 52-6.42908218E-06-1.08945150E-05 5.23889348E-06 1.54030548E-02-1.76411027E-04
 2 53 6.11106041E-05-2.51805030E-05 7.53638541E-06 1.19433858E-04 1.31710502E-04
 2 54 7.14199146E-04 3.74431803E-04-2.99285343E-04-1.44633727E-03 3.52874632E-06
 2 55 5.76464737E-06-2.75788593E-05-1.43017188E-06-2.44178540E-06 1.28513154E-05
 3  1-5.62511183E-02-2.02611073E-04 8.82547677E-04-5.11536813E-05 7.94551043E-06
 3  2 6.87974585E-05 1.78833959E-04-4.40408560E-06-2.27418015E-05 1.94968930E-05
 3  3-1.26724474E-05-6.82444551E-06 7.18952653E-07-6.59985958E-07 2.88104899E-07
 3  4 1.46459350E-04-6.51178483E-05 9.25686794E-06 2.15904058E-04-7.22980566E-05
 3  5 4.95374515E-05 2.27606050E-05-2.88101381E-06 5.50585051E-06-1.76143511E-06
 3  6-1.67723317E-05-1.63304057E-03-2.73322091E-05-8.22529734E-07-8.38897631E-06
 3  7-3.29001182E-03 8.54395720E-04 2.78147376E-05 7.33222672E-05-1.06305057E-05
 3  8 6.01762318E-04 7.55155802E-06 2.01042055E-06 1.44906015E-05 5.34827110E-04
 3  9 1.47690797E-04 1.67152387E-05 1.21771964E-04 8.04594030E-05-3.07875696E-06
 3 10-1.74979777E-05 6.31381227E-06 3.43769240E-06 1.30643681E-05-2.40563474E-07
 3 11-2.89381678E-05-1.40484171E-04-6.19053252E-06-7.26272500E-06 1.34532575E-05
 3 12-1.17819288E-06-1.07432513E-05 6.60420996E-07-1.20272214E-03 3.79717566E-04
 3 13-8.01636642E-06 6.61605464E-05 2.82441211E-06 3.03808447E-05-3.32052568E-05
 3 14 9.27037325E-06 8.17193091E-05 7.23813739E-07 6.82897147E-06 1.43345586E-03
 3 15 1.91670644E-05 3.50642865E-07 1.35218821E-06 3.71314995E-04 3.24270156E-04
 3 16-2.75310839E-05-2.36814552E-04-4.44399069E-05-2.36952033E-04-9.84641760E-06
 3 17-3.90726442E-07 3.85913549E-06-2.42687809E-03 5.34144109E-04-1.32982148E-05
 3 18-5.26917370E-04 1.00002313E+00 2.45557595E-03-8.63571542E-03-8.81667802E-04
 3 19 1.47026097E-04 1.39037457E-03 1.11038402E-03-1.24658133E-04-1.21592110E-03
 3 20 3.89444141E-05-7.31831427E-05 3.42387286E-05 6.73393217E-06 4.83765561E-05
 3 21 1.45520953E-05-7.43250790E-03 1.42968963E-03-7.31766884E-05-6.43695848E-04
 3 22-5.07045442E-05 1.47008139E-04-9.63035950E-05-2.17088097E-05-1.83367861E-04
 3 23-3.45428602E-05 3.89689712E-04 7.03798347E-03-5.60755718E-04 3.76883701E-07
 3 24 7.35636240E-05-6.77514993E-04 3.92763486E-03 2.60591162E-06-5.59781589E-04
 3 25 3.10249904E-04 2.88433933E-03 1.80373417E-04 4.49030421E-05 3.81301101E-04
 3 26-1.11887675E-04-3.22596528E-04-1.35367581E-04-1.16555896E-03 7.50004326E-05
 3 27-2.31907584E-05 5.81119115E-05 1.70159996E-05-9.69873306E-07-3.56391640E-06
 3 28-1.72446393E-04 5.05832375E-06 8.58923587E-06-7.70105056E-06-2.61525218E-07
 3 29 7.96257578E-06 1.73718232E-06 1.69237848E-05 1.95717883E-07-5.89596870E-04
 3 30-2.56305577E-04-4.68569613E-05-4.57345811E-04 4.09790579E-06 1.88554816E-05
 3 31-2.29533874E-05-8.48247689E-06-8.54264706E-05-2.77132962E-06 2.22584604E-05
 3 32-5.01013906E-05 6.42632337E-06-5.79471141E-07-1.15086106E-05-2.93482827E-03
 3 33 4.58723861E-04-2.78653784E-05-1.49127237E-04 1.10017322E-05 6.87666550E-05
 3 34-9.91365744E-06 2.32285476E-06 1.74415399E-05 1.23824924E-04 1.44098517E-05
 3 35-1.66354672E-06-3.08368505E-06-1.43766083E-04-1.60006932E-05 6.85448182E-05
 3 36 1.65668075E-05-9.16275454E-06-4.76565524E-06-1.34217094E-04 5.42379549E-05
 3 37 4.13769985E-05-1.10464101E-05 6.74001704E-06 4.30639304E-06 1.08002401E-05
 3 38 2.80250393E-06 3.85339388E-06-5.15485073E-04-1.00771361E-04-2.12053448E-04
 3 39 1.25665298E-04 4.01314380E-05-2.64489214E-05-1.36825166E-05-6.79919651E-05
 3 40-6.73602925E-06-1.80615543E-05-1.77327172E-05-2.49813188E-04 2.82446024E-06
 3 41-1.52341130E-05-4.62194098E-06-2.57015651E-03 4.94823864E-04 2.08886742E-04
 3 42 7.46072702E-05 2.50259503E-05 4.08034427E-04-8.25532416E-07-8.88560530E-06
 3 43-2.45578471E-06 2.53912876E-04 2.45138455E-05 9.41557225E-05 1.21991861E-04
 3 44-8.14849691E-05-6.00089298E-06-9.30098996E-06 1.79790913E-05 7.13259536E-06
 3 45 5.27137533E-06-1.56840903E-04-3.43527629E-05-8.60325324E-05-7.81660400E-06
 3 46 6.72299279E-06 1.09361121E-06-9.89003161E-06 1.00380249E-06-3.12154914E-06
 3 47-6.94080686E-04-1.40620802E-04 2.86784606E-04-1.24678327E-04 4.18294684E-05
 3 48-2.54211025E-05-1.64083659E-05 6.00268268E-05-1.36316963E-05-2.27765057E-06
 3 49-7.50758855E-06-1.29508278E-05 4.06421473E-06 1.85372014E-05 7.94302445E-07
 3 50-2.21200549E-03 4.68272466E-04-1.09455699E-04 2.60864525E-05 3.85813791E-05
 3 51 3.64578969E-04-5.58232002E-06-7.38937360E-07-1.28194752E-05 4.12651093E-05
 3 52-3.81629404E-05-7.39356370E-05-1.07946669E-04 1.34526399E-02-1.64877519E-04
 3 53 5.70868062E-05-2.35117158E-05 7.03601910E-06 7.62196153E-04 5.36179583E-06
 3 54-1.20214493E-04-1.33457801E-03-1.36805841E-04-5.17952717E-04-3.28688154E-05
 3 55 3.81987838E-06-5.31255648E-07 1.52548091E-05-1.67155339E-06 7.64143750E-08
 4  1 1.00001905E+00 2.44820327E-03-8.59046754E-03 8.81569754E-04-1.56709257E-04
 4  2-1.39033280E-03-1.09736597E-03 1.36138032E-04 1.21985007E-03 4.14034178E-05
 4  3-7.50480803E-05 3.36446625E-05 6.13163140E-06 4.86453983E-05 1.47949840E-05
 4  4-7.46249990E-03-1.44674062E-03 8.35776328E-05 6.71129047E-04-5.91720599E-05
 4  5 1.53482868E-04-9.43108078E-05-2.07363896E-05-1.83846544E-04-3.49508115E-05
 4  6 3.90327079E-04 6.89735686E-03 5.61301713E-04-5.06069843E-06-7.44572667E-05
 4  7-1.05723069E-03-3.85717874E-03 3.08157559E-05 5.67231592E-04 3.11004661E-04
 4  8 2.96886622E-03-1.80635204E-04-4.48856431E-05-3.82125346E-04-5.27923024E-05
 4  9 3.41001045E-04 1.38106968E-04 1.18637552E-03 8.52939641E-05-2.37717099E-05
 4 10 5.70511434E-05-1.64110760E-05 1.83823597E-06 5.03928987E-06 1.73559628E-04
 4 11-1.00963532E-05-2.48616424E-05-8.43503134E-06-1.12817279E-06 9.56320413E-06
 4 12 1.51797403E-06 1.58364464E-05 2.70175351E-07-7.28512730E-04 3.02142162E-04
 4 13 4.83036866E-05 4.67204180E-04 4.32485372E-06 2.25930650E-05-2.69179187E-05
 4 14-8.11520154E-06-7.66383991E-05-2.32941553E-06 1.18293666E-05 2.33280369E-04
 4 15 1.21597577E-05-1.93281628E-06-1.74354859E-05 1.69384230E-04 2.24014761E-05
 4 16-1.61218635E-06-2.39909037E-05 1.72810209E-05-8.07693550E-05-7.59573952E-06
 4 17 3.61741453E-07 1.19743501E-05-3.23753350E-03-4.01109974E-04 3.24582023E-05
 4 18 8.90789026E-05 5.61793616E-02 7.30735645E-05-8.60155704E-05-4.79717265E-05
 4 19 9.57985007E-06 8.74660605E-05-5.47871001E-05-1.41138839E-05-1.13851560E-04
 4 20 2.40329763E-05-2.10001597E-05-3.03281654E-06 1.16859111E-06 4.84464370E-06
 4 21 2.03279342E-06-6.93066008E-04 2.27315603E-04-2.27656762E-05-2.89541841E-04
 4 22-7.85315041E-05 6.64063293E-05 1.21251748E-05-3.58910042E-06-1.54739791E-05
 4 23-6.22097916E-06 2.70729518E-05-8.48614571E-04-3.57735985E-05 1.73674970E-06
 4 24 1.66500770E-05-3.39094882E-03-4.17214610E-04-2.44213298E-05-1.37924858E-04
 4 25 2.43526317E-05 9.32575364E-04 1.27485989E-05 3.35345956E-06 2.83338911E-05
 4 26 5.25992246E-04-1.85318095E-04-3.33843431E-05-2.54146948E-04 8.82002236E-05
 4 27-5.64275137E-06-1.14731144E-05-4.44608790E-06-3.62710289E-06-1.35030119E-05
 4 28-1.88182307E-05 3.24717485E-05 1.41144379E-04-7.10663486E-06-7.25637790E-06
 4 29 1.43630128E-05-1.22453212E-06-8.89559124E-06 9.78520815E-07-1.27709416E-03
 4 30-4.08806897E-04 1.25668919E-05-1.20667874E-04 3.54708790E-06 3.22041379E-05
 4 31-3.57512258E-05 1.06544274E-05 7.22714035E-05-1.56336529E-06-4.19960653E-05
 4 32-2.39586376E-04 1.05464685E-05-1.32603545E-07-5.20336631E-06-2.76953643E-03
 4 33-4.85286499E-04 2.12931701E-05 5.10260093E-04 8.09074482E-06 1.44498615E-03
 4 34-2.03032657E-05-8.23407867E-07 6.98613852E-07 3.83645997E-04-3.23819746E-04
 4 35 4.30829109E-05 2.34961179E-04-1.13431258E-04-8.29255235E-06 4.90331944E-07
 4 36-1.68660701E-05-8.26184481E-06-5.85654245E-06 1.46396958E-04 3.98044337E-05
 4 37 9.15946973E-05-9.17628913E-06 7.57279425E-06 1.60349488E-06-9.16713897E-06
 4 38 1.44405781E-06-2.60938846E-06-7.64271098E-04 1.33549672E-04-3.15185594E-04
 4 39 1.40975709E-04 4.72537789E-05-2.94965966E-05-1.77571823E-05 5.48336409E-05
 4 40-1.49456756E-05-4.41004212E-06-8.87322195E-06-5.14332959E-05-4.00296385E-06
 4 41-2.10944281E-05-1.15485449E-06-2.51534019E-03-4.23705178E-04 1.33326059E-04
 4 42-1.87857665E-05 4.19352254E-05 4.14059545E-04 5.47499836E-06-4.02935705E-08
 4 43 1.24394818E-05 6.84715399E-05 4.01523954E-05 8.37957245E-05 1.23012925E-04
 4 44-1.33423493E-04-1.63499329E-05 6.58307569E-05-1.40751310E-05 9.91401100E-06
 4 45 5.24636394E-06 1.13907426E-04-5.87000646E-05-5.03163045E-05-1.19602066E-05
 4 46 7.52102228E-06 4.43918432E-06 9.17593190E-06 2.88303816E-06 3.49868490E-06
 4 47-5.90827577E-04 8.37308808E-05 2.44570067E-04-1.39287598E-04 4.45372553E-05
 4 48-2.86153024E-05-1.59219528E-05-5.91543343E-05-8.31349278E-06-1.85669942E-05
 4 49-1.91474604E-05-2.38975101E-04-2.15704318E-06 1.66477446E-05 4.72337151E-06
 4 50-2.84587173E-03-4.35919598E-04-2.20336265E-04-7.25266675E-05 2.93682179E-05
 4 51 4.46899568E-04 4.11349138E-07 8.82692755E-06 8.83729514E-07 2.61697535E-04
 4 52-3.02005613E-05-1.02627449E-04-1.32929766E-04 1.50779968E-02-1.83710583E-04
 4 53 6.36400200E-05-2.62134740E-05 7.84473980E-06-6.81046336E-04-2.76073483E-06
 4 54 1.06665606E-04 1.19037251E-03 8.34510048E-05 4.71401020E-04 2.93859240E-05
 4 55-3.52106703E-06 3.07643283E-07-1.36384113E-05 1.54644652E-06 4.70585409E-09
 5  1 9.93685509E-05-6.06928219E-06-1.94902688E-06-9.69561551E-06-1.41852459E-05
 5  2-5.91394526E-06 7.98683124E-05 1.24911008E-04 8.84838672E-05 1.17753647E-05
 5  3-1.21683903E-05 3.93025545E-07-7.72825972E-06-3.25010251E-06 1.83002633E-06
 5  4-7.23452358E-04-3.35369275E-04 1.42878077E-04 2.33880074E-04-3.00001669E-05
 5  5 4.82661773E-05-1.82660104E-05 5.02536903E-05-4.80324648E-06-1.20232899E-05
 5  6-1.30927610E-05-1.35196392E-04-5.87889368E-06-4.16900758E-06-3.05477183E-06
 5  7-3.18086492E-03 8.69719401E-05-3.91491033E-04-5.21011042E-05 3.83461472E-05
 5  8 4.83421903E-04-2.46618062E-06 4.28285893E-06 1.14815485E-05 2.94595440E-04
 5  9 8.59776628E-05 1.85241625E-05 1.36208992E-04 5.56301949E-05-2.78174269E-05
 5 10 1.19189138E-04-4.55541591E-06-1.54595108E-05 1.22185838E-05 6.17020252E-05
 5 11 1.09799806E-04-1.37274407E-04 1.59348574E-06-1.38013789E-05 1.22078931E-05
 5 12 5.11613299E-07 7.45424266E-07 1.49962564E-05-6.12414247E-04 3.11221945E-04
 5 13 1.57643910E-04 3.28485885E-04-2.34407764E-05 4.20613700E-05-1.86205936E-05
 5 14-3.32974303E-06 1.79052735E-05-7.19684495E-05 3.21169910E-05 6.33711572E-04
 5 15 9.85308405E-06 7.04903566E-07 5.35310405E-06 5.45917330E-04 1.28566366E-04
 5 16-1.53171199E-06-1.18291022E-04-1.65215709E-05-6.41454588E-04-5.92457717E-06
 5 17-4.01785083E-06-2.31980361E-06-3.85300446E-03 6.66924463E-05-4.02511545E-04
 5 18-1.05155514E-04 1.34022659E-04-1.39588985E-05 5.94856379E-05 1.03563614E-05
 5 19-1.38629606E-05 1.96190857E-06-7.30053599E-05 1.13657740E-04-2.71828420E-05
 5 20 1.04936430E-05-1.49423264E-05 4.44868345E-06 9.08864096E-06 4.27233644E-06
 5 21 1.75736427E-06-5.25453784E-04 2.56426187E-04 9.33577595E-05-1.81450124E-04
 5 22-3.59583072E-05 5.19554271E-05-1.59971199E-05-5.81091011E-05-2.90219541E-05
 5 23-3.31489904E-06-2.16221158E-05-1.75269075E-04 1.16895287E-05-3.00749868E-06
 5 24 4.01364853E-06-3.41885533E-03-2.73758683E-04-4.11854647E-04-1.49736880E-04
 5 25 2.81437879E-05 5.26479881E-04 1.10511351E-05 1.33320403E-07-1.85534693E-06
 5 26 4.86129813E-04-1.24603527E-04-6.72339011E-06-1.34454368E-04 4.03448045E-05
 5 27-6.43504065E-06 6.02650197E-06 5.48389827E-06-2.01354779E-05-6.54951751E-06
 5 28-5.82718145E-05 1.40794874E-04 4.47444476E-05 2.04160422E-07-9.66374305E-06
 5 29 9.45958263E-06 4.98345171E-06-2.91679122E-06-3.86385021E-06-6.13255491E-04
 5 30-8.61973482E-05-1.49276133E-05-1.78742305E-04-7.56051158E-06 4.13094186E-05
 5 31-3.37489070E-05-9.87042068E-06 2.11706825E-05 3.82455913E-05-2.29929205E-05
 5 32 1.47075493E-04 3.00008082E-06-3.25907075E-06-7.22074742E-06-2.54972316E-03
 5 33-3.00448784E-05-3.55852652E-04 2.83108935E-04 3.21503658E-05 4.09637005E-04
 5 34-2.03737152E-06-2.77606811E-06-7.35096154E-06 2.06127647E-04-1.62858449E-04
 5 35 6.66405954E-05 8.76307737E-05 1.00159310E+00 2.44180504E-03-8.58425264E-03
 5 36-2.89054690E-04 9.25840644E-04-1.35936850E-03 2.45293442E-04-1.14660651E-03
 5 37 1.21216451E-03-6.72181091E-05 3.49357903E-05 3.22823188E-05 1.26048947E-05
 5 38 2.83041591E-05 4.44372830E-05-7.49819307E-03 1.16902881E-04-1.39998670E-03
 5 39 6.00100482E-04 1.36225369E-04-3.78704988E-05-9.83548704E-05-4.25728735E-05
 5 40-6.74350875E-05-1.60631559E-04 3.93920934E-04 6.78503197E-03-2.84829089E-06
 5 41 5.57669699E-04-5.56145197E-05-4.42652070E-04 3.52059982E-05-3.93070418E-03
 5 42 3.27533709E-04 3.15591466E-04 2.90077260E-03-8.86943164E-05-1.63796571E-04
 5 43-3.83639177E-04-1.90561012E-04 2.65512817E-04 2.79453175E-04 1.16981563E-03
 5 44-1.20624829E-03-6.95979611E-05 4.20824379E-04 3.34286936E-06 1.01541774E-06
 5 45 8.04632118E-06-2.00936236E-05-9.29627018E-05-3.71910263E-05-1.44896795E-05
 5 46 1.77696377E-05-3.27995824E-06 5.02295988E-07 2.43763383E-06 3.50275783E-06
 5 47-1.63157397E-04-2.37198718E-05 7.95163755E-05-1.49352786E-04 5.20959606E-05
 5 48-6.92874409E-05 1.71914803E-05 5.44201292E-07-7.46306594E-06-7.35186640E-06
 5 49 5.15266234E-06-1.16328005E-03 1.85322541E-06 1.78874371E-06 9.92680207E-06
 5 50-2.88674269E-03-4.03161096E-06-6.68076860E-04-1.30805503E-04 8.63529439E-06
 5 51 6.25818292E-04 2.49548918E-06 2.52979333E-06 1.06956468E-05 4.21512953E-04
 5 52-4.89394140E-05-1.50716216E-04-1.71521205E-04 1.50201959E-02-2.08219166E-04
 5 53 6.62527873E-05-2.67017838E-05 7.94097191E-06-9.81650043E-06-7.16566788E-04
 5 54 2.09256214E-05-3.63132968E-05 9.25515147E-04 9.19107903E-04-1.78013161E-06
 5 55 3.25100405E-05-1.34508820E-05 7.39830299E-07-1.50658950E-05 6.05403070E-06
 6  1 1.13541485E-04-1.33665011E-05 5.58712299E-05-1.03471015E-05 1.38250356E-05
 6  2-1.80105472E-06 7.11017231E-05-1.13690330E-04 2.63418751E-05 1.04067515E-05
 6  3-1.50675657E-05 4.66081414E-06 9.27420683E-06 4.29995087E-06 1.69049845E-06
 6  4-5.24876351E-04-2.56277977E-04-9.64860162E-05 1.80474119E-04-3.61547641E-05
 6  5 5.26353591E-05-1.64805950E-05-5.84554828E-05-2.90682316E-05-3.05728902E-06
 6  6-2.18081487E-05-1.70922239E-04-1.20827142E-05 2.66563549E-06-3.75190464E-06
 6  7-3.42388901E-03 2.68324925E-04 4.12427276E-04 1.48660233E-04 2.82227004E-05
 6  8 5.18702991E-04-1.10712286E-05 5.78698005E-08 1.71631353E-06 4.85643798E-04
 6  9 1.22122638E-04 5.34947883E-06 1.33175948E-04 3.80673485E-05-6.42984907E-06
 6 10 6.52631016E-06-5.70521209E-06 1.97866492E-05 6.68519911E-06 5.85152287E-05
 6 11-1.38005017E-04-4.54040313E-05 1.78084117E-07-9.71139292E-06 9.53330880E-06
 6 12 5.18697702E-06-3.07172118E-06-3.97403546E-06-6.25122666E-04 9.07396801E-05
 6 13 1.97802044E-05 1.79681582E-04-7.43978989E-06 4.11928805E-05-3.37530906E-05
 6 14-1.09166780E-05 2.14614299E-05 3.89332150E-05 3.20459081E-05 4.14870833E-04
 6 15 1.42682409E-06 3.29450225E-06 7.14164092E-06 2.07817271E-04 1.63500143E-04
 6 16-6.29687321E-05-8.57297995E-05-2.32399797E-05 1.50208847E-04-2.89022904E-06
 6 17 3.14355544E-06 6.99738650E-06-2.56235944E-03 2.83530117E-05 3.57176056E-04
 6 18-2.79836708E-04 8.39276843E-05-5.44728397E-06-5.89814934E-06 9.68441097E-06
 6 19 1.41431621E-05 5.77301621E-06-7.75354725E-05-1.24565735E-04-8.73885328E-05
 6 20 1.17176929E-05-1.23163267E-05 5.98633803E-07-7.84433607E-06-3.19011157E-06
 6 21 1.83080867E-06-7.24036837E-04 3.37649232E-04-1.44478071E-04-2.31854905E-04
 6 22-3.04592407E-05 4.90459398E-05-1.85866990E-05 5.04099899E-05-4.91337887E-06
 6 23-1.19090975E-05-1.30829652E-05-1.27724881E-04 6.32547664E-06 3.77130047E-06
 6 24 2.81046481E-06-3.18801458E-03-8.08881927E-05 3.91748860E-04 5.16867537E-05
 6 25 3.84111332E-05 4.74343302E-04 2.54795685E-06-4.23584640E-06-1.13096598E-05
 6 26 2.93407736E-04-8.35057372E-05-1.88996415E-05-1.34450601E-04 5.11384557E-05
 6 27-2.80179535E-05 1.20913570E-04 4.81728911E-06 1.52672249E-05-1.23258979E-05
 6 28-6.20665332E-05-1.07265496E-04 1.37807792E-04 1.72616070E-06-1.39128764E-05
 6 29 1.21867157E-05 2.09908010E-07 7.28229678E-07 1.49560485E-05-6.12948445E-04
 6 30-3.12371945E-04-1.50044835E-04-3.29253347E-04-2.35790647E-05 4.19646483E-05
 6 31-1.83855836E-05-1.68403069E-06 1.75377554E-05-7.21546388E-05-1.69226390E-05
 6 32-6.44054042E-04 6.05871545E-06 3.92573918E-06 2.40644823E-06-3.86568672E-03
 6 33-6.63253126E-05 4.03308895E-04 1.08342478E-04 3.19885246E-05 6.37876267E-04
 6 34-9.30344740E-06-2.73834124E-07-5.72633995E-06 5.49414758E-04-1.29774364E-04
 6 35 8.43647559E-06 1.19326817E-04 1.13240998E-03-6.39060056E-05 4.00737978E-04
 6 36-4.06567387E-06 1.17465309E-06-1.12479770E-05 2.07291045E-05 8.89162715E-05
 6 37 3.98460483E-05-1.45468103E-05 1.77684835E-05-3.22167316E-06 5.95053927E-07
 6 38 2.54331008E-06 3.59202864E-06-1.81257668E-04 2.35336022E-05-8.39003050E-05
 6 39 1.48264275E-04 5.22429621E-05-6.96028953E-05 1.73599332E-05 2.67844323E-07
 6 40-7.70261342E-06-7.41195398E-06 6.36812644E-06-1.14471058E-03-1.85938902E-06
 6 41-8.88991070E-07-9.98538534E-06-2.87246758E-03 4.32963777E-06 6.57896408E-04
 6 42 1.30698352E-04 9.23659846E-06 6.27636525E-04-2.63504001E-06-2.87801683E-06
 6 43-1.17735744E-05 4.14375106E-04 4.78290711E-05 1.50631986E-04 1.73778910E-04
 6 44 1.00159303E+00 2.44168658E-03-8.58323001E-03 2.91138724E-04-9.25730235E-04
 6 45 1.35883522E-03-2.46857667E-04 1.14728908E-03-1.21145218E-03-6.72453856E-05
 6 46 3.49336394E-05 3.23117461E-05 1.27010350E-05 2.84533125E-05 4.44335612E-05