!  point determined charges ... histidine
!  this test came from Durham in the UK back in 1996
!
!  Method is Mark Spackman's, least mean square fitting of
!  the classical electrostic potential generated by nuclear
!  centered point atomic charges' to that of the actual
!  quantum mechanical wavefunction.
!
!  The test does not invoke the option to constrain the
!  point charges to perfectly reproduce the dipole or
!  quadrupole, as they come out pretty good anyway.
!
!    NET CHARGES:
!    -------------------------------------
!    ATOM                CHARGE    E.S.D.
!    -------------------------------------
!    H1                  0.1420    0.0194
!    C2                 -0.5630    0.2858
!    C3                  0.2582    0.1220
!    N4                 -0.3111    0.1529
!    C5                  0.0605    0.0765
!    C6                  0.2816    0.1175
!    N7                 -0.5453    0.0242
!    H8                  0.1558    0.0186
!    H9                  0.1559    0.0186
!    H10                 0.2661    0.0149
!    H11                 0.0580    0.0094
!    H12                 0.0413    0.0111
!    -------------------------------------
!    RMS DEVIATION IS            1.237 KCAL/MOLE
!    RELATIVE RMS DEVIATION IS  10.315 %
!   
!    MULTIPOLE MOMENTS:
!    ---------------------------------------------------------
!    STATUS  ACTUAL VALUE       QUANTITY        FITTED VALUE
!    ---------------------------------------------------------
!    FIXED        .0000       TOTAL CHARGE        .0000
!                3.7369 D    DIPOLE MOMENT       3.7295 D
!    FREE        1.4380 D          DX            1.4208 D
!    FREE       -3.3198 D          DY           -3.3201 D
!    FREE         .9356 D          DZ             .9314 D
!    FREE        -.0798 BU         QXX           -.1354 BU
!    FREE        2.3696 BU         QYY           2.4502 BU
!    FREE       -2.2897 BU         QZZ          -2.3148 BU
!    FREE        6.8664 BU         QXY           6.4773 BU
!    FREE        -.8668 BU         QXZ           -.7941 BU
!    FREE         .6982 BU         QYZ            .5871 BU
!    ---------------------------------------------------------
!
!    this run takes 1 second on 2.66 GHz Cloverton (24 Jul 2010)
!
 $contrl scftyp=rhf runtyp=energy $end
 $system mwords=1 $end
 $elpot  where=pdc iepot=1 $end
 $elmom  iemom=2 $end
 $basis  gbasis=sto ngauss=3 $end
 $pdc    ptsel=geodesic constr=charge $end
 $data
Neutral histidine...sto-3g
C1
H     1.0  -1.17572  -0.40606   2.89573 
C     6.0  -1.88298  -1.24926   2.89918  
C     6.0  -3.26475  -0.79543   2.51096  
N     7.0  -4.29529  -1.60663   2.43613  
C     6.0  -3.63869   0.46059   2.19439  
C     6.0  -5.34724  -0.93960   2.08053  
N     7.0  -5.03821   0.26671   1.92321  
H     1.0  -1.91037  -1.68703   3.90807  
H     1.0  -1.53290  -2.01061   2.18629   
H     1.0  -4.27143  -2.61938   2.63040   
H     1.0  -3.04991   1.37596   2.15286   
H     1.0  -6.34717  -1.34851   1.93722   
 $end


! TRAVIS-CI SMALL

