!  Anthracene C14H10 localized orbital test...80 AOs, 47 MOs
!  R.C.Raffenetti, K.Ruedenberg, C.L.Janssen, H.F.Schaefer
!  Theoret.Chim.Acta, 1993, 86, 149-165.
!
!  FINAL energy= -534.6438211765 after 9 iterations
!  initial DIAGONAL localization sum = 22.0028900573
!    final DIAGONAL localization sum = 69.8197871100
!
!  about 4200 Jacobi rotations are performed (this depends on machine)
!
!  This run takes 49 seconds on 2.66 GHz Cloverton (15 Apr 2015)
!      p=4 needed 14
!  results haven't changed substantially since creation in 2010.
!
!  This job will run in parallel, but w/poor scalability, due to the
!  large number of core MOs, and the serial localization program.
!
 $contrl scftyp=rhf runtyp=energy local=ruednbrg units=bohr $end
 $system parall=.true. mwords=1 memddi=6 $end
 $guess  guess=huckel $end
 $local  prtloc=.true. fcore=.false. $end
 $scf    dirscf=.true. $end
 $data
Anthracene...Schmidt/Ruedenberg ET 8s4p or 3s basis, general contraction to MBS
Dnh  2

Carbon   6.0    0.000000000    2.645667625  0.0
        S    8
    1  0.178584957E+00  0.754962630E-02
    2  0.626634968E+00 -0.193265195E-01
    3  0.219879317E+01  0.262460311E+00
    4  0.771532338E+01  0.555048245E+00
    5  0.270722211E+02  0.259856799E+00
    6  0.949934457E+02  0.713328252E-01
    7  0.333321552E+03  0.145266063E-01
    8  0.116958866E+04  0.467229380E-02
        S    8
    1  0.178584957E+00  0.674643301E+00
    2  0.626634968E+00  0.484006637E+00
    3  0.219879317E+01 -0.152816297E+00
    4  0.771532338E+01 -0.176411964E+00
    5  0.270722211E+02 -0.603364973E-01
    6  0.949934457E+02 -0.159998630E-01
    7  0.333321552E+03 -0.306628910E-02
    8  0.116958866E+04 -0.101102010E-02
        P    4
    1  0.158055186E+00  0.498518341E+00
    2  0.599348425E+00  0.512619431E+00
    3  0.227274121E+01  0.175334450E+00
    4  0.861828014E+01  0.365836476E-01

Carbon   6.0    2.291215250    1.322833812  0.0
        S    8
    1  0.178584957E+00  0.754962630E-02
    2  0.626634968E+00 -0.193265195E-01
    3  0.219879317E+01  0.262460311E+00
    4  0.771532338E+01  0.555048245E+00
    5  0.270722211E+02  0.259856799E+00
    6  0.949934457E+02  0.713328252E-01
    7  0.333321552E+03  0.145266063E-01
    8  0.116958866E+04  0.467229380E-02
        S    8
    1  0.178584957E+00  0.674643301E+00
    2  0.626634968E+00  0.484006637E+00
    3  0.219879317E+01 -0.152816297E+00
    4  0.771532338E+01 -0.176411964E+00
    5  0.270722211E+02 -0.603364973E-01
    6  0.949934457E+02 -0.159998630E-01
    7  0.333321552E+03 -0.306628910E-02
    8  0.116958866E+04 -0.101102010E-02
        P    4
    1  0.158055186E+00  0.498518341E+00
    2  0.599348425E+00  0.512619431E+00
    3  0.227274121E+01  0.175334450E+00
    4  0.861828014E+01  0.365836476E-01

Carbon   6.0    4.582430499    2.645667625  0.0
        S    8
    1  0.178584957E+00  0.754962630E-02
    2  0.626634968E+00 -0.193265195E-01
    3  0.219879317E+01  0.262460311E+00
    4  0.771532338E+01  0.555048245E+00
    5  0.270722211E+02  0.259856799E+00
    6  0.949934457E+02  0.713328252E-01
    7  0.333321552E+03  0.145266063E-01
    8  0.116958866E+04  0.467229380E-02
        S    8
    1  0.178584957E+00  0.674643301E+00
    2  0.626634968E+00  0.484006637E+00
    3  0.219879317E+01 -0.152816297E+00
    4  0.771532338E+01 -0.176411964E+00
    5  0.270722211E+02 -0.603364973E-01
    6  0.949934457E+02 -0.159998630E-01
    7  0.333321552E+03 -0.306628910E-02
    8  0.116958866E+04 -0.101102010E-02
        P    4
    1  0.158055186E+00  0.498518341E+00
    2  0.599348425E+00  0.512619431E+00
    3  0.227274121E+01  0.175334450E+00
    4  0.861828014E+01  0.365836476E-01

Carbon   6.0    6.873645938    1.322833812  0.0
        S    8
    1  0.178584957E+00  0.754962630E-02
    2  0.626634968E+00 -0.193265195E-01
    3  0.219879317E+01  0.262460311E+00
    4  0.771532338E+01  0.555048245E+00
    5  0.270722211E+02  0.259856799E+00
    6  0.949934457E+02  0.713328252E-01
    7  0.333321552E+03  0.145266063E-01
    8  0.116958866E+04  0.467229380E-02
        S    8
    1  0.178584957E+00  0.674643301E+00
    2  0.626634968E+00  0.484006637E+00
    3  0.219879317E+01 -0.152816297E+00
    4  0.771532338E+01 -0.176411964E+00
    5  0.270722211E+02 -0.603364973E-01
    6  0.949934457E+02 -0.159998630E-01
    7  0.333321552E+03 -0.306628910E-02
    8  0.116958866E+04 -0.101102010E-02
        P    4
    1  0.158055186E+00  0.498518341E+00
    2  0.599348425E+00  0.512619431E+00
    3  0.227274121E+01  0.175334450E+00
    4  0.861828014E+01  0.365836476E-01

Hydrogen 1.0    0.000000000    4.724406473  0.0
        S    3
    1  0.163016048E+00  0.707913387E+00
    2  0.795635686E+00  0.346004717E+00
    3  0.388327500E+01  0.691506933E-01

Hydrogen 1.0    4.582430499    4.724406473  0.0
        S    3
    1  0.163016048E+00  0.707913387E+00
    2  0.795635686E+00  0.346004717E+00
    3  0.388327500E+01  0.691506933E-01

Hydrogen 1.0    8.673886505    2.362203236  0.0
        S    3
    1  0.163016048E+00  0.707913387E+00
    2  0.795635686E+00  0.346004717E+00
    3  0.388327500E+01  0.691506933E-01

 $end

! TRAVIS-CI SMALL

! TRAVIS-CI SKIP
