!   determinant based MRPT...This is from the big Be2 paper
!
!   FINAL E= -29.2230957187, 2 iters, E(MP2)= -29.2384939602
!
!   this run takes 112 seconds on 2.66 GHz Cloverton (15 Apr 2015)
!        p=4 needed 33
!   answes basically unchanged since creation in 2010
!
 $contrl scftyp=mcscf mplevl=2 runtyp=energy ispher=1 $end
 $system parall=.true. mwords=3 memddi=5 $end
 $guess  guess=moread norb=160 $end
 $mcscf  fullnr=.true. $end
 $det    ncore=2 nact=8 nels=4 $end
 $trans  dirtrf=.true. $end

!  basis= B.P. Prascher, K.A. Peterson, D.E. Woon, T.H. Dunning, A.K. Wilson
 $data
beryllium dimer...revised aug-cc-pVQZ basis set from David Feller
Dnh 2

Be   4.0   0.0 0.0 2.45/2.0
 S   9
  1        14630.00000         0.9200000000E-04
  2        2191.000000         0.7130000000E-03
  3        498.2000000         0.3735000000E-02
  4        140.9000000         0.1546800000E-01
  5        45.86000000         0.5287400000E-01
  6        16.47000000         0.1456940000    
  7        6.319000000         0.3026810000    
  8        2.535000000         0.4049360000    
  9        1.035000000         0.2223870000    
 S   9
  1        14630.00000        -0.1700000000E-04
  2        2191.000000        -0.1300000000E-03
  3        498.2000000        -0.6790000000E-03
  4        140.9000000        -0.2857000000E-02
  5        45.86000000        -0.9813000000E-02
  6        16.47000000        -0.2860900000E-01
  7        6.319000000        -0.6376000000E-01
  8        2.535000000        -0.1172310000    
  9        1.035000000        -0.1212020000    
 S   1
  1       0.2528000000          1.000000000    
 S   1
  1       0.1052000000          1.000000000    
 S   1
  1       0.4261000000E-01      1.000000000    
 P   3
  1        14.03000000         0.4099000000E-02
  2        3.168000000         0.2562600000E-01
  3       0.9024000000         0.1037680000    
 P   1
  1       0.3036000000          1.000000000    
 P   1
  1       0.1130000000          1.000000000    
 P   1
  1       0.4286000000E-01      1.000000000    
 D   1
  1        1.128800000          1.000000000    
 D   1
  1       0.4569000000          1.000000000    
 D   1
  1       0.1850000000          1.000000000    
 F   1
  1       0.4768000000          1.000000000    
 F   1
  1       0.2521000000          1.000000000    
 G   1
  1       0.4131000000          1.000000000    
>     the old 'aug' was s=0.01439, p=0.0065, d=0.0554, f=0.093, g=0.1834
>     the new 'aug' from David Feller follows
 s 1 ; 1 0.0141 1.0
 p 1 ; 1 0.0084 1.0
 d 1 ; 1 0.0556 1.0
 f 1 ; 1 0.0905 1.0
 g 1 ; 1 0.1654 1.0

 $end
 
--- NATURAL ORBITALS OF MCSCF --- GENERATED AT Fri Jun 11 12:25:46 2010
E(MCSCF)=      -29.2230957187, E(NUC)=        3.4558514236
 $VEC   
 1  1 7.03898525E-01-1.40337715E-03 8.51107238E-03-6.64052837E-03 1.48129242E-02
 1  2 0.00000000E+00 0.00000000E+00 2.08934159E-04 0.00000000E+00 0.00000000E+00
 1  3 5.83596066E-04 0.00000000E+00 0.00000000E+00 2.99516703E-03 0.00000000E+00
 1  4 0.00000000E+00 7.68997280E-03 6.15132002E-05 6.15132002E-05-1.23026400E-04
 1  5 0.00000000E+00 0.00000000E+00 0.00000000E+00-7.80762751E-05-7.80762751E-05
 1  6 1.56152550E-04 0.00000000E+00 0.00000000E+00 0.00000000E+00-5.05005193E-04
 1  7-5.05005193E-04 1.01001039E-03 0.00000000E+00 0.00000000E+00 0.00000000E+00
 1  8 0.00000000E+00 0.00000000E+00-6.75112554E-06 0.00000000E+00 4.52879269E-06
 1  9 0.00000000E+00 4.52879269E-06 0.00000000E+00 0.00000000E+00 0.00000000E+00
 1 10 0.00000000E+00 0.00000000E+00 4.28051065E-04 0.00000000E+00-2.87145384E-04
 1 11 0.00000000E+00-2.87145384E-04 0.00000000E+00 0.00000000E+00 0.00000000E+00
 1 12 1.71241432E-05 1.71241432E-05 4.56643861E-05 0.00000000E+00 0.00000000E+00
 1 13 0.00000000E+00 0.00000000E+00 0.00000000E+00 0.00000000E+00 1.00268753E-05
 1 14-4.01074900E-05-4.01074900E-05 0.00000000E+00 0.00000000E+00 0.00000000E+00
 1 15 5.27998925E-05 0.00000000E+00 0.00000000E+00-3.86600057E-05-1.06027953E-03
 1 16-1.06027953E-03 2.12055906E-03 0.00000000E+00 0.00000000E+00 0.00000000E+00
 1 17 0.00000000E+00 0.00000000E+00 4.46088632E-04 0.00000000E+00-2.99245352E-04
 1 18 0.00000000E+00-2.99245352E-04 0.00000000E+00 0.00000000E+00 0.00000000E+00
 1 19 8.68127709E-05 8.68127709E-05 2.31500711E-04 0.00000000E+00 0.00000000E+00
 1 20 0.00000000E+00 0.00000000E+00 0.00000000E+00 0.00000000E+00 5.08323440E-05
 1 21-2.03329405E-04-2.03329405E-04 0.00000000E+00 0.00000000E+00 0.00000000E+00
 1 22-7.03898525E-01 1.40337715E-03-8.51107238E-03 6.64052837E-03-1.48129242E-02
 1 23 0.00000000E+00 0.00000000E+00 2.08934159E-04 0.00000000E+00 0.00000000E+00
 1 24 5.83596066E-04 0.00000000E+00 0.00000000E+00 2.99516703E-03 0.00000000E+00
 1 25 0.00000000E+00 7.68997280E-03-6.15132002E-05-6.15132002E-05 1.23026400E-04
 1 26 0.00000000E+00 0.00000000E+00 0.00000000E+00 7.80762751E-05 7.80762751E-05
 1 27-1.56152550E-04 0.00000000E+00 0.00000000E+00 0.00000000E+00 5.05005193E-04
 1 28 5.05005193E-04-1.01001039E-03 0.00000000E+00 0.00000000E+00 0.00000000E+00
 1 29 0.00000000E+00 0.00000000E+00-6.75112554E-06 0.00000000E+00 4.52879269E-06
 1 30 0.00000000E+00 4.52879269E-06 0.00000000E+00 0.00000000E+00 0.00000000E+00
 1 31 0.00000000E+00 0.00000000E+00 4.28051065E-04 0.00000000E+00-2.87145384E-04
 1 32 0.00000000E+00-2.87145384E-04 0.00000000E+00 0.00000000E+00 0.00000000E+00
 1 33-1.71241432E-05-1.71241432E-05-4.56643861E-05 0.00000000E+00 0.00000000E+00
 1 34 0.00000000E+00 0.00000000E+00 0.00000000E+00 0.00000000E+00-1.00268753E-05
 1 35 4.01074900E-05 4.01074900E-05 0.00000000E+00 0.00000000E+00 0.00000000E+00
 1 36-5.27998925E-05 0.00000000E+00 0.00000000E+00-3.86600057E-05 1.06027953E-03
 1 37 1.06027953E-03-2.12055906E-03 0.00000000E+00 0.00000000E+00 0.00000000E+00
 1 38 0.00000000E+00 0.00000000E+00 4.46088632E-04 0.00000000E+00-2.99245352E-04
 1 39 0.00000000E+00-2.99245352E-04 0.00000000E+00 0.00000000E+00 0.00000000E+00
 1 40-8.68127709E-05-8.68127709E-05-2.31500711E-04 0.00000000E+00 0.00000000E+00
 1 41 0.00000000E+00 0.00000000E+00 0.00000000E+00 0.00000000E+00-5.08323440E-05
 1 42 2.03329405E-04 2.03329405E-04 0.00000000E+00 0.00000000E+00 0.00000000E+00
 2  1 7.03902036E-01-2.44968010E-03 8.49465599E-03-1.14896846E-02 7.68110102E-04
 2  2 0.00000000E+00 0.00000000E+00-2.17564883E-04 0.00000000E+00 0.00000000E+00
 2  3-2.71615055E-04 0.00000000E+00 0.00000000E+00-1.34410358E-03 0.00000000E+00
 2  4 0.00000000E+00 1.35267043E-03 7.65023885E-05 7.65023885E-05-1.53004777E-04
 2  5 0.00000000E+00 0.00000000E+00 0.00000000E+00-1.33147590E-04-1.33147590E-04
 2  6 2.66295179E-04 0.00000000E+00 0.00000000E+00 0.00000000E+00 1.95413440E-04
 2  7 1.95413440E-04-3.90826880E-04 0.00000000E+00 0.00000000E+00 0.00000000E+00
 2  8 0.00000000E+00 0.00000000E+00 1.28818091E-04 0.00000000E+00-8.64138025E-05
 2  9 0.00000000E+00-8.64138025E-05 0.00000000E+00 0.00000000E+00 0.00000000E+00
 2 10 0.00000000E+00 0.00000000E+00-3.02365693E-04 0.00000000E+00 2.02833073E-04
 2 11 0.00000000E+00 2.02833073E-04 0.00000000E+00 0.00000000E+00 0.00000000E+00
 2 12 4.31792857E-06 4.31792857E-06 1.15144704E-05 0.00000000E+00 0.00000000E+00
 2 13 0.00000000E+00 0.00000000E+00 0.00000000E+00 0.00000000E+00 2.52831497E-06
 2 14-1.01132752E-05-1.01132752E-05 0.00000000E+00 0.00000000E+00 0.00000000E+00
 2 15-1.09218508E-04 0.00000000E+00 0.00000000E+00-7.74640751E-05-5.14410633E-04
 2 16-5.14410633E-04 1.02882127E-03 0.00000000E+00 0.00000000E+00 0.00000000E+00
 2 17 0.00000000E+00 0.00000000E+00 2.74764871E-04 0.00000000E+00-1.84317879E-04
 2 18 0.00000000E+00-1.84317879E-04 0.00000000E+00 0.00000000E+00 0.00000000E+00
 2 19-3.88826757E-05-3.88826757E-05-1.03687132E-04 0.00000000E+00 0.00000000E+00
 2 20 0.00000000E+00 0.00000000E+00 0.00000000E+00 0.00000000E+00-2.27673612E-05
 2 21 9.10694521E-05 9.10694521E-05 0.00000000E+00 0.00000000E+00 0.00000000E+00
 2 22 7.03902036E-01-2.44968010E-03 8.49465599E-03-1.14896846E-02 7.68110102E-04
 2 23 0.00000000E+00 0.00000000E+00 2.17564883E-04 0.00000000E+00 0.00000000E+00
 2 24 2.71615055E-04 0.00000000E+00 0.00000000E+00 1.34410358E-03 0.00000000E+00
 2 25 0.00000000E+00-1.35267043E-03 7.65023885E-05 7.65023885E-05-1.53004777E-04
 2 26 0.00000000E+00 0.00000000E+00 0.00000000E+00-1.33147590E-04-1.33147590E-04
 2 27 2.66295179E-04 0.00000000E+00 0.00000000E+00 0.00000000E+00 1.95413440E-04
 2 28 1.95413440E-04-3.90826880E-04 0.00000000E+00 0.00000000E+00 0.00000000E+00
 2 29 0.00000000E+00 0.00000000E+00-1.28818091E-04 0.00000000E+00 8.64138025E-05
 2 30 0.00000000E+00 8.64138025E-05 0.00000000E+00 0.00000000E+00 0.00000000E+00
 2 31 0.00000000E+00 0.00000000E+00 3.02365693E-04 0.00000000E+00-2.02833073E-04
 2 32 0.00000000E+00-2.02833073E-04 0.00000000E+00 0.00000000E+00 0.00000000E+00
 2 33 4.31792857E-06 4.31792857E-06 1.15144704E-05 0.00000000E+00 0.00000000E+00
 2 34 0.00000000E+00 0.00000000E+00 0.00000000E+00 0.00000000E+00 2.52831497E-06
 2 35-1.01132752E-05-1.01132752E-05 0.00000000E+00 0.00000000E+00 0.00000000E+00
 2 36-1.09218508E-04 0.00000000E+00 0.00000000E+00 7.74640751E-05-5.14410633E-04
 2 37-5.14410633E-04 1.02882127E-03 0.00000000E+00 0.00000000E+00 0.00000000E+00
 2 38 0.00000000E+00 0.00000000E+00-2.74764871E-04 0.00000000E+00 1.84317879E-04
 2 39 0.00000000E+00 1.84317879E-04 0.00000000E+00 0.00000000E+00 0.00000000E+00
 2 40-3.88826757E-05-3.88826757E-05-1.03687132E-04 0.00000000E+00 0.00000000E+00
 2 41 0.00000000E+00 0.00000000E+00 0.00000000E+00 0.00000000E+00-2.27673612E-05
 2 42 9.10694521E-05 9.10694521E-05 0.00000000E+00 0.00000000E+00 0.00000000E+00
 3  1 8.34483181E-03 2.10650607E-01 1.71440231E-01 3.75791574E-01 9.17860586E-02
 3  2 0.00000000E+00 0.00000000E+00 2.12858262E-02 0.00000000E+00 0.00000000E+00
 3  3 4.86257661E-02 0.00000000E+00 0.00000000E+00 5.85983523E-02 0.00000000E+00
 3  4 0.00000000E+00 6.94005259E-03-5.89751542E-04-5.89751542E-04 1.17950308E-03
 3  5 0.00000000E+00 0.00000000E+00 0.00000000E+00-1.17909033E-03-1.17909033E-03
 3  6 2.35818066E-03 0.00000000E+00 0.00000000E+00 0.00000000E+00-6.41542812E-03
 3  7-6.41542812E-03 1.28308562E-02 0.00000000E+00 0.00000000E+00 0.00000000E+00
 3  8 0.00000000E+00 0.00000000E+00 6.83684552E-05 0.00000000E+00-4.58629540E-05
 3  9 0.00000000E+00-4.58629540E-05 0.00000000E+00 0.00000000E+00 0.00000000E+00
 3 10 0.00000000E+00 0.00000000E+00 3.59829002E-03 0.00000000E+00-2.41380633E-03
 3 11 0.00000000E+00-2.41380633E-03 0.00000000E+00 0.00000000E+00 0.00000000E+00
 3 12 1.50285008E-04 1.50285008E-04 4.00760031E-04 0.00000000E+00 0.00000000E+00
 3 13 0.00000000E+00 0.00000000E+00 0.00000000E+00 0.00000000E+00 8.79978993E-05
 3 14-3.51991569E-04-3.51991569E-04 0.00000000E+00 0.00000000E+00 0.00000000E+00
 3 15-7.36787094E-04 0.00000000E+00 0.00000000E+00 4.14809300E-04-2.70538548E-03
 3 16-2.70538548E-03 5.41077096E-03 0.00000000E+00 0.00000000E+00 0.00000000E+00
 3 17 0.00000000E+00 0.00000000E+00 2.52010238E-03 0.00000000E+00-1.69053607E-03
 3 18 0.00000000E+00-1.69053607E-03 0.00000000E+00 0.00000000E+00 0.00000000E+00
 3 19 5.50118224E-04 5.50118224E-04 1.46698192E-03 0.00000000E+00 0.00000000E+00
 3 20 0.00000000E+00 0.00000000E+00 0.00000000E+00 0.00000000E+00 3.22116242E-04
 3 21-1.28846499E-03-1.28846499E-03 0.00000000E+00 0.00000000E+00 0.00000000E+00
 3 22 8.34483181E-03 2.10650607E-01 1.71440231E-01 3.75791574E-01 9.17860586E-02
 3 23 0.00000000E+00 0.00000000E+00-2.12858262E-02 0.00000000E+00 0.00000000E+00
 3 24-4.86257661E-02 0.00000000E+00 0.00000000E+00-5.85983523E-02 0.00000000E+00
 3 25 0.00000000E+00-6.94005259E-03-5.89751542E-04-5.89751542E-04 1.17950308E-03
 3 26 0.00000000E+00 0.00000000E+00 0.00000000E+00-1.17909033E-03-1.17909033E-03
 3 27 2.35818066E-03 0.00000000E+00 0.00000000E+00 0.00000000E+00-6.41542812E-03
 3 28-6.41542812E-03 1.28308562E-02 0.00000000E+00 0.00000000E+00 0.00000000E+00
 3 29 0.00000000E+00 0.00000000E+00-6.83684552E-05 0.00000000E+00 4.58629540E-05
 3 30 0.00000000E+00 4.58629540E-05 0.00000000E+00 0.00000000E+00 0.00000000E+00
 3 31 0.00000000E+00 0.00000000E+00-3.59829002E-03 0.00000000E+00 2.41380633E-03
 3 32 0.00000000E+00 2.41380633E-03 0.00000000E+00 0.00000000E+00 0.00000000E+00
 3 33 1.50285008E-04 1.50285008E-04 4.00760031E-04 0.00000000E+00 0.00000000E+00
 3 34 0.00000000E+00 0.00000000E+00 0.00000000E+00 0.00000000E+00 8.79978993E-05
 3 35-3.51991569E-04-3.51991569E-04 0.00000000E+00 0.00000000E+00 0.00000000E+00
 3 36-7.36787094E-04 0.00000000E+00 0.00000000E+00-4.14809300E-04-2.70538548E-03
 3 37-2.70538548E-03 5.41077096E-03 0.00000000E+00 0.00000000E+00 0.00000000E+00
 3 38 0.00000000E+00 0.00000000E+00-2.52010238E-03 0.00000000E+00 1.69053607E-03
 3 39 0.00000000E+00 1.69053607E-03 0.00000000E+00 0.00000000E+00 0.00000000E+00
 3 40 5.50118224E-04 5.50118224E-04 1.46698192E-03 0.00000000E+00 0.00000000E+00
 3 41 0.00000000E+00 0.00000000E+00 0.00000000E+00 0.00000000E+00 3.22116242E-04
 3 42-1.28846499E-03-1.28846499E-03 0.00000000E+00 0.00000000E+00 0.00000000E+00
 4  1 1.02438531E-02 2.21888574E-01 1.74838672E-01 4.98130604E-01 2.85985468E-01
 4  2 0.00000000E+00 0.00000000E+00-2.16956797E-02 0.00000000E+00 0.00000000E+00
 4  3-5.20344920E-02 0.00000000E+00 0.00000000E+00-5.17050570E-02 0.00000000E+00
 4  4 0.00000000E+00-1.68743795E-03 7.02478153E-05 7.02478153E-05-1.40495631E-04
 4  5 0.00000000E+00 0.00000000E+00 0.00000000E+00 1.35591283E-03 1.35591283E-03
 4  6-2.71182565E-03 0.00000000E+00 0.00000000E+00 0.00000000E+00-1.54286394E-04
 4  7-1.54286394E-04 3.08572788E-04 0.00000000E+00 0.00000000E+00 0.00000000E+00
 4  8 0.00000000E+00 0.00000000E+00-6.39050323E-04 0.00000000E+00 4.28687989E-04
 4  9 0.00000000E+00 4.28687989E-04 0.00000000E+00 0.00000000E+00 0.00000000E+00
 4 10 0.00000000E+00 0.00000000E+00 2.37023657E-04 0.00000000E+00-1.59000303E-04
 4 11 0.00000000E+00-1.59000303E-04 0.00000000E+00 0.00000000E+00 0.00000000E+00
 4 12-4.55553662E-05-4.55553662E-05-1.21481004E-04 0.00000000E+00 0.00000000E+00
 4 13 0.00000000E+00 0.00000000E+00 0.00000000E+00 0.00000000E+00-2.66745154E-05
 4 14 1.06697989E-04 1.06697989E-04 0.00000000E+00 0.00000000E+00 0.00000000E+00
 4 15 2.07253003E-03 0.00000000E+00 0.00000000E+00-7.02855558E-04-1.95227750E-03
 4 16-1.95227750E-03 3.90455500E-03 0.00000000E+00 0.00000000E+00 0.00000000E+00
 4 17 0.00000000E+00 0.00000000E+00 5.78284987E-04 0.00000000E+00-3.87925362E-04
 4 18 0.00000000E+00-3.87925362E-04 0.00000000E+00 0.00000000E+00 0.00000000E+00
 4 19-8.27718439E-05-8.27718439E-05-2.20724766E-04 0.00000000E+00 0.00000000E+00
 4 20 0.00000000E+00 0.00000000E+00 0.00000000E+00 0.00000000E+00-4.84660967E-05
 4 21 1.93864784E-04 1.93864784E-04 0.00000000E+00 0.00000000E+00 0.00000000E+00
 4 22-1.02438531E-02-2.21888574E-01-1.74838672E-01-4.98130604E-01-2.85985468E-01
 4 23 0.00000000E+00 0.00000000E+00-2.16956797E-02 0.00000000E+00 0.00000000E+00
 4 24-5.20344920E-02 0.00000000E+00 0.00000000E+00-5.17050570E-02 0.00000000E+00
 4 25 0.00000000E+00-1.68743795E-03-7.02478153E-05-7.02478153E-05 1.40495631E-04
 4 26 0.00000000E+00 0.00000000E+00 0.00000000E+00-1.35591283E-03-1.35591283E-03
 4 27 2.71182565E-03 0.00000000E+00 0.00000000E+00 0.00000000E+00 1.54286394E-04
 4 28 1.54286394E-04-3.08572788E-04 0.00000000E+00 0.00000000E+00 0.00000000E+00
 4 29 0.00000000E+00 0.00000000E+00-6.39050323E-04 0.00000000E+00 4.28687989E-04
 4 30 0.00000000E+00 4.28687989E-04 0.00000000E+00 0.00000000E+00 0.00000000E+00
 4 31 0.00000000E+00 0.00000000E+00 2.37023657E-04 0.00000000E+00-1.59000303E-04
 4 32 0.00000000E+00-1.59000303E-04 0.00000000E+00 0.00000000E+00 0.00000000E+00
 4 33 4.55553662E-05 4.55553662E-05 1.21481004E-04 0.00000000E+00 0.00000000E+00
 4 34 0.00000000E+00 0.00000000E+00 0.00000000E+00 0.00000000E+00 2.66745154E-05
 4 35-1.06697989E-04-1.06697989E-04 0.00000000E+00 0.00000000E+00 0.00000000E+00
 4 36-2.07253003E-03 0.00000000E+00 0.00000000E+00-7.02855558E-04 1.95227750E-03
 4 37 1.95227750E-03-3.90455500E-03 0.00000000E+00 0.00000000E+00 0.00000000E+00
 4 38 0.00000000E+00 0.00000000E+00 5.78284987E-04 0.00000000E+00-3.87925362E-04
 4 39 0.00000000E+00-3.87925362E-04 0.00000000E+00 0.00000000E+00 0.00000000E+00
 4 40 8.27718439E-05 8.27718439E-05 2.20724766E-04 0.00000000E+00 0.00000000E+00
 4 41 0.00000000E+00 0.00000000E+00 0.00000000E+00 0.00000000E+00 4.84660967E-05
 4 42-1.93864784E-04-1.93864784E-04 0.00000000E+00 0.00000000E+00 0.00000000E+00
 5  1-5.69565285E-03-6.91641171E-02-6.91927733E-02-2.28896810E-01-3.70665478E-02
 5  2 0.00000000E+00 0.00000000E+00 8.20637260E-02 0.00000000E+00 0.00000000E+00
 5  3 2.47476833E-01 0.00000000E+00 0.00000000E+00 3.28762522E-01 0.00000000E+00
 5  4 0.00000000E+00 9.05466530E-02-9.06441101E-06-9.06441101E-06 1.81288220E-05
 5  5 0.00000000E+00 0.00000000E+00 0.00000000E+00 4.67289375E-04 4.67289375E-04
 5  6-9.34578750E-04 0.00000000E+00 0.00000000E+00 0.00000000E+00 4.47284519E-03
 5  7 4.47284519E-03-8.94569038E-03 0.00000000E+00 0.00000000E+00 0.00000000E+00
 5  8 0.00000000E+00 0.00000000E+00 7.61004260E-04 0.00000000E+00-5.10497177E-04
 5  9 0.00000000E+00-5.10497177E-04 0.00000000E+00 0.00000000E+00 0.00000000E+00
 5 10 0.00000000E+00 0.00000000E+00 4.90830185E-04 0.00000000E+00-3.29258898E-04
 5 11 0.00000000E+00-3.29258898E-04 0.00000000E+00 0.00000000E+00 0.00000000E+00
 5 12 4.45864923E-05 4.45864923E-05 1.18897371E-04 0.00000000E+00 0.00000000E+00
 5 13 0.00000000E+00 0.00000000E+00 0.00000000E+00 0.00000000E+00 2.61072280E-05
 5 14-1.04428758E-04-1.04428758E-04 0.00000000E+00 0.00000000E+00 0.00000000E+00
 5 15 3.08094762E-03 0.00000000E+00 0.00000000E+00-2.69685581E-03-5.05976093E-03
 5 16-5.05976093E-03 1.01195219E-02 0.00000000E+00 0.00000000E+00 0.00000000E+00
 5 17 0.00000000E+00 0.00000000E+00 4.94396877E-03 0.00000000E+00-3.31651508E-03
 5 18 0.00000000E+00-3.31651508E-03 0.00000000E+00 0.00000000E+00 0.00000000E+00
 5 19 4.86807142E-04 4.86807142E-04 1.29815243E-03 0.00000000E+00 0.00000000E+00
 5 20 0.00000000E+00 0.00000000E+00 0.00000000E+00 0.00000000E+00 2.85045122E-04
 5 21-1.14018035E-03-1.14018035E-03 0.00000000E+00 0.00000000E+00 0.00000000E+00
 5 22-5.69565285E-03-6.91641171E-02-6.91927733E-02-2.28896810E-01-3.70665478E-02
 5 23 0.00000000E+00 0.00000000E+00-8.20637260E-02 0.00000000E+00 0.00000000E+00
 5 24-2.47476833E-01 0.00000000E+00 0.00000000E+00-3.28762522E-01 0.00000000E+00
 5 25 0.00000000E+00-9.05466530E-02-9.06441101E-06-9.06441101E-06 1.81288220E-05
 5 26 0.00000000E+00 0.00000000E+00 0.00000000E+00 4.67289375E-04 4.67289375E-04
 5 27-9.34578750E-04 0.00000000E+00 0.00000000E+00 0.00000000E+00 4.47284519E-03
 5 28 4.47284519E-03-8.94569038E-03 0.00000000E+00 0.00000000E+00 0.00000000E+00
 5 29 0.00000000E+00 0.00000000E+00-7.61004260E-04 0.00000000E+00 5.10497177E-04
 5 30 0.00000000E+00 5.10497177E-04 0.00000000E+00 0.00000000E+00 0.00000000E+00
 5 31 0.00000000E+00 0.00000000E+00-4.90830185E-04 0.00000000E+00 3.29258898E-04
 5 32 0.00000000E+00 3.29258898E-04 0.00000000E+00 0.00000000E+00 0.00000000E+00
 5 33 4.45864923E-05 4.45864923E-05 1.18897371E-04 0.00000000E+00 0.00000000E+00
 5 34 0.00000000E+00 0.00000000E+00 0.00000000E+00 0.00000000E+00 2.61072280E-05
 5 35-1.04428758E-04-1.04428758E-04 0.00000000E+00 0.00000000E+00 0.00000000E+00
 5 36 3.08094762E-03 0.00000000E+00 0.00000000E+00 2.69685581E-03-5.05976093E-03
 5 37-5.05976093E-03 1.01195219E-02 0.00000000E+00 0.00000000E+00 0.00000000E+00
 5 38 0.00000000E+00 0.00000000E+00-4.94396877E-03 0.00000000E+00 3.31651508E-03
 5 39 0.00000000E+00 3.31651508E-03 0.00000000E+00 0.00000000E+00 0.00000000E+00
 5 40 4.86807142E-04 4.86807142E-04 1.29815243E-03 0.00000000E+00 0.00000000E+00
 5 41 0.00000000E+00 0.00000000E+00 0.00000000E+00 0.00000000E+00 2.85045122E-04
 5 42-1.14018035E-03-1.14018035E-03 0.00000000E+00 0.00000000E+00 0.00000000E+00
 6  1 0.00000000E+00 0.00000000E+00 0.00000000E+00 0.00000000E+00 0.00000000E+00
 6  2 7.03218661E-02 0.00000000E+00 0.00000000E+00 2.76620321E-01 0.00000000E+00
 6  3 0.00000000E+00 3.46900181E-01 0.00000000E+00 0.00000000E+00 3.16848820E-02
 6  4 0.00000000E+00 0.00000000E+00 0.00000000E+00 0.00000000E+00 0.00000000E+00
 6  5 0.00000000E+00 4.68377922E-04 0.00000000E+00 0.00000000E+00 0.00000000E+00
 6  6 0.00000000E+00 0.00000000E+00 6.13553201E-03 0.00000000E+00 0.00000000E+00
 6  7 0.00000000E+00 0.00000000E+00 0.00000000E+00 1.62312620E-02 0.00000000E+00
 6  8-1.22331551E-03 0.00000000E+00 0.00000000E+00 0.00000000E+00 0.00000000E+00
 6  9-5.47083327E-04 0.00000000E+00 2.18833331E-03 0.00000000E+00 0.00000000E+00
 6 10-5.29024978E-03 0.00000000E+00 0.00000000E+00 0.00000000E+00 0.00000000E+00
 6 11-2.36587162E-03 0.00000000E+00 9.46348650E-03 0.00000000E+00 0.00000000E+00
 6 12 0.00000000E+00 0.00000000E+00 0.00000000E+00 0.00000000E+00-1.87978704E-03
 6 13 0.00000000E+00 0.00000000E+00 2.50638272E-03 0.00000000E+00 0.00000000E+00
 6 14 0.00000000E+00 0.00000000E+00 0.00000000E+00-8.40666320E-04 0.00000000E+00
 6 15 0.00000000E+00 4.92497217E-04 0.00000000E+00 0.00000000E+00 0.00000000E+00
 6 16 0.00000000E+00 0.00000000E+00 0.00000000E+00 6.99973427E-04 0.00000000E+00
 6 17-2.43249452E-03 0.00000000E+00 0.00000000E+00 0.00000000E+00 0.00000000E+00
 6 18-1.08784462E-03 0.00000000E+00 4.35137849E-03 0.00000000E+00 0.00000000E+00
 6 19 0.00000000E+00 0.00000000E+00 0.00000000E+00 0.00000000E+00-3.73879009E-03
 6 20 0.00000000E+00 0.00000000E+00 4.98505345E-03 0.00000000E+00 0.00000000E+00
 6 21 0.00000000E+00 0.00000000E+00 0.00000000E+00-1.67203776E-03 0.00000000E+00
 6 22 0.00000000E+00 0.00000000E+00 0.00000000E+00 0.00000000E+00 0.00000000E+00
 6 23 7.03218661E-02 0.00000000E+00 0.00000000E+00 2.76620321E-01 0.00000000E+00
 6 24 0.00000000E+00 3.46900181E-01 0.00000000E+00 0.00000000E+00 3.16848820E-02
 6 25 0.00000000E+00 0.00000000E+00 0.00000000E+00 0.00000000E+00 0.00000000E+00
 6 26 0.00000000E+00-4.68377922E-04 0.00000000E+00 0.00000000E+00 0.00000000E+00
 6 27 0.00000000E+00 0.00000000E+00-6.13553201E-03 0.00000000E+00 0.00000000E+00
 6 28 0.00000000E+00 0.00000000E+00 0.00000000E+00-1.62312620E-02 0.00000000E+00
 6 29-1.22331551E-03 0.00000000E+00 0.00000000E+00 0.00000000E+00 0.00000000E+00
 6 30-5.47083327E-04 0.00000000E+00 2.18833331E-03 0.00000000E+00 0.00000000E+00
 6 31-5.29024978E-03 0.00000000E+00 0.00000000E+00 0.00000000E+00 0.00000000E+00
 6 32-2.36587162E-03 0.00000000E+00 9.46348650E-03 0.00000000E+00 0.00000000E+00
 6 33 0.00000000E+00 0.00000000E+00 0.00000000E+00 0.00000000E+00 1.87978704E-03
 6 34 0.00000000E+00 0.00000000E+00-2.50638272E-03 0.00000000E+00 0.00000000E+00
 6 35 0.00000000E+00 0.00000000E+00 0.00000000E+00 8.40666320E-04 0.00000000E+00
 6 36 0.00000000E+00 4.92497217E-04 0.00000000E+00 0.00000000E+00 0.00000000E+00
 6 37 0.00000000E+00 0.00000000E+00 0.00000000E+00-6.99973427E-04 0.00000000E+00
 6 38-2.43249452E-03 0.00000000E+00 0.00000000E+00 0.00000000E+00 0.00000000E+00
 6 39-1.08784462E-03 0.00000000E+00 4.35137849E-03 0.00000000E+00 0.00000000E+00
 6 40 0.00000000E+00 0.00000000E+00 0.00000000E+00 0.00000000E+00 3.73879009E-03
 6 41 0.00000000E+00 0.00000000E+00-4.98505345E-03 0.00000000E+00 0.00000000E+00
 6 42 0.00000000E+00 0.00000000E+00 0.00000000E+00 1.67203776E-03 0.00000000E+00
 7  1 0.00000000E+00 0.00000000E+00 0.00000000E+00 0.00000000E+00 0.00000000E+00
 7  2 0.00000000E+00-7.03218661E-02 0.00000000E+00 0.00000000E+00-2.76620321E-01
 7  3 0.00000000E+00 0.00000000E+00-3.46900181E-01 0.00000000E+00 0.00000000E+00
 7  4-3.16848820E-02 0.00000000E+00 0.00000000E+00 0.00000000E+00 0.00000000E+00
 7  5 0.00000000E+00 0.00000000E+00-4.68377922E-04 0.00000000E+00 0.00000000E+00
 7  6 0.00000000E+00 0.00000000E+00 0.00000000E+00-6.13553201E-03 0.00000000E+00
 7  7 0.00000000E+00 0.00000000E+00 0.00000000E+00 0.00000000E+00-1.62312620E-02
 7  8 0.00000000E+00 1.22331551E-03 0.00000000E+00 5.47083327E-04 0.00000000E+00
 7  9 0.00000000E+00 0.00000000E+00 0.00000000E+00-2.18833331E-03 0.00000000E+00
 7 10 0.00000000E+00 5.29024978E-03 0.00000000E+00 2.36587162E-03 0.00000000E+00
 7 11 0.00000000E+00 0.00000000E+00 0.00000000E+00-9.46348650E-03 0.00000000E+00
 7 12 0.00000000E+00 0.00000000E+00 0.00000000E+00 0.00000000E+00 0.00000000E+00
 7 13 0.00000000E+00 1.87978704E-03 0.00000000E+00-2.50638272E-03 0.00000000E+00
 7 14 0.00000000E+00 0.00000000E+00 8.40666320E-04 0.00000000E+00 0.00000000E+00
 7 15 0.00000000E+00 0.00000000E+00-4.92497217E-04 0.00000000E+00 0.00000000E+00
 7 16 0.00000000E+00 0.00000000E+00 0.00000000E+00 0.00000000E+00-6.99973429E-04
 7 17 0.00000000E+00 2.43249452E-03 0.00000000E+00 1.08784462E-03 0.00000000E+00
 7 18 0.00000000E+00 0.00000000E+00 0.00000000E+00-4.35137849E-03 0.00000000E+00
 7 19 0.00000000E+00 0.00000000E+00 0.00000000E+00 0.00000000E+00 0.00000000E+00
 7 20 0.00000000E+00 3.73879009E-03 0.00000000E+00-4.98505345E-03 0.00000000E+00
 7 21 0.00000000E+00 0.00000000E+00 1.67203776E-03 0.00000000E+00 0.00000000E+00
 7 22 0.00000000E+00 0.00000000E+00 0.00000000E+00 0.00000000E+00 0.00000000E+00
 7 23 0.00000000E+00-7.03218661E-02 0.00000000E+00 0.00000000E+00-2.76620321E-01
 7 24 0.00000000E+00 0.00000000E+00-3.46900181E-01 0.00000000E+00 0.00000000E+00
 7 25-3.16848820E-02 0.00000000E+00 0.00000000E+00 0.00000000E+00 0.00000000E+00
 7 26 0.00000000E+00 0.00000000E+00 4.68377922E-04 0.00000000E+00 0.00000000E+00
 7 27 0.00000000E+00 0.00000000E+00 0.00000000E+00 6.13553201E-03 0.00000000E+00
 7 28 0.00000000E+00 0.00000000E+00 0.00000000E+00 0.00000000E+00 1.62312620E-02
 7 29 0.00000000E+00 1.22331551E-03 0.00000000E+00 5.47083327E-04 0.00000000E+00
 7 30 0.00000000E+00 0.00000000E+00 0.00000000E+00-2.18833331E-03 0.00000000E+00
 7 31 0.00000000E+00 5.29024978E-03 0.00000000E+00 2.36587162E-03 0.00000000E+00
 7 32 0.00000000E+00 0.00000000E+00 0.00000000E+00-9.46348650E-03 0.00000000E+00
 7 33 0.00000000E+00 0.00000000E+00 0.00000000E+00 0.00000000E+00 0.00000000E+00
 7 34 0.00000000E+00-1.87978704E-03 0.00000000E+00 2.50638272E-03 0.00000000E+00
 7 35 0.00000000E+00 0.00000000E+00-8.40666320E-04 0.00000000E+00 0.00000000E+00
 7 36 0.00000000E+00 0.00000000E+00-4.92497217E-04 0.00000000E+00 0.00000000E+00
 7 37 0.00000000E+00 0.00000000E+00 0.00000000E+00 0.00000000E+00 6.99973429E-04
 7 38 0.00000000E+00 2.43249452E-03 0.00000000E+00 1.08784462E-03 0.00000000E+00
 7 39 0.00000000E+00 0.00000000E+00 0.00000000E+00-4.35137849E-03 0.00000000E+00
 7 40 0.00000000E+00 0.00000000E+00 0.00000000E+00 0.00000000E+00 0.00000000E+00
 7 41 0.00000000E+00-3.73879009E-03 0.00000000E+00 4.98505345E-03 0.00000000E+00
 7 42 0.00000000E+00 0.00000000E+00-1.67203776E-03 0.00000000E+00 0.00000000E+00
 8  1 0.00000000E+00 0.00000000E+00 0.00000000E+00 0.00000000E+00 0.00000000E+00
 8  2 7.92882495E-02 0.00000000E+00 0.00000000E+00 3.16404045E-01 0.00000000E+00
 8  3 0.00000000E+00 4.43345511E-01 0.00000000E+00 0.00000000E+00 9.56876192E-02
 8  4 0.00000000E+00 0.00000000E+00 0.00000000E+00 0.00000000E+00 0.00000000E+00
 8  5 0.00000000E+00-9.82545013E-04 0.00000000E+00 0.00000000E+00 0.00000000E+00
 8  6 0.00000000E+00 0.00000000E+00-6.29029407E-03 0.00000000E+00 0.00000000E+00
 8  7 0.00000000E+00 0.00000000E+00 0.00000000E+00-1.40010953E-02 0.00000000E+00
 8  8-1.20912477E-04 0.00000000E+00 0.00000000E+00 0.00000000E+00 0.00000000E+00
 8  9-5.40737036E-05 0.00000000E+00 2.16294814E-04 0.00000000E+00 0.00000000E+00
 8 10 3.16166628E-03 0.00000000E+00 0.00000000E+00 0.00000000E+00 0.00000000E+00
 8 11 1.41394014E-03 0.00000000E+00-5.65576058E-03 0.00000000E+00 0.00000000E+00
 8 12 0.00000000E+00 0.00000000E+00 0.00000000E+00 0.00000000E+00 8.18889096E-04
 8 13 0.00000000E+00 0.00000000E+00-1.09185213E-03 0.00000000E+00 0.00000000E+00
 8 14 0.00000000E+00 0.00000000E+00 0.00000000E+00 3.66218337E-04 0.00000000E+00
 8 15 0.00000000E+00-2.36643423E-03 0.00000000E+00 0.00000000E+00 0.00000000E+00
 8 16 0.00000000E+00 0.00000000E+00 0.00000000E+00 1.83169752E-02 0.00000000E+00
 8 17-4.36393155E-03 0.00000000E+00 0.00000000E+00 0.00000000E+00 0.00000000E+00
 8 18-1.95160952E-03 0.00000000E+00 7.80643807E-03 0.00000000E+00 0.00000000E+00
 8 19 0.00000000E+00 0.00000000E+00 0.00000000E+00 0.00000000E+00 7.92835445E-04
 8 20 0.00000000E+00 0.00000000E+00-1.05711393E-03 0.00000000E+00 0.00000000E+00
 8 21 0.00000000E+00 0.00000000E+00 0.00000000E+00 3.54566790E-04 0.00000000E+00
 8 22 0.00000000E+00 0.00000000E+00 0.00000000E+00 0.00000000E+00 0.00000000E+00
 8 23-7.92882495E-02 0.00000000E+00 0.00000000E+00-3.16404045E-01 0.00000000E+00
 8 24 0.00000000E+00-4.43345511E-01 0.00000000E+00 0.00000000E+00-9.56876192E-02
 8 25 0.00000000E+00 0.00000000E+00 0.00000000E+00 0.00000000E+00 0.00000000E+00
 8 26 0.00000000E+00-9.82545013E-04 0.00000000E+00 0.00000000E+00 0.00000000E+00
 8 27 0.00000000E+00 0.00000000E+00-6.29029407E-03 0.00000000E+00 0.00000000E+00
 8 28 0.00000000E+00 0.00000000E+00 0.00000000E+00-1.40010953E-02 0.00000000E+00
 8 29 1.20912477E-04 0.00000000E+00 0.00000000E+00 0.00000000E+00 0.00000000E+00
 8 30 5.40737036E-05 0.00000000E+00-2.16294814E-04 0.00000000E+00 0.00000000E+00
 8 31-3.16166628E-03 0.00000000E+00 0.00000000E+00 0.00000000E+00 0.00000000E+00
 8 32-1.41394014E-03 0.00000000E+00 5.65576058E-03 0.00000000E+00 0.00000000E+00
 8 33 0.00000000E+00 0.00000000E+00 0.00000000E+00 0.00000000E+00 8.18889096E-04
 8 34 0.00000000E+00 0.00000000E+00-1.09185213E-03 0.00000000E+00 0.00000000E+00
 8 35 0.00000000E+00 0.00000000E+00 0.00000000E+00 3.66218337E-04 0.00000000E+00
 8 36 0.00000000E+00 2.36643423E-03 0.00000000E+00 0.00000000E+00 0.00000000E+00
 8 37 0.00000000E+00 0.00000000E+00 0.00000000E+00 1.83169752E-02 0.00000000E+00
 8 38 4.36393155E-03 0.00000000E+00 0.00000000E+00 0.00000000E+00 0.00000000E+00
 8 39 1.95160952E-03 0.00000000E+00-7.80643807E-03 0.00000000E+00 0.00000000E+00
 8 40 0.00000000E+00 0.00000000E+00 0.00000000E+00 0.00000000E+00 7.92835445E-04
 8 41 0.00000000E+00 0.00000000E+00-1.05711393E-03 0.00000000E+00 0.00000000E+00
 8 42 0.00000000E+00 0.00000000E+00 0.00000000E+00 3.54566790E-04 0.00000000E+00