!   Mg2O2...160 AOs and 138 MOs
!   ground state is a singlet, first excited state is a triplet.
!   there are 12 chemical cores, 8 valence orbitals, 118 virtuals
!   created in 2010, updated to new Mg basis set in 2015.
!
!   FINAL E= -549.0122663235, 22 iters, E(MP2)= -549.5957067336
!
!   This run takes 114 seconds on 2.66 GHz Cloverton (15 Apr 2015)
!        p=4 needed 29
!
 $CONTRL SCFTYP=RHF mplevl=2 runtyp=energy ispher=1 $END
 $SYSTEM parall=.true.  MWORDS=5  MEMDDI=20 $END

 $scf    dirscf=.true. $end
 $BASIS  GBASIS=cct $end
 $DATA
Mg2O2 square...arbitrary diamond shape chosen
Dnh  2

Mg  12   0.0  1.34  0.0
O    8   1.35 0.0   0.0
 $END

! TRAVIS-CI SMALL

