!  EFP2 optimization involving one closed shell EFP2 (water)
!                            and one open shell EFP2 (glycyl radical)
!  since open shell EFP2 supports only unscreened electrostatic,
!  polarizability, and exchange repulsion, the closed shell
!  water's potential is changed to match.
!  
!      NSERCH:   0  E=       -0.0132713000  R.M.S.=  0.0021898
!      NSERCH:   1  E=       -0.0112538105  R.M.S.=  0.0108511
!          ...snipped...
!      NSERCH:   9  E=       -0.0140450102  R.M.S.=  0.0001436
!      NSERCH:  10  E=       -0.0140457647  R.M.S.=  0.0000204
!
!   This run takes 0 seconds on 2.66 GHz CLoverton ( 6 Oct 2015)
!
!   ----------------------------------------------------------------
!       the numbers below are from code older than April 2009:
!  if run in parallel, the repulsion energy at the initial geometry
!  changes from 0.0051861464      (ES and POL match perfectly)
!            to 0.0051683350 and initial gradient very wrong at 0.0084346
!  Execution of gamess.106.x from 20-Aug-07, when the open shell
!  EFP code was officially supported, gives exactly the same results.
!  The ultimate fate of a parallel run is crazy wild steps, and
!  eventually a failure to converge the polarizability energy.
!
 $CONTRL RUNTYP=OPTIMIZE COORD=FRAGONLY $END 
 $SYSTEM MWORDS=1 $END
 $STATPT NSTEP=20 $END

 $efrag                                                                         
iscrelec=0 iscrpol=1 iscrdisp=1
FRAGNAME=glycyl
N1                1.0462409653   1.0930095821    .0441591836
H2                1.5982915044   1.8492584062   -.3052270960
H3                 .8548414032   1.2484319160   1.0113942491
FRAGNAME=H2O
O1                3.8201646073   -.6276711389  -4.5805436365
H2                3.5487329769    .2087508178  -4.2448017348
H3                3.5782608517   -.6368690847  -5.4901575190
 $END

 $H2O     
closed shell water, from RHF 6-311++G(d,p), using 6-311++G(d,p)
 COORDINATES 
O1          .2279595351    .0000000000    .0000000000  15.9949100  8.0
H2         1.2957558192    .0000000000  -1.4225934376   1.0078250  1.0
H3         1.2957558192    .0000000000   1.4225934376   1.0078250  1.0
BO21        .7618576771    .0000000000   -.7112967188    .0000000   .0
BO31        .7618576771    .0000000000    .7112967188    .0000000   .0
 STOP
 MONOPOLES 
O1        -7.9249075972   8.00000
H2         -.5398255856   1.00000
H3         -.5398255856   1.00000
BO21       -.4977206158    .00000
BO31       -.4977206158    .00000
 STOP
 DIPOLES 
O1           .7234660527     .0000000000     .0000000000
H2           .0130988401     .0000000000    -.0527835480
H3           .0130988401     .0000000000     .0527835480
BO21        -.1684605021     .0000000000     .1966139265
BO31        -.1684605021     .0000000000    -.1966139265
 STOP
 QUADRUPOLES 
O1         -3.8872714362   -4.5622671438   -3.3814561162     .0000000000 >
     .0000000000     .0000000000
H2          -.2635040251    -.2737298991    -.2684029496     .0000000000 >
    -.0070477951     .0000000000
H3          -.2635040251    -.2737298991    -.2684029496     .0000000000 >
     .0070477951     .0000000000
BO21        -.1932139789    -.2421577543    -.1569062641     .0000000000 >
    -.0461342181     .0000000000
BO31        -.1932139789    -.2421577543    -.1569062641     .0000000000 >
     .0461342181     .0000000000
 STOP
 OCTUPOLES  
O1          1.6535164316     .0000000000     .0000000000     .0000000000 >
     .0000000000     .5517709364     .0000000000     .5348489035 >
     .0000000000     .0000000000
H2          -.0206437943     .0000000000    -.0543092857     .0000000000 >
    -.0157988281    -.0056820955    -.0193232487    -.0092212110 >
     .0000000000     .0000000000
H3          -.0206437943     .0000000000     .0543092857     .0000000000 >
     .0157988281    -.0056820955     .0193232487    -.0092212110 >
     .0000000000     .0000000000
BO21        -.4068869609     .0000000000     .5184576008     .0000000000 >
     .1775432526    -.1354362280     .1698847702    -.1425778089 >
     .0000000000     .0000000000
BO31        -.4068869609     .0000000000    -.5184576008     .0000000000 >
    -.1775432526    -.1354362280    -.1698847702    -.1425778089 >
     .0000000000     .0000000000
 STOP
 POLARIZABLE POINTS
CT1    .8351419063    .0000000007    .7567063176
    1.6936488978     .3917493795    2.6367281388     .0000000008 >
    1.3870128154     .0000000011     .0000000013    1.4651975147 >
     .0000000006
CT2    .8351419067    .0000000011   -.7567063171
    1.6936489001     .3917493795    2.6367281386     .0000000014 >
   -1.3870128186    -.0000000018     .0000000022   -1.4651975177 >
    -.0000000010
CT3   -.0615056585    .4996542916   -.0000000001
    1.2301614213    2.3577056892    1.0734904720    -.8476609841 >
     .0000000006    -.0000000002    -.9527715855     .0000000006 >
    -.0000000001
CT4   -.0615056540   -.4996542934   -.0000000005
    1.2301614026    2.3577057174    1.0734904578     .8476609818 >
     .0000000026     .0000000010     .9527715820     .0000000024 >
     .0000000006
 STOP
 PROJECTION BASIS SET
O1            .2279595351    .0000000000    .0000000000    6.0
   S          6
     1      8588.5000000000  1.20501289
     2      1297.2300000000  2.21620477
     3       299.2960000000  3.62745250
     4        87.3771000000  4.88845231
     5        25.6789000000  4.83572052
     6         3.7400400000   .53822949
   L          3
     7        42.1175000000  1.34195780  5.58401753
     8         9.6283700000  3.58711431  5.73336569
     9         2.8533200000  -.00512347  4.33295474
   L          1
    10          .9056610000   .66165918  1.25935210
   L          1
    11          .2556110000   .25620922   .25906844
   L          1
    12          .0845000000   .11169986   .06493980
   D          1
    13         1.2920000000  2.57702633
  
H2           1.2957558192    .0000000000  -1.4225934376    1.0
   S          3
    14        33.8650000000   .25506932
    15         5.0947900000   .46010866
    16         1.1587900000   .67832145
   S          1
    17          .3258400000   .30737135
   S          1
    18          .1027410000   .12933556
   S          1
    19          .0360000000   .05890294
   P          1
    20          .7500000000   .99487076
  
H3           1.2957558192    .0000000000   1.4225934376    1.0
   S          3
    21        33.8650000000   .25506932
    22         5.0947900000   .46010866
    23         1.1587900000   .67832145
   S          1
    24          .3258400000   .30737135
   S          1
    25          .1027410000   .12933556
   S          1
    26          .0360000000   .05890294
   P          1
    27          .7500000000   .99487076
  
 STOP
 MULTIPLICITY    1
 STOP
 PROJECTION WAVEFUNCTION    4  37
 1  1 5.13100272E-02 8.46272389E-02-1.23717820E-01-3.09606234E-10-1.62079215E-01
 1  2-2.34367473E-01-1.92065177E-01-4.79208695E-10-2.48750377E-01-9.43603741E-02
 1  3-1.31467649E-01-4.43342392E-10-1.46909225E-01 8.00602790E-03-2.57147641E-02
 1  4-8.87709140E-11-9.68742178E-03-9.33526304E-03 8.66118888E-03-3.27410854E-03
 1  5-1.77586633E-11-2.03996382E-02 0.00000000E+00 1.56648573E-02 4.55538582E-02
 1  6 1.77432872E-02 4.81076548E-03-1.46150156E-02-3.59082999E-11-1.21605857E-02
 1  7-1.97056057E-01-2.59579063E-01-1.92404380E-02-1.30791567E-02 2.21204665E-02
 1  8-3.59082999E-11 3.97090483E-02
 2  1-5.13100271E-02-8.46272388E-02 1.23717821E-01 5.21237921E-10-1.62079215E-01
 2  2 2.34367473E-01 1.92065177E-01 8.06772334E-10-2.48750376E-01 9.43603736E-02
 2  3 1.31467649E-01 7.46389580E-10-1.46909225E-01-8.00602790E-03 2.57147641E-02
 2  4 1.49450371E-10-9.68742177E-03 9.33526306E-03-8.66118890E-03 3.27410854E-03
 2  5 2.98976174E-11-2.03996382E-02 0.00000000E+00 1.97056057E-01 2.59579063E-01
 2  6 1.92404380E-02 1.30791567E-02-2.21204665E-02 6.04534585E-11 3.97090484E-02
 2  7-1.56648571E-02-4.55538579E-02-1.77432872E-02-4.81076547E-03 1.46150156E-02
 2  8 6.04534585E-11-1.21605858E-02
 3  1 6.72934887E-02 1.13385038E-01 1.33371440E-01-2.03094388E-01 5.46458904E-11
 3  2-3.31530877E-01 2.00578129E-01-3.14349602E-01 8.38675448E-11-3.32765620E-01
 3  3 1.68195903E-01-2.90822153E-01 4.95312457E-11 1.99830148E-03 3.60304138E-02
 3  4-5.82316260E-02 3.26616703E-12 9.03392759E-03-3.40656101E-03-4.11671534E-03
 3  5-1.16492643E-02 6.87784916E-12 0.00000000E+00 1.25229361E-02 5.33772001E-02
 3  6 9.59791062E-03-3.18367315E-03 1.18908533E-02-2.35549979E-02 8.30793806E-03
 3  7 1.25229362E-02 5.33772002E-02 9.59791064E-03-3.18367315E-03 1.18908533E-02
 3  8-2.35549979E-02-8.30793807E-03
 4  1-6.72934885E-02-1.13385037E-01-1.33371438E-01-2.03094389E-01-2.23538295E-10
 4  2 3.31530876E-01-2.00578127E-01-3.14349604E-01-3.43074434E-10 3.32765618E-01
 4  3-1.68195901E-01-2.90822155E-01-2.02615972E-10-1.99830150E-03-3.60304135E-02
 4  4-5.82316264E-02-1.33608109E-11-9.03392748E-03 3.40656095E-03 4.11671532E-03
 4  5-1.16492644E-02-2.81350100E-11 0.00000000E+00-1.25229355E-02-5.33771992E-02
 4  6-9.59791053E-03 3.18367316E-03-1.18908533E-02-2.35549980E-02-8.30793788E-03
 4  7-1.25229358E-02-5.33771996E-02-9.59791059E-03 3.18367313E-03-1.18908532E-02
 4  8-2.35549980E-02 8.30793792E-03
 FOCK MATRIX ELEMENTS
    -.9234730258     .1906502480    -.9234730255    -.1815185111 >
     .1815185111    -.6716725724     .1815185110    -.1815185112 >
     .1607245644    -.6716725716
 LMO CENTROIDS
CT1    .8351419063    .0000000007    .7567063176
CT2    .8351419067    .0000000011   -.7567063171
CT3   -.0615056585    .4996542916   -.0000000001
CT4   -.0615056540   -.4996542934   -.0000000005
 STOP
 $END
---unused---CANONVEC  5   37
 1  1-5.51481217E-01-4.71418824E-01-1.77795114E-03 0.00000000E+00 0.00000000E+00
 1  2-6.18055333E-03 7.75881147E-04 0.00000000E+00 0.00000000E+00 4.79347184E-04
 1  3-1.54179694E-04 0.00000000E+00 0.00000000E+00-5.45793166E-04-1.28600042E-05
 1  4 0.00000000E+00 0.00000000E+00 4.41707665E-04 2.75398828E-04 5.49465051E-04
 1  5 0.00000000E+00 0.00000000E+00 0.00000000E+00-2.25574853E-04-2.51249153E-04
 1  6 1.83941801E-04 3.25036160E-05 1.01897986E-04 0.00000000E+00-1.89215043E-04
 1  7-2.25574853E-04-2.51249153E-04 1.83941801E-04 3.25036159E-05 1.01897986E-04
 1  8 0.00000000E+00 1.89215043E-04
 2  1 1.13637149E-01 1.89339335E-01-3.78183530E-02 0.00000000E+00 0.00000000E+00
 2  2-5.38356135E-01-6.38829137E-02 0.00000000E+00 0.00000000E+00-3.75963433E-01
 2  3-1.90401553E-02 0.00000000E+00 0.00000000E+00 1.09389831E-02-1.22226011E-03
 2  4 0.00000000E+00 0.00000000E+00-3.67631435E-03 7.38549428E-03-7.10957167E-03
 2  5 0.00000000E+00 0.00000000E+00 0.00000000E+00-9.58311057E-02-8.22329505E-02
 2  6 6.79436408E-03-7.36781695E-03 1.38789521E-02 0.00000000E+00-2.36269145E-02
 2  7-9.58311057E-02-8.22329505E-02 6.79436408E-03-7.36781695E-03 1.38789521E-02
 2  8 0.00000000E+00 2.36269145E-02
 3  1 0.00000000E+00 0.00000000E+00 0.00000000E+00 0.00000000E+00-2.29214624E-01
 3  2 0.00000000E+00 0.00000000E+00 0.00000000E+00-3.51786156E-01 0.00000000E+00
 3  3 0.00000000E+00 0.00000000E+00-2.07761019E-01 0.00000000E+00 0.00000000E+00
 3  4 0.00000000E+00-1.37000833E-02 0.00000000E+00 0.00000000E+00 0.00000000E+00
 3  5 0.00000000E+00-2.88494450E-02 0.00000000E+00 1.50416401E-01 2.15761558E-01
 3  6 2.61514429E-02 1.26500853E-02-2.59759085E-02 0.00000000E+00 1.94797047E-02
 3  7-1.50416401E-01-2.15761558E-01-2.61514429E-02-1.26500853E-02 2.59759085E-02
 3  8 0.00000000E+00 1.94797047E-02
 4  1 3.75348272E-02 6.47030810E-02 2.54475641E-01 0.00000000E+00 0.00000000E+00
 4  2-1.99635519E-01 3.87505108E-01 0.00000000E+00 0.00000000E+00-3.12929980E-01
 4  3 3.01304963E-01 0.00000000E+00 0.00000000E+00-4.06423824E-03 6.25890220E-02
 4  4 0.00000000E+00 0.00000000E+00 1.80000744E-02-1.08947774E-02-2.18820803E-03
 4  5 0.00000000E+00 0.00000000E+00 0.00000000E+00 8.70714116E-02 1.47781551E-01
 4  6 1.17981830E-02-4.12273270E-04 1.08777465E-02 0.00000000E+00 3.04145039E-02
 4  7 8.70714116E-02 1.47781551E-01 1.17981830E-02-4.12273270E-04 1.08777465E-02
 4  8 0.00000000E+00-3.04145039E-02
 5  1 0.00000000E+00 0.00000000E+00 0.00000000E+00-2.87218838E-01 0.00000000E+00
 5  2 0.00000000E+00 0.00000000E+00-4.44557472E-01 0.00000000E+00 0.00000000E+00
 5  3 0.00000000E+00-4.11284635E-01 0.00000000E+00 0.00000000E+00 0.00000000E+00
 5  4-8.23519555E-02 0.00000000E+00 0.00000000E+00 0.00000000E+00 0.00000000E+00
 5  5-1.64745476E-02 0.00000000E+00 0.00000000E+00 0.00000000E+00 0.00000000E+00
 5  6 0.00000000E+00 0.00000000E+00 0.00000000E+00-3.33117976E-02 0.00000000E+00
 5  7 0.00000000E+00 0.00000000E+00 0.00000000E+00 0.00000000E+00 0.00000000E+00
 5  8-3.33117976E-02 0.00000000E+00
 6  1 1.65321394E-02 2.68574160E-02-3.32877533E-02 0.00000000E+00 0.00000000E+00
 6  2-1.05637225E-01-4.88890670E-02 0.00000000E+00 0.00000000E+00 1.57705497E-02
 6  3-8.44774827E-02 0.00000000E+00 0.00000000E+00-9.89965101E-01-6.60349113E-02
 6  4 0.00000000E+00 0.00000000E+00-8.65185717E-03-5.23755636E-03-5.20535512E-03
 6  5 0.00000000E+00 0.00000000E+00 0.00000000E+00-3.10986062E-03 5.85455394E-02
 6  6 6.09056576E-02 8.25668331E-01 8.27921279E-03 0.00000000E+00-1.19635460E-02
 6  7-3.10986062E-03 5.85455394E-02 6.09056576E-02 8.25668331E-01 8.27921279E-03
 6  8 0.00000000E+00 1.19635460E-02
 7  1 0.00000000E+00 0.00000000E+00 0.00000000E+00 0.00000000E+00-3.70042447E-02
 7  2 0.00000000E+00 0.00000000E+00 0.00000000E+00-7.02344380E-02 0.00000000E+00
 7  3 0.00000000E+00 0.00000000E+00 1.85650659E-02 0.00000000E+00 0.00000000E+00
 7  4 0.00000000E+00-4.80012286E-01 0.00000000E+00 0.00000000E+00 0.00000000E+00
 7  5 0.00000000E+00-1.98206903E-04 0.00000000E+00 1.26449840E-02-1.18831236E-02
 7  6 3.45704198E-02-2.54373035E+00-9.92792383E-03 0.00000000E+00 1.03239692E-02
 7  7-1.26449840E-02 1.18831236E-02-3.45704198E-02 2.54373035E+00 9.92792383E-03
 7  8 0.00000000E+00 1.03239692E-02
 8  1-9.21986600E-03-1.70501159E-02-9.27501949E-02 0.00000000E+00 0.00000000E+00
 8  2 6.57168879E-02-8.36203642E-02 0.00000000E+00 0.00000000E+00-7.62337324E-02
 8  3-5.87313554E-01 0.00000000E+00 0.00000000E+00 2.76197246E+00 2.15210997E+00
 8  4 0.00000000E+00 0.00000000E+00-1.16244961E-02 1.19632916E-02-1.00383379E-02
 8  5 0.00000000E+00 0.00000000E+00 0.00000000E+00-1.74072713E-02 1.10195637E-01
 8  6-1.63657923E+00-1.10144389E-01 2.00529970E-03 0.00000000E+00 2.60877122E-02
 8  7-1.74072713E-02 1.10195637E-01-1.63657923E+00-1.10144389E-01 2.00529970E-03
 8  8 0.00000000E+00-2.60877122E-02
 9  1 0.00000000E+00 0.00000000E+00 0.00000000E+00-1.15299210E-01 0.00000000E+00
 9  2 0.00000000E+00 0.00000000E+00-9.56216181E-02 0.00000000E+00 0.00000000E+00
 9  3 0.00000000E+00-5.90969904E-01 0.00000000E+00 0.00000000E+00 0.00000000E+00
 9  4 1.28114524E+00 0.00000000E+00 0.00000000E+00 0.00000000E+00 0.00000000E+00
 9  5-7.01581068E-03 0.00000000E+00 0.00000000E+00 0.00000000E+00 0.00000000E+00
 9  6 0.00000000E+00 0.00000000E+00 0.00000000E+00 1.16329847E-02 0.00000000E+00
 9  7 0.00000000E+00 0.00000000E+00 0.00000000E+00 0.00000000E+00 0.00000000E+00
 9  8 1.16329847E-02 0.00000000E+00
10  1 3.17240457E-02 5.91182704E-02-7.90408177E-02 0.00000000E+00 0.00000000E+00
10  2-1.33716528E-01-1.09321310E-01 0.00000000E+00 0.00000000E+00-7.18747125E-01
10  3-1.71898746E-01 0.00000000E+00 0.00000000E+00-3.73251239E+00-1.42553036E+00
10  4 0.00000000E+00 0.00000000E+00 1.37876225E-02 8.14216341E-03 2.94152924E-02
10  5 0.00000000E+00 0.00000000E+00 0.00000000E+00 6.46065331E-02-1.75367483E-01
10  6 3.50512624E+00-7.11965404E-01 4.49439533E-03 0.00000000E+00-3.03486181E-02
10  7 6.46065331E-02-1.75367483E-01 3.50512624E+00-7.11965404E-01 4.49439533E-03
10  8 0.00000000E+00 3.03486181E-02
11  1 0.00000000E+00 0.00000000E+00 0.00000000E+00 0.00000000E+00-6.07255578E-02
11  2 0.00000000E+00 0.00000000E+00 0.00000000E+00-8.53876506E-02 0.00000000E+00
11  3 0.00000000E+00 0.00000000E+00-5.56649876E-03 0.00000000E+00 0.00000000E+00
11  4 0.00000000E+00-2.80407316E+00 0.00000000E+00 0.00000000E+00 0.00000000E+00
11  5 0.00000000E+00 2.44333736E-02 0.00000000E+00-6.43010172E-02 2.03846819E-01
11  6-3.85444714E+00 3.31439884E-01-3.23268272E-02 0.00000000E+00 1.09841286E-02
11  7 6.43010172E-02-2.03846819E-01 3.85444714E+00-3.31439884E-01 3.23268272E-02
11  8 0.00000000E+00 1.09841286E-02
12  1 0.00000000E+00 0.00000000E+00 0.00000000E+00 0.00000000E+00 1.25106297E-01
12  2 0.00000000E+00 0.00000000E+00 0.00000000E+00 1.30107116E-01 0.00000000E+00
12  3 0.00000000E+00 0.00000000E+00 7.17937283E-01 0.00000000E+00 0.00000000E+00
12  4 0.00000000E+00-1.88570703E+00 0.00000000E+00 0.00000000E+00 0.00000000E+00
12  5 0.00000000E+00 1.80416404E-02 0.00000000E+00 6.23884351E-03 2.63901543E-02
12  6 1.75476656E-01-2.09685036E+00-6.53228846E-03 0.00000000E+00-4.50116901E-03
12  7-6.23884351E-03-2.63901543E-02-1.75476656E-01 2.09685036E+00 6.53228846E-03
12  8 0.00000000E+00-4.50116901E-03
13  1-2.67486105E-02-5.42620449E-02-1.61128084E-02 0.00000000E+00 0.00000000E+00
13  2 6.08877503E-02 2.89700142E-02 0.00000000E+00 0.00000000E+00 1.37873611E+00
13  3-4.88158704E-02 0.00000000E+00 0.00000000E+00-8.78840695E+00-2.16264769E+00
13  4 0.00000000E+00 0.00000000E+00-3.03064776E-02-5.09444251E-02-1.16158690E-02
13  5 0.00000000E+00 0.00000000E+00 0.00000000E+00 1.45618050E-02-2.00045855E-01
13  6 3.90574755E+00 5.00222619E-01 1.05628211E-02 0.00000000E+00-2.70264329E-02
13  7 1.45618050E-02-2.00045855E-01 3.90574755E+00 5.00222619E-01 1.05628211E-02
13  8 0.00000000E+00 2.70264329E-02
14  1 0.00000000E+00 0.00000000E+00 0.00000000E+00 0.00000000E+00 1.39487646E-01
14  2 0.00000000E+00 0.00000000E+00 0.00000000E+00 2.39346497E-01 0.00000000E+00
14  3 0.00000000E+00 0.00000000E+00 1.21907293E+00 0.00000000E+00 0.00000000E+00
14  4 0.00000000E+00-1.64195801E+00 0.00000000E+00 0.00000000E+00 0.00000000E+00
14  5 0.00000000E+00-2.02993919E-02 0.00000000E+00 8.96818141E-02 1.75496376E+00
14  6-3.12077780E+00 5.39255650E-01 1.35710650E-02 0.00000000E+00 1.96484843E-02
14  7-8.96818141E-02-1.75496376E+00 3.12077780E+00-5.39255650E-01-1.35710650E-02
14  8 0.00000000E+00 1.96484843E-02
15  1 3.57183797E-02 6.08746692E-02-1.02807871E-01 0.00000000E+00 0.00000000E+00
15  2-1.66862515E-01-2.07342346E-01 0.00000000E+00 0.00000000E+00-1.43820789E+00
15  3-1.06739849E+00 0.00000000E+00 0.00000000E+00 4.26504252E+00 1.52147580E+00
15  4 0.00000000E+00 0.00000000E+00-1.86144587E-02-1.50056136E-02 1.14336984E-02
15  5 0.00000000E+00 0.00000000E+00 0.00000000E+00 7.93509154E-02 2.10351853E+00
15  6-3.60019264E+00 3.48932563E-01-3.97678676E-02 0.00000000E+00 1.82370495E-02
15  7 7.93509154E-02 2.10351853E+00-3.60019264E+00 3.48932563E-01-3.97678676E-02
15  8 0.00000000E+00-1.82370495E-02
16  1-6.38178054E-03-7.32616295E-03 2.33684689E-01 0.00000000E+00 0.00000000E+00
16  2 2.39451205E-01 7.17431435E-01 0.00000000E+00 0.00000000E+00-1.81827063E+00
16  3-2.12623852E+00 0.00000000E+00 0.00000000E+00 1.91291289E+00 1.20810027E+00
16  4 0.00000000E+00 0.00000000E+00 1.84295491E-02 3.79329099E-02 1.34253249E-02
16  5 0.00000000E+00 0.00000000E+00 0.00000000E+00 3.37563038E-02 9.74973436E-01
16  6-9.21280107E-01-1.24142224E-01-2.04446140E-01 0.00000000E+00 1.63516618E-01
16  7 3.37563038E-02 9.74973436E-01-9.21280107E-01-1.24142224E-01-2.04446140E-01
16  8 0.00000000E+00-1.63516618E-01
17  1 0.00000000E+00 0.00000000E+00 0.00000000E+00 0.00000000E+00-2.28101640E-01
17  2 0.00000000E+00 0.00000000E+00 0.00000000E+00-7.06896765E-01 0.00000000E+00
17  3 0.00000000E+00 0.00000000E+00 2.34366878E+00 0.00000000E+00 0.00000000E+00
17  4 0.00000000E+00-1.44462453E+00 0.00000000E+00 0.00000000E+00 0.00000000E+00
17  5 0.00000000E+00 1.73247398E-02 0.00000000E+00 4.20023699E-02 6.72492563E-01
17  6-3.02416511E-01-9.13321860E-01-1.31812879E-01 0.00000000E+00 1.99812336E-01
17  7-4.20023699E-02-6.72492563E-01 3.02416511E-01 9.13321860E-01 1.31812879E-01
17  8 0.00000000E+00 1.99812336E-01
18  1 0.00000000E+00 0.00000000E+00 0.00000000E+00 2.47023064E-01 0.00000000E+00
18  2 0.00000000E+00 0.00000000E+00 8.89565680E-01 0.00000000E+00 0.00000000E+00
18  3 0.00000000E+00-1.61551447E+00 0.00000000E+00 0.00000000E+00 0.00000000E+00
18  4 7.34549001E-01 0.00000000E+00 0.00000000E+00 0.00000000E+00 0.00000000E+00
18  5 5.45690895E-03 0.00000000E+00 0.00000000E+00 0.00000000E+00 0.00000000E+00
18  6 0.00000000E+00 0.00000000E+00 0.00000000E+00-6.72972586E-03 0.00000000E+00
18  7 0.00000000E+00 0.00000000E+00 0.00000000E+00 0.00000000E+00 0.00000000E+00
18  8-6.72972586E-03 0.00000000E+00
19  1 6.41064689E-02 8.51511651E-02 3.52141751E-02 0.00000000E+00 0.00000000E+00
19  2-9.18526563E-01 2.40642048E-01 0.00000000E+00 0.00000000E+00 2.07540787E+00
19  3-7.24974481E-01 0.00000000E+00 0.00000000E+00-2.29124621E+00-1.87408365E-01
19  4 0.00000000E+00 0.00000000E+00-5.09677359E-02-1.57758786E-01-2.06801913E-01
19  5 0.00000000E+00 0.00000000E+00 0.00000000E+00-4.48710953E-02 2.75252633E-02
19  6 5.08904768E-01 2.41809234E-01 4.68362487E-01 0.00000000E+00 2.37593492E-01
19  7-4.48710953E-02 2.75252633E-02 5.08904768E-01 2.41809234E-01 4.68362487E-01
19  8 0.00000000E+00-2.37593492E-01
20  1 0.00000000E+00 0.00000000E+00 0.00000000E+00 0.00000000E+00 0.00000000E+00
20  2 0.00000000E+00 0.00000000E+00 0.00000000E+00 0.00000000E+00 0.00000000E+00
20  3 0.00000000E+00 0.00000000E+00 0.00000000E+00 0.00000000E+00 0.00000000E+00
20  4 0.00000000E+00 0.00000000E+00 0.00000000E+00 0.00000000E+00 0.00000000E+00
20  5 0.00000000E+00 0.00000000E+00-1.22904975E-01 0.00000000E+00 0.00000000E+00
20  6 0.00000000E+00 0.00000000E+00 0.00000000E+00 6.88723561E-01 0.00000000E+00
20  7 0.00000000E+00 0.00000000E+00 0.00000000E+00 0.00000000E+00 0.00000000E+00
20  8-6.88723561E-01 0.00000000E+00
21  1-7.29196118E-02-9.64801626E-02-2.85603705E-02 0.00000000E+00 0.00000000E+00
21  2 1.20465646E+00-1.83797344E-01 0.00000000E+00 0.00000000E+00-4.09323302E+00
21  3-1.27879516E+00 0.00000000E+00 0.00000000E+00 3.42246186E+00 7.88640555E-01
21  4 0.00000000E+00 0.00000000E+00 2.58709957E-01 1.43284959E-01 9.62378597E-02
21  5 0.00000000E+00 0.00000000E+00 0.00000000E+00-2.22493500E-02 1.56645164E+00
21  6-1.44696677E+00-1.92012488E-01 2.53291696E-01 0.00000000E+00 5.17908076E-01
21  7-2.22493500E-02 1.56645164E+00-1.44696677E+00-1.92012488E-01 2.53291696E-01
21  8 0.00000000E+00-5.17908076E-01
22  1 0.00000000E+00 0.00000000E+00 0.00000000E+00 3.17601610E-02 0.00000000E+00
22  2 0.00000000E+00 0.00000000E+00 9.47592516E-03 0.00000000E+00 0.00000000E+00
22  3 0.00000000E+00 7.13832250E-01 0.00000000E+00 0.00000000E+00 0.00000000E+00
22  4-1.20835234E-01 0.00000000E+00 0.00000000E+00 0.00000000E+00 0.00000000E+00
22  5-1.49387392E-01 0.00000000E+00 0.00000000E+00 0.00000000E+00 0.00000000E+00
22  6 0.00000000E+00 0.00000000E+00 0.00000000E+00-7.75686034E-01 0.00000000E+00
22  7 0.00000000E+00 0.00000000E+00 0.00000000E+00 0.00000000E+00 0.00000000E+00
22  8-7.75686034E-01 0.00000000E+00
23  1 0.00000000E+00 0.00000000E+00 0.00000000E+00 0.00000000E+00 1.23596533E-02
23  2 0.00000000E+00 0.00000000E+00 0.00000000E+00 5.97181792E-02 0.00000000E+00
23  3 0.00000000E+00 0.00000000E+00-1.16752741E+00 0.00000000E+00 0.00000000E+00
23  4 0.00000000E+00 4.37290789E-01 0.00000000E+00 0.00000000E+00 0.00000000E+00
23  5 0.00000000E+00-4.28040034E-02 0.00000000E+00 9.78513193E-02-8.20052602E-01
23  6 6.05180673E-01-7.93189423E-03 6.74003648E-01 0.00000000E+00 4.83121921E-01
23  7-9.78513193E-02 8.20052602E-01-6.05180673E-01 7.93189423E-03-6.74003648E-01
23  8 0.00000000E+00 4.83121921E-01
24  1 0.00000000E+00 0.00000000E+00 0.00000000E+00 0.00000000E+00-1.82840899E-01
24  2 0.00000000E+00 0.00000000E+00 0.00000000E+00-6.19386427E-01 0.00000000E+00
24  3 0.00000000E+00 0.00000000E+00 1.64469982E-01 0.00000000E+00 0.00000000E+00
24  4 0.00000000E+00-4.45541766E-01 0.00000000E+00 0.00000000E+00 0.00000000E+00
24  5 0.00000000E+00 2.18968655E-01 0.00000000E+00-6.18036493E-01 7.12080858E-01
24  6-1.27518122E+00 3.46865541E-01 5.07444822E-01 0.00000000E+00-4.40762252E-01
24  7 6.18036493E-01-7.12080858E-01 1.27518122E+00-3.46865541E-01-5.07444822E-01
24  8 0.00000000E+00-4.40762252E-01
25  1-4.53470579E-02-7.06292827E-02 1.46043634E-01 0.00000000E+00 0.00000000E+00
25  2 5.24190840E-01 5.16955935E-01 0.00000000E+00 0.00000000E+00 5.57106358E-01
25  3 8.78548237E-02 0.00000000E+00 0.00000000E+00 7.57985071E-01 2.44296620E-01
25  4 0.00000000E+00 0.00000000E+00-7.02078370E-03 3.46885890E-01-1.04584338E-01
25  5 0.00000000E+00 0.00000000E+00 0.00000000E+00-5.76797708E-01 2.81690277E-01
25  6-9.10101095E-01 1.40738081E-01 4.06942598E-01 0.00000000E+00-6.86070984E-01
25  7-5.76797708E-01 2.81690277E-01-9.10101095E-01 1.40738081E-01 4.06942598E-01
25  8 0.00000000E+00 6.86070984E-01
26  1-1.34969135E-02 1.01186189E-02-5.24660279E-02 0.00000000E+00 0.00000000E+00
26  2 2.78373527E-01 5.89756756E-01 0.00000000E+00 0.00000000E+00 2.52100871E+00
26  3 1.10089178E+00 0.00000000E+00 0.00000000E+00-2.52120625E+00-8.12324863E-01
26  4 0.00000000E+00 0.00000000E+00 1.43185198E-01 7.40400213E-02 2.95067440E-01
26  5 0.00000000E+00 0.00000000E+00 0.00000000E+00 9.31465984E-01-3.03068514E+00
26  6 2.19959305E+00-1.93726563E-01 5.76541423E-01 0.00000000E+00-8.07177842E-01
26  7 9.31465984E-01-3.03068514E+00 2.19959305E+00-1.93726563E-01 5.76541423E-01
26  8 0.00000000E+00 8.07177842E-01
27  1 0.00000000E+00 0.00000000E+00 0.00000000E+00 0.00000000E+00-3.22828962E-02
27  2 0.00000000E+00 0.00000000E+00 0.00000000E+00 8.81540801E-01 0.00000000E+00
27  3 0.00000000E+00 0.00000000E+00 1.07488619E+00 0.00000000E+00 0.00000000E+00
27  4 0.00000000E+00-6.64819400E-01 0.00000000E+00 0.00000000E+00 0.00000000E+00
27  5 0.00000000E+00 2.72495140E-01 0.00000000E+00-8.89290317E-01 2.63992300E+00
27  6-1.66857429E+00 3.44217992E-01-6.57082523E-01 0.00000000E+00 8.70901917E-01
27  7 8.89290317E-01-2.63992300E+00 1.66857429E+00-3.44217992E-01 6.57082523E-01
27  8 0.00000000E+00 8.70901917E-01
28  1 0.00000000E+00 0.00000000E+00 0.00000000E+00 5.22765170E-03 0.00000000E+00
28  2 0.00000000E+00 0.00000000E+00-1.32141203E-02 0.00000000E+00 0.00000000E+00
28  3 0.00000000E+00 3.31574236E-01 0.00000000E+00 0.00000000E+00 0.00000000E+00
28  4-5.88591546E-02 0.00000000E+00 0.00000000E+00 0.00000000E+00 0.00000000E+00
28  5 1.03670337E+00 0.00000000E+00 0.00000000E+00 0.00000000E+00 0.00000000E+00
28  6 0.00000000E+00 0.00000000E+00 0.00000000E+00-3.71335089E-01 0.00000000E+00
28  7 0.00000000E+00 0.00000000E+00 0.00000000E+00 0.00000000E+00 0.00000000E+00
28  8-3.71335089E-01 0.00000000E+00
29  1 0.00000000E+00 0.00000000E+00 0.00000000E+00 0.00000000E+00 0.00000000E+00
29  2 0.00000000E+00 0.00000000E+00 0.00000000E+00 0.00000000E+00 0.00000000E+00
29  3 0.00000000E+00 0.00000000E+00 0.00000000E+00 0.00000000E+00 0.00000000E+00
29  4 0.00000000E+00 0.00000000E+00 0.00000000E+00 0.00000000E+00 0.00000000E+00
29  5 0.00000000E+00 0.00000000E+00 1.06048190E+00 0.00000000E+00 0.00000000E+00
29  6 0.00000000E+00 0.00000000E+00 0.00000000E+00 3.52538351E-01 0.00000000E+00
29  7 0.00000000E+00 0.00000000E+00 0.00000000E+00 0.00000000E+00 0.00000000E+00
29  8-3.52538351E-01 0.00000000E+00
30  1 1.98040811E-03 2.65973122E-03-2.38737788E-02 0.00000000E+00 0.00000000E+00
30  2 3.27198818E-02-5.47458535E-02 0.00000000E+00 0.00000000E+00-8.84182233E-01
30  3-7.62411452E-01 0.00000000E+00 0.00000000E+00 3.94098781E-01 2.00784368E-01
30  4 0.00000000E+00 0.00000000E+00-1.08553356E+00 4.25895409E-01 6.43287231E-01
30  5 0.00000000E+00 0.00000000E+00 0.00000000E+00-2.06426203E-02 6.77146063E-01
30  6-3.18295742E-01 1.51349498E-02 2.48645899E-01 0.00000000E+00 4.25856543E-01
30  7-2.06426203E-02 6.77146063E-01-3.18295742E-01 1.51349498E-02 2.48645899E-01
30  8 0.00000000E+00-4.25856543E-01
31  1 2.65319258E-02 6.44570077E-02-3.07765922E-01 0.00000000E+00 0.00000000E+00
31  2-1.82904761E-01-1.50184303E-01 0.00000000E+00 0.00000000E+00-2.74270829E+00
31  3-1.27164520E+00 0.00000000E+00 0.00000000E+00 1.73592640E+00 6.27677727E-01
31  4 0.00000000E+00 0.00000000E+00-6.81181508E-02 1.08257630E+00-9.03464931E-01
31  5 0.00000000E+00 0.00000000E+00 0.00000000E+00 3.03325007E-01 1.50679340E+00
31  6-8.97510149E-01-5.89987095E-02-5.11070618E-01 0.00000000E+00 6.78511530E-01
31  7 3.03325007E-01 1.50679340E+00-8.97510149E-01-5.89987095E-02-5.11070618E-01
31  8 0.00000000E+00-6.78511530E-01
32  1 0.00000000E+00 0.00000000E+00 0.00000000E+00 0.00000000E+00 4.41178408E-01
32  2 0.00000000E+00 0.00000000E+00 0.00000000E+00-1.07326225E-02 0.00000000E+00
32  3 0.00000000E+00 0.00000000E+00 1.27166265E+00 0.00000000E+00 0.00000000E+00
32  4 0.00000000E+00-5.83828596E-01 0.00000000E+00 0.00000000E+00 0.00000000E+00
32  5 0.00000000E+00 1.18872354E+00 0.00000000E+00 4.14860272E-01 7.48611955E-01
32  6-2.39679177E-01-3.08458366E-01-3.87432548E-01 0.00000000E+00 5.14692074E-01
32  7-4.14860272E-01-7.48611955E-01 2.39679177E-01 3.08458366E-01 3.87432548E-01
32  8 0.00000000E+00 5.14692074E-01
33  1 0.00000000E+00 0.00000000E+00 0.00000000E+00-1.28312016E+00 0.00000000E+00
33  2 0.00000000E+00 0.00000000E+00 1.49098360E+00 0.00000000E+00 0.00000000E+00
33  3 0.00000000E+00-7.77353892E-01 0.00000000E+00 0.00000000E+00 0.00000000E+00
33  4 2.87850729E-01 0.00000000E+00 0.00000000E+00 0.00000000E+00 0.00000000E+00
33  5 1.54813345E-02 0.00000000E+00 0.00000000E+00 0.00000000E+00 0.00000000E+00
33  6 0.00000000E+00 0.00000000E+00 0.00000000E+00-4.20329710E-02 0.00000000E+00
33  7 0.00000000E+00 0.00000000E+00 0.00000000E+00 0.00000000E+00 0.00000000E+00
33  8-4.20329710E-02 0.00000000E+00
34  1 5.38347969E-02 1.89844461E-01 1.22649934E+00 0.00000000E+00 0.00000000E+00
34  2-7.10352368E-01-1.71808881E+00 0.00000000E+00 0.00000000E+00-1.58424383E+00
34  3 2.65563227E-01 0.00000000E+00 0.00000000E+00 9.07110612E-01-1.57114071E-02
34  4 0.00000000E+00 0.00000000E+00 2.76042538E-01 6.68281044E-01 9.61118359E-02
34  5 0.00000000E+00 0.00000000E+00 0.00000000E+00 2.26489866E-01 5.88448565E-01