! ROHF MAKEFP Run for glycyl radical...test case from Dan
! the results below are in the log file, not the generated $FRAGNAME group.
!  
! Final ROHF Energy: -282.8116162431
! MEAN ALPHA POLARIZABILITY =      .224930199, for bond of atoms 8-9,
!     this is the 2nd place "MEAN ALPHA" appears in the log file.
!
! Results after Stone's DMA:
!  FIRST MOMENTS AT POINTS
!  N1        -.00683        .22811        .12340
! SECOND MOMENTS AT POINTS
!  N1       -3.95559   -5.41433   -4.01852    -.21744    -.02872    -.30376
! THIRD MOMENTS AT POINTS
!  N1        -.31669    -.16012     .46367     .01872     .14351    -.04752
!             .17489    -.08253    -.07070     .00509
!
!  answers last updated July 2016 (little changed since March 2008)
!  this run takes 114 seconds on a 2.66 GHz Cloverton (7 Jul 2016)
!
 $CONTRL SCFTYP=ROHF MULT=2 RUNTYP=MAKEFP LOCAL=BOYS $END 
 $SYSTEM MWORDS=5 $END
 $BASIS  gbasis=N311 NGAUSS=6 NDFUNC=1 NPFUNC=1 DIFFS=.T.  DIFFSP=.T.  $END 
 $scf    dirscf=.true. $end
 
 $data
Glycyl MAKE EFP after full geometry optimization
C1  
N1          7.0   -.3807608159   -.1335217640   -.1537292959
H2          1.0   -.5339828135    .3323813421  -1.0207272475
H3          1.0  -1.0984383810   -.0272737970    .5244759765
C4          6.0    .9093513074   -.1965376889    .2777086532
H5          1.0   1.1221492420   -.5440886085   1.2668105339
C6          6.0   1.9621998196    .1044036887   -.6570540276
O7          8.0   1.7828691718    .4879216847  -1.7742222286
O8          8.0   3.1806713596   -.0779801326   -.1492120125
H9          1.0   3.8140306500    .1472351755   -.8136840316
 $END

----------- here is a copy of the EFP potential this run generates ----------
          RUNTYP=MAKEFP EFFECTIVE FRAGMENT POTENTIAL DATA FOLLOWS...
          FRAGNAMEEFP GENERATED AT Fri Jul 15 14:12:53 2016
 $FRAGNAME
EFP DATA FOR FRAGNAME SCFTYP=ROHF    ... GENERATED WITH BASIS SET=XXX
 COORDINATES (BOHR)
A01N1     -0.7195336089  -0.2523195474  -0.2905062455  14.0030700  7.0
A02H2     -1.0090811997   0.6281096600  -1.9288948060   1.0078250  1.0
A03H3     -2.0757475545  -0.0515400030   0.9911158827   1.0078250  1.0
A04C4      1.7184247976  -0.3714023783   0.5247932590  12.0000000  6.0
A05H5      2.1205545847  -1.0281783831   2.3939247874   1.0078250  1.0
A06C6      3.7080199922   0.1972943638  -1.2416520713  12.0000000  6.0
A07O7      3.3691342067   0.9220382876  -3.3527938534  15.9949100  8.0
A08O8      6.0105973266  -0.1473610831  -0.2819698177  15.9949100  8.0
A09H9      7.2074728373   0.2782341374  -1.5376398603   1.0078250  1.0
BO21      -0.8643074043   0.1878950563  -1.1097005258   0.0000000  0.0
BO31      -1.3976405817  -0.1519297752   0.3503048186   0.0000000  0.0
BO41       0.4994455943  -0.3118609628   0.1171435067   0.0000000  0.0
BO54       1.9194896911  -0.6997903807   1.4593590232   0.0000000  0.0
BO64       2.7132223949  -0.0870540073  -0.3584294062   0.0000000  0.0
BO76       3.5385770994   0.5596663257  -2.2972229623   0.0000000  0.0
BO86       4.8593086594   0.0249666403  -0.7618109445   0.0000000  0.0
BO98       6.6090350820   0.0654365272  -0.9098048390   0.0000000  0.0
 STOP
 MONOPOLES 
A01N1     -6.7054113695   7.00000
A02H2     -0.5469461607   1.00000
A03H3     -0.5609675188   1.00000
A04C4     -5.9964503610   6.00000
A05H5     -0.5837791791   1.00000
A06C6     -5.1109832180   6.00000
A07O7     -8.4950291545   8.00000
A08O8     -8.1693263814   8.00000
A09H9     -0.4833642784   1.00000
BO21      -0.5236666882   0.00000
BO31      -0.5682310240   0.00000
BO41      -0.0473442624   0.00000
BO54      -0.6734053137   0.00000
BO64       0.4126468254   0.00000
BO76      -0.4284921209   0.00000
BO86      -0.0248839402   0.00000
BO98      -0.4943658546   0.00000
 STOP
 DIPOLES 
A01N1      -0.0068342346    0.2281068126    0.1233989917
A02H2      -0.0072667856    0.0309981610   -0.0730796248
A03H3      -0.0542921273    0.0019285448    0.0510526795
A04C4      -0.4087121124   -0.3673745585    0.5086574119
A05H5       0.0163252699   -0.0182675702    0.0521270179
A06C6       0.6575091301    0.1018897742   -0.3783926758
A07O7      -0.0174718102   -0.1915562968    0.5192714900
A08O8       0.0184047085    0.1788157179   -0.5124214153
A09H9       0.0321763791    0.0079946233   -0.0239703202
BO21        0.0403071413   -0.0124006266    0.2502915441
BO31        0.1657801899   -0.0606221409   -0.1989075765
BO41        0.0644846439    0.0527094236   -0.0714330437
BO54       -0.0626034084    0.1117440403   -0.2638623506
BO64       -0.5303119420    0.1133326125   -0.0411555462
BO76       -0.1198291277    0.0894228798   -0.2178269881
BO86        0.1649516843    0.0264461205   -0.0888863836
BO98       -0.1547865105   -0.0712629259    0.2156361812
 STOP
 QUADRUPOLES 
A01N1      -3.9555953029   -5.4143293249   -4.0185214644   -0.2174427918 >
           -0.0287193081   -0.3037633404
A02H2      -0.2923617412   -0.3163225670   -0.3153537808   -0.0025943494 >
            0.0043893281   -0.0012653576
A03H3      -0.3170977450   -0.3273098323   -0.3192179843   -0.0022911721 >
            0.0023934178   -0.0018428324
A04C4      -6.4782279552   -7.6261843728   -6.9893480033   -0.0715518740 >
            0.1808509874   -0.1505162406
A05H5      -0.3598577559   -0.3650514379   -0.3630687526    0.0004336795 >
           -0.0006670983   -0.0007006554
A06C6      -5.3178744680   -4.6223058607   -4.7077539261   -0.1150897400 >
            0.4115473816    0.0233675252
A07O7      -5.0127462631   -4.5630637168   -4.1066129184   -0.0256298173 >
            0.0907097088   -0.1798622453
A08O8      -3.7713020848   -4.6512402657   -4.2152528132    0.0365751057 >
           -0.1404003446   -0.1701285050
A09H9      -0.2322605905   -0.2414450213   -0.2367350239    0.0015784814 >
           -0.0048567962   -0.0018752490
BO21       -0.2058802103   -0.2865507761   -0.2298842570    0.0257278568 >
           -0.0052043491    0.0100466335
BO31       -0.3443335130   -0.3517560275   -0.3315623091   -0.0005018787 >
            0.0074279549    0.0050164369
BO41        1.4976888891    1.9381061518    1.4194007580    0.0041671450 >
            0.0706630102    0.1439263725
BO54       -0.6073029291   -0.6400511520   -0.7053030842    0.0111873639 >
           -0.0178994506    0.0248851462
BO64        4.0684316556    4.0761110119    3.9302183016   -0.1294644710 >
            0.3626216158    0.0677462195
BO76        0.1390916681   -0.0153579781    0.6073887373   -0.0004280609 >
           -0.0589962935   -0.2485386359
BO86        1.0128981116    0.9245653251    1.0410748293    0.0545367529 >
           -0.1810127486   -0.0475992110
BO98       -0.2055176344   -0.2656618037   -0.2106782632    0.0134755354 >
           -0.0421583403   -0.0199133591
 STOP
 OCTUPOLES  
A01N1        -0.316692225     -0.160134725      0.463665624      0.018708507 >
              0.143513131     -0.047517568      0.174892615     -0.082532847 >
             -0.070704180      0.005091489
A02H2         0.057044331      0.041490659     -0.088414209      0.009658626 >
             -0.020607279      0.008276413     -0.030703786      0.009106381 >
              0.008671337     -0.001594944
A03H3        -0.060099818     -0.003782649      0.064330759     -0.002972858 >
              0.019488956     -0.023878829      0.024805224     -0.019223529 >
             -0.000878284      0.000380180
A04C4        -2.069835401     -4.507884931      7.325095125     -1.538787634 >
              2.679340812     -0.650738967      2.460443812     -0.757381297 >
             -1.464112968      0.023859363
A05H5         0.026785656     -0.020450303      0.059597809     -0.006261816 >
              0.019820879      0.009350171      0.021026859      0.008654152 >
             -0.005022624      0.000210187
A06C6         7.013574121      1.172422919     -4.505504081      0.386143727 >
             -1.524316554      2.405908746     -1.513629909      2.398083291 >
              0.383391308      0.003913664
A07O7        -0.273281165     -0.431744679      1.147781643     -0.135488474 >
              0.340940516     -0.091970184      0.368632569     -0.102456614 >
             -0.155124979      0.002289611
A08O8         0.244228436      0.331073449     -0.910298267      0.105558385 >
             -0.270038380      0.083900460     -0.300581069      0.091371347 >
              0.112586606      0.000849051
A09H9         0.001847732     -0.000088241      0.002102853     -0.000879413 >
              0.002476011      0.002758875      0.000075296      0.001250212 >
             -0.000993898      0.000596096
BO21          0.127444876      0.314317206      0.669983388      0.133628310 >
              0.222818917     -0.001874256      0.213954344      0.024915568 >
              0.089011440     -0.005438051
BO31          0.171043040     -0.406397339     -0.499456189     -0.136915168 >
             -0.176535102      0.051388711     -0.161833534      0.075718671 >
             -0.137546184      0.005546841
BO41         -0.293321532      1.317664858     -0.548096259      0.397556988 >
             -0.153556436     -0.109771902     -0.135491563     -0.210884682 >
              0.408544099      0.027147423
BO54         -0.192656189      0.100322122      0.014299155      0.030816187 >
              0.029385936     -0.063119839      0.014855438     -0.073641557 >
              0.051700652      0.004352372
BO64         -8.076738570      1.672514611     -0.565380800      0.538091461 >
             -0.218302903     -2.720700366     -0.242380696     -2.707395865 >
              0.514008845     -0.000340339
BO76         -0.770013112      0.374882710     -1.089639603      0.140145761 >
             -0.210487867     -0.183379416     -0.289493477     -0.240200933 >
              0.244460470      0.003061293
BO86          2.130595819      0.214404038     -0.887402513      0.041145629 >
             -0.153978310      0.683523202     -0.257666242      0.764388277 >
              0.123474430     -0.034221689
BO98         -0.386943469     -0.197195860      0.652581694     -0.064533405 >
              0.209083127     -0.126697882      0.213441119     -0.136977546 >
             -0.071800118      0.003762368
 STOP
 POLARIZABLE POINTS
CT1   6.6295081895   0.0855981229  -0.9685614284
    2.5773062580    0.5163237666    1.4600816421    0.4570963491 >
   -1.3644283597   -0.3598600675    0.2389985400   -0.7370552183 >
   -0.3628472076
CT2   3.4750661680   1.1088519190  -2.4691678429
    0.6902862640    1.7439203873    4.0161536496    0.0206023036 >
    0.1885787305   -0.1681824860   -0.0240678475    0.4558365843 >
    0.0351603244
CT3  -1.5336416551  -0.1664950691   0.4691257102
    3.3048216698    0.8656513461    2.1750167804   -0.4294558494 >
   -1.5920746834   -0.0520264133   -0.1566697166   -1.1233555175 >
    0.0352285942
CT4   0.1909545912   0.0719487593   0.1141869127
    5.0574877498    1.9642364041    1.5493173355    1.0004798184 >
    1.4700680046    0.3231800475    0.4797082656    0.6140724918 >
    0.3633406759
CT5   5.1561811376  -0.0022056529  -0.6879243087
    3.1268811437    0.4392082933    0.9802500759   -0.2874508916 >
    0.7879027317   -0.2193216762   -0.2245299665    0.5803802349 >
   -0.2186939948
CT6  -0.9062977265   0.2484778416  -1.2537414917
    1.8005004725    1.1538231527    2.6268338669   -0.6851531731 >
    0.9109071001   -0.8573203525   -0.2795259216    0.4082712076 >
   -0.9390623462
CT7   5.9890137825  -0.6873674091  -0.1855890622
    2.3250739709    2.1318562042    1.1250712657   -0.8249274233 >
    0.5321634714   -0.2158477124   -0.4449830848    0.6229294154 >
   -0.3966979470
CT8   2.7214377774  -0.0970322323  -0.3411832927
    2.9681718471    0.8233034488    2.1260832864    0.1601076543 >
   -0.6748504283   -0.4917040532    0.1567670814   -0.5918183752 >
   -0.4979329903
CT9   1.9842014317  -0.8004571172   1.7889748762
    2.3892754272    1.8051828226    4.4446816666   -0.0767106578 >
    0.3804867154   -1.0521421978   -0.1702553456    0.4182845402 >
   -1.0584958930
CT10   5.9943122443   0.2196285970   0.1264863466
    2.3367717758    1.4514488098    1.7967563150    0.3228566709 >
    0.9324828361    0.4532900588   -0.0340130827    0.7704064552 >
    0.6381902590
CT11   3.8848356992   1.0092434992  -3.6264129505
    1.9854546306    0.8427682207    2.3599216122    0.2215730381 >
   -0.7122483125   -0.5785701088    0.3833439020   -1.1837941417 >
   -0.5751463382
CT12   3.4653265239   0.2332666711  -2.7673517767
    0.6892362398    2.5603083116    3.2047390282   -0.1086405486 >
    0.1328108102   -1.0184861809   -0.2362666183    0.3639530309 >
   -1.2050743314
CT13   2.7985219798   0.9750746944  -3.4870042064
    2.1218239295    0.7783157969    1.6441141659   -0.2448437681 >
    0.6452505402   -0.3463062381   -0.3427359629    0.9045737799 >
   -0.3525530682
CT14  -0.1723163666  -0.8418829563  -0.2529232354
    7.1945556902    4.3763037742    2.2715591129   -0.0504282272 >
    1.2957965255    0.7320011066    0.3333200460    0.4437239816 >
    0.6144525543
CT15   1.6889256119  -0.2301581031   0.0395365777
    7.5142075766    4.6919239289    6.0153596718    1.8702111560 >
   -5.3880780111   -0.3181812204    1.6650801786   -4.4018433439 >
   -0.2476608986
 STOP
 PROJECTION BASIS SET
A01N1       -0.7195336089  -0.2523195474  -0.2905062455    5.0
   S          6
     1      6293.4800000000     0.99196821
     2       949.0440000000     1.82323973
     3       218.7760000000     2.97989064
     4        63.6916000000     4.00000703
     5        18.8282000000     3.88100769
     6         2.7202300000     0.38676433
   L          3
     7        30.6331000000     1.03850116     3.93561562
     8         7.0261400000     2.83479441     3.87099402
     9         2.1120500000    -0.00320800     2.96727076
   L          1
    10         0.6840090000     0.53605142     0.88668091
   L          1
    11         0.2008780000     0.21385006     0.19169269
   L          1
    12         0.0639000000     0.09058071     0.04579480
   D          1
    13         0.9130000000     1.40356754
  
A02H2       -1.0090811997   0.6281096600  -1.9288948060    1.0
   S          3
    14        33.8650000000     0.25506932
    15         5.0947900000     0.46010866
    16         1.1587900000     0.67832145
   S          1
    17         0.3258400000     0.30737135
   S          1
    18         0.1027410000     0.12933556
   S          1
    19         0.0360000000     0.05890294
   P          1
    20         0.7500000000     0.99487076
  
A03H3       -2.0757475545  -0.0515400030   0.9911158827    1.0
   S          3
    21        33.8650000000     0.25506932
    22         5.0947900000     0.46010866
    23         1.1587900000     0.67832145
   S          1
    24         0.3258400000     0.30737135
   S          1
    25         0.1027410000     0.12933556
   S          1
    26         0.0360000000     0.05890294
   P          1
    27         0.7500000000     0.99487076
  
A04C4        1.7184247976  -0.3714023783   0.5247932590    4.0
   S          6
    28      4563.2400000000     0.77820176
    29       682.0240000000     1.44869481
    30       154.9730000000     2.38308933
    31        44.4553000000     3.20008901
    32        13.0290000000     3.01300444
    33         1.8277300000     0.24759863
   L          3
    34        20.9642000000     0.80062852     2.57359222
    35         4.8033100000     2.12741989     2.40824822
    36         1.4593300000    -0.00286791     1.86528133
   L          1
    37         0.4834560000     0.41321665     0.57462733
   L          1
    38         0.1455850000     0.16797613     0.12818461
   L          1
    39         0.0438000000     0.06823633     0.02856161
   D          1
    40         0.6260000000     0.72512777
  
A05H5        2.1205545847  -1.0281783831   2.3939247874    1.0
   S          3
    41        33.8650000000     0.25506932
    42         5.0947900000     0.46010866
    43         1.1587900000     0.67832145
   S          1
    44         0.3258400000     0.30737135
   S          1
    45         0.1027410000     0.12933556
   S          1
    46         0.0360000000     0.05890294
   P          1
    47         0.7500000000     0.99487076
  
A06C6        3.7080199922   0.1972943638  -1.2416520713    4.0
   S          6
    48      4563.2400000000     0.77820176
    49       682.0240000000     1.44869481
    50       154.9730000000     2.38308933
    51        44.4553000000     3.20008901
    52        13.0290000000     3.01300444
    53         1.8277300000     0.24759863
   L          3
    54        20.9642000000     0.80062852     2.57359222
    55         4.8033100000     2.12741989     2.40824822
    56         1.4593300000    -0.00286791     1.86528133
   L          1
    57         0.4834560000     0.41321665     0.57462733
   L          1
    58         0.1455850000     0.16797613     0.12818461
   L          1
    59         0.0438000000     0.06823633     0.02856161
   D          1
    60         0.6260000000     0.72512777
  
A07O7        3.3691342067   0.9220382876  -3.3527938534    6.0
   S          6
    61      8588.5000000000     1.20501289
    62      1297.2300000000     2.21620477
    63       299.2960000000     3.62745250
    64        87.3771000000     4.88845231
    65        25.6789000000     4.83572052
    66         3.7400400000     0.53822949
   L          3
    67        42.1175000000     1.34195780     5.58401753
    68         9.6283700000     3.58711431     5.73336569
    69         2.8533200000    -0.00512347     4.33295474
   L          1
    70         0.9056610000     0.66165918     1.25935210
   L          1
    71         0.2556110000     0.25620922     0.25906844
   L          1
    72         0.0845000000     0.11169986     0.06493980
   D          1
    73         1.2920000000     2.57702633
  
A08O8        6.0105973266  -0.1473610831  -0.2819698177    6.0
   S          6
    74      8588.5000000000     1.20501289
    75      1297.2300000000     2.21620477
    76       299.2960000000     3.62745250
    77        87.3771000000     4.88845231
    78        25.6789000000     4.83572052
    79         3.7400400000     0.53822949
   L          3
    80        42.1175000000     1.34195780     5.58401753
    81         9.6283700000     3.58711431     5.73336569
    82         2.8533200000    -0.00512347     4.33295474
   L          1
    83         0.9056610000     0.66165918     1.25935210
   L          1
    84         0.2556110000     0.25620922     0.25906844
   L          1
    85         0.0845000000     0.11169986     0.06493980
   D          1
    86         1.2920000000     2.57702633
  
A09H9        7.2074728373   0.2782341374  -1.5376398603    1.0
   S          3
    87        33.8650000000     0.25506932
    88         5.0947900000     0.46010866
    89         1.1587900000     0.67832145
   S          1
    90         0.3258400000     0.30737135
   S          1
    91         0.1027410000     0.12933556
   S          1
    92         0.0360000000     0.05890294
   P          1
    93         0.7500000000     0.99487076
  
 STOP
 MULTIPLICITY    2
 STOP
 PROJECTION WAVEFUNCTION     15    143
 1  1-1.33853278E-03-2.32353681E-03 3.59056814E-03 2.83860667E-04 7.83242388E-04
 1  2 6.60110000E-03 5.67453100E-03 1.28293606E-04 2.10432124E-03 1.39325403E-02
 1  3 1.17875202E-02 1.50166554E-03-4.02519948E-04 3.17510969E-02-1.14483219E-03
 1  4 2.92002336E-04 5.12320130E-03-5.98360898E-04 7.39246308E-05 3.22720778E-04
 1  5-1.04447135E-04 1.16771762E-03-1.51309573E-04 6.67933778E-04 6.11953662E-04
 1  6-1.03640821E-03-4.73862730E-03 3.54104332E-04-3.29091746E-05 2.37689541E-04
 1  7-1.56553087E-03-1.68014684E-03-9.56890553E-03 8.78417148E-03 4.11689305E-04
 1  8-7.86619878E-05-5.34859424E-05 3.95941123E-03 6.77175257E-03-6.13182795E-03
 1  9-1.65739011E-03 5.31327679E-03-1.94124621E-02-1.25857770E-02-1.78223579E-03
 1 10 6.14306919E-03-4.87363277E-02-1.46241104E-02-3.02158662E-03 1.22855412E-02
 1 11-2.02202202E-02 3.10777263E-02-4.22834570E-03 1.09540137E-02 3.02294252E-04
 1 12-1.15615675E-03 1.08782414E-04 5.65757733E-05-1.73163796E-04-5.89867263E-04
 1 13-2.84423399E-03-1.72029374E-03-7.00155762E-03-5.94257837E-03 1.23717750E-03
 1 14-1.72744490E-04 4.23267627E-04-5.31595950E-03-9.38264062E-03 1.64787079E-02
 1 15-4.20589060E-03 1.18887020E-02 3.14767928E-02 2.73648877E-02-6.71430292E-03
 1 16 1.89941043E-02 4.20761074E-02 3.15786661E-02-9.67573484E-03 2.77804855E-02
 1 17 7.77480635E-06-2.84327140E-02 1.38561335E-03-3.94618676E-03-1.56349386E-02
 1 18 1.12828945E-03 1.67329812E-02-5.94739116E-03 1.76734707E-02-7.13447862E-03
 1 19-2.54739440E-03-4.70235358E-03 4.08642017E-03-1.69387799E-03 4.95833901E-03
 1 20 1.08281851E-02 7.83285043E-03-8.96276687E-04 2.62568202E-03 2.68148200E-02
 1 21 4.35483844E-03-3.86319975E-03 1.13101531E-02 6.36010600E-03-1.62467976E-04
 1 22-8.24183087E-04 2.45043865E-03-1.22003689E-03-8.34053746E-04-2.45659037E-03
 1 23-5.31407685E-04 1.57070689E-03 7.20104552E-04 5.46108166E-02 9.04082035E-02
 1 24-1.37267350E-01-4.83559195E-02 1.42777333E-01-2.49878483E-01-2.12686602E-01
 1 25-7.58227278E-02 2.23821206E-01-1.35958466E-01-1.19901262E-01-5.20988975E-02
 1 26 1.53346794E-01 9.91990339E-03 9.86507822E-03-2.58148615E-03 7.36396757E-03
 1 27 4.67530055E-03 6.28388179E-03-1.33253243E-02-5.40334182E-03 1.57007619E-02
 1 28 8.75964013E-03-1.94048162E-01-2.41975821E-01-2.02833552E-02-3.01640269E-03
 1 29 3.26853851E-02 9.88086020E-03-2.93760966E-02
 2  1 8.98029995E-05 2.65987299E-04-2.65624505E-03-8.15996159E-03-2.37183530E-03
 2  2 8.90313974E-04-2.55140482E-03-1.34337020E-02-2.78590810E-03-7.60336160E-03
 2  3-1.08880464E-02-1.49739380E-02-1.27407608E-03 3.93744353E-04-4.23368791E-03
 2  4 2.82130021E-03 2.53452909E-03 6.79751310E-04 4.56777681E-04 7.59164026E-04
 2  5 7.35135552E-04 8.39489760E-04-2.07471864E-04-4.96962292E-04 3.20888209E-03
 2  6 4.69462035E-04-4.97803504E-03 5.48792936E-04-3.65244545E-04-4.98204613E-06
 2  7-1.16313340E-03-5.44538653E-03-8.95699758E-03 4.98721295E-04-7.27170337E-04
 2  8-1.14097173E-03 1.15463973E-04 2.16201157E-03 3.88834394E-03-4.94249244E-03
 2  9 9.47188416E-03 7.26070195E-03-1.07429203E-02-5.33863905E-03 1.99216660E-02
 2 10 1.01077121E-02-1.90120928E-02-2.08758013E-02-5.82928923E-03-1.42482965E-03
 2 11-4.17751373E-02-1.16851630E-02-1.63017754E-02-6.07963490E-03-3.98739244E-03
 2 12 3.69164649E-03 1.42449654E-03 7.31110633E-03-7.19789146E-04-6.96899928E-03
 2 13 2.17040000E-03 9.06801998E-03 1.32697543E-02 4.56886520E-03 5.74602742E-04
 2 14 7.82333433E-04 3.47783070E-04-4.67729495E-02-7.72712987E-02-1.56798917E-02
 2 15 1.22791631E-01-7.50792144E-02 2.07999371E-01-2.07481938E-02 2.03721275E-01
 2 16-1.06208368E-01 8.79755507E-02 8.29021880E-04 1.03627894E-01 1.76296443E-02
 2 17 5.71161780E-02-6.57905319E-03 2.30285482E-02 1.51768208E-02-2.17362359E-02
 2 18 9.05057723E-03 2.04695336E-03-1.05038972E-02 4.11255324E-03-4.44093821E-02
 2 19-4.58212363E-02-7.53338587E-02 1.96300781E-02 1.17364484E-01 1.72406327E-01
 2 20 2.04044124E-01 2.99121481E-02 1.86256336E-01 2.64819915E-01 8.08053214E-02
 2 21 1.57308527E-02 1.88551564E-01 1.74127950E-01-5.12995307E-02-2.49168528E-05
 2 22 1.59722432E-02 3.36971024E-03-8.28390612E-03-1.56952852E-02 2.85270221E-02
 2 23 9.29807715E-04 6.12878573E-03 4.72522624E-03 1.86651384E-03 3.36062982E-03
 2 24 6.05260647E-03-1.87752510E-02 7.10733821E-04-9.84985916E-03 7.82628528E-03
 2 25-2.67386790E-02 5.74435478E-05-6.85471396E-03 1.32590087E-02-4.42801401E-02
 2 26-4.19110187E-03-1.94587352E-02-9.80358552E-04-3.15230676E-02 2.38392534E-03
 2 27-8.89069087E-04 1.23691535E-03 9.96762751E-04-4.58012653E-03 1.04625260E-03
 2 28-1.60884446E-03-4.34057351E-03-1.30295167E-02 1.21334109E-02-2.18862956E-03
 2 29 1.70290370E-03-1.03818102E-03-1.35413756E-03
 3  1 5.94791338E-02 9.80772892E-02 1.34967633E-01-2.84784739E-03-1.16825296E-01
 3  2-2.59486189E-01 2.10878885E-01-5.16980339E-03-1.83265371E-01-1.88401469E-01
 3  3 1.21437721E-01-5.88694547E-04-1.15749625E-01-6.36281354E-02-1.48431492E-03
 3  4-8.84615148E-03-4.26538366E-03-2.31846125E-03 6.56092346E-03-6.99044075E-03
 3  5 4.98337320E-03 1.80098769E-02-7.05559980E-03 1.75716413E-02 4.08757964E-02
 3  6 3.32851920E-02 1.31761256E-03 9.15028131E-03-1.48781867E-03-4.42789738E-03
 3  7-1.92586647E-01-2.60210651E-01-1.67805945E-02-1.19831459E-02-2.48558879E-02
 3  8 3.88979681E-03 2.29289662E-02-8.45577094E-03-1.45824478E-02-2.09754488E-02
 3  9-4.21788666E-03-1.22417622E-02 4.25794121E-02-3.34913827E-02-8.76263706E-03
 3 10-1.81078127E-02 6.51729991E-02-2.41743432E-02-8.49278807E-05-1.10362301E-02
 3 11 8.38048356E-02 2.78572594E-03 1.35500941E-02-3.44211073E-02-8.87200322E-03
 3 12-4.10777726E-04 9.48174675E-03-7.34278332E-04 1.43732797E-02-2.55474372E-03
 3 13 4.85065355E-03 8.85273557E-03 1.74820401E-02 2.10044266E-02-1.46058051E-03
 3 14-1.27243233E-03 1.68917626E-03 3.62685980E-03 6.27030999E-03 6.43774325E-03
 3 15 2.03678010E-03-6.77450072E-03-1.94111958E-02 1.19510666E-02 2.19917521E-03
 3 16-9.71953073E-03-4.00816255E-02 1.01321029E-02 9.89652182E-03-2.30426770E-02
 3 17-8.59803432E-02 1.48265009E-02 4.64286215E-03-1.07742684E-02 1.91637406E-03
 3 18-8.62739517E-04-1.28351166E-03 7.97843891E-04-7.29684734E-04-7.49957457E-04
 3 19 7.15823116E-04 1.21593464E-03 3.05263589E-03 1.12969056E-03-3.29945082E-04
 3 20-3.46379319E-03 4.86152701E-03 1.85170415E-03-5.97440269E-04-6.36245315E-03
 3 21 2.95818683E-03 1.34976601E-03-6.97111843E-04-1.05367477E-02 5.21691879E-04
 3 22 1.69832032E-03-2.78438909E-03 6.27362543E-04-1.65952380E-04-3.59055003E-04
 3 23-4.87962264E-05 2.76270977E-04 1.25359248E-04-9.81797053E-04-1.71915977E-03
 3 24-2.78689512E-03 3.24531775E-04-1.64129866E-05 5.13385360E-03-3.99015721E-03
 3 25 5.87441656E-04-3.50322644E-04 1.30695935E-02-8.55347590E-03 4.79911649E-04
 3 26 3.83585921E-04 2.27490825E-02-6.41927158E-03-1.12185346E-03-1.38374444E-03
 3 27-5.82206983E-04 9.70143333E-05 2.60738293E-04-2.07072585E-04 5.81980586E-04
 3 28-1.10041188E-04-1.67969737E-03-4.53258517E-03-6.53954398E-03 8.89281757E-04
 3 29-1.15672318E-04 1.33498313E-04-2.28889546E-04
 4  1-4.49838032E-02-7.31442464E-02 1.46832676E-01 1.02154648E-01 7.74792374E-02
 4  2 1.92075755E-01 2.32869128E-01 1.65521021E-01 1.24194702E-01 1.02488001E-01
 4  3 1.54305457E-01 1.68143826E-01 9.86479610E-02-5.78922617E-03 9.01473999E-03
 4  4 3.54435622E-02-9.61053050E-03 1.57092355E-02-3.48029845E-03-5.32878090E-03
 4  5 9.07971742E-03 1.31105105E-02 5.50118506E-03-3.05900726E-03-2.08539374E-02
 4  6-2.68778794E-02-7.85209195E-03 1.00522515E-02 8.86209997E-03 7.31322901E-03
 4  7-1.94624750E-03-2.21900887E-02-7.63913687E-03 2.28163884E-03 1.14129290E-02
 4  8 1.02925516E-02 5.07728833E-03-5.06873051E-02-8.32143893E-02-1.22752781E-01
 4  9 5.73321981E-02-2.45554921E-02 2.20132219E-01-2.01430028E-01 9.87757412E-02
 4 10-3.89132146E-02 8.45836788E-02-5.06027729E-02 6.38767173E-02-1.18407396E-02
 4 11-3.28306590E-02-2.04882837E-02-9.34041340E-03 2.24274664E-02 2.90946558E-02
 4 12-9.84088805E-03-1.33384519E-02-1.77621017E-02 1.60580410E-02-5.31027027E-03
 4 13-9.50375930E-03-1.90863660E-02-2.11301168E-02-1.36288944E-02-5.74550010E-03
 4 14 3.45712333E-03 3.49280264E-04 4.21423104E-03 7.46902934E-03 6.52235264E-03
 4 15 7.87821096E-03-7.76564879E-03-2.11417583E-02 6.68311650E-03 1.31681305E-02
 4 16-7.52779111E-03-3.21934716E-02 2.69326805E-02 4.85883059E-03-2.43726273E-02
 4 17 6.59522907E-02-8.04486997E-03-4.50413935E-03 6.43165430E-03 1.02126007E-02
 4 18-3.70021106E-03-5.85500733E-03-4.07250502E-03-2.72446384E-03 7.08506684E-03
 4 19 8.02818669E-04 1.52484606E-03 1.85308172E-03-5.47170098E-03-4.98110305E-03
 4 20-2.84595040E-03 3.89655709E-03-9.42112861E-03-4.73287882E-03-4.48528760E-03
 4 21 7.75337415E-04-9.40764110E-03-9.06647085E-03-2.23486629E-02-2.20485906E-03
 4 22 2.09963894E-03-7.74708507E-03 8.18943269E-04 4.60004259E-04 9.45048583E-04
 4 23-5.44719526E-04 5.92796485E-04-2.81315651E-04-2.19732730E-03-3.77339479E-03
 4 24-4.95827005E-03-2.70513573E-03-7.30344958E-04 1.24633172E-02-8.19837782E-03
 4 25-4.16142465E-03-1.14896525E-03 1.72802172E-02-7.46673947E-03-5.26868498E-03
 4 26 1.33375467E-03 3.13866852E-05-5.78859431E-03-2.24418556E-03 2.87043289E-03
 4 27-5.83068189E-04 4.66230837E-04 4.17693716E-04-4.06481348E-04 5.76044513E-04
 4 28 2.60076235E-04-3.01346602E-03-9.39514550E-03-2.18684995E-03 2.20659092E-04
 4 29-3.27999000E-04-2.14315635E-04-7.44422560E-04
 5  1-1.42386184E-03-2.29733786E-03 4.54457959E-03-1.21954218E-04 1.98780141E-03
 5  2 8.03174680E-03 8.46929959E-03 2.40279370E-04 2.37436057E-03 8.67387284E-03
 5  3 7.58691860E-03-6.72598048E-04 5.84491889E-03 1.03395745E-02 8.25313923E-03
 5  4 3.67465278E-03-9.59206806E-03-1.52754697E-04 8.12237330E-04 9.49069741E-04
 5  5 4.24484253E-05 4.42379573E-04 2.25632561E-05 1.29534541E-03 5.75420780E-03
 5  6-2.54095383E-03-3.00053279E-03 7.68423464E-04 2.31265464E-05-2.35585998E-04
 5  7-1.86019035E-03-6.52848890E-03-1.33461776E-03 5.29264570E-03 4.43940322E-04
 5  8 1.16754866E-04 6.23506526E-04 5.54836297E-03 9.75592867E-03-1.08514074E-02
 5  9-3.33919164E-03 1.04699420E-02-2.45419892E-02-9.53301012E-03-2.67436017E-03
 5 10 8.52130925E-03-4.85238013E-02-1.93080520E-02-6.74882629E-03 2.32598036E-02
 5 11-2.25486231E-02-5.13772407E-03-8.68484389E-03 2.31040356E-02 9.75037803E-03
 5 12-3.78500234E-04-5.94915050E-03 1.40961985E-03-4.36714277E-03 2.45875840E-03
 5 13-1.30371810E-03 2.73179819E-03-1.08475505E-02-1.70426140E-02-1.22713518E-03
 5 14 7.54560676E-04-2.00897929E-03-5.08987829E-02-8.39835257E-02 1.29808910E-01
 5 15-1.82356194E-02 5.05943421E-02 2.28314137E-01 2.29741327E-01-3.03295204E-02
 5 16 8.37347497E-02 9.76469704E-02 2.28858891E-02 6.09534726E-03-1.77191125E-02
 5 17 5.63947421E-02-4.04378057E-03 1.59398302E-03-1.21227508E-03 4.65621742E-02
 5 18-1.71455644E-02-2.20437829E-02-1.30440022E-02 3.69730152E-02 1.87984651E-03
 5 19 4.41296079E-03 8.06871847E-03-1.84556771E-02 3.95167278E-03-1.12940861E-02