!  3A'' H2CO...analytic derivative test...TZ+2P basis
!  out of core transformation and out of core CPHF...70 AOs
!
!  Duplicates Table 9 of M.Duran, Y.Yamaguchi, R.B.Remington,
!  H.F.Schaefer, Chem. Phys. 122, 201-233(1988).
!
!  literature: rCO=1.3376, rCH=1.0792, aHCH=118.52
!  E=-113.82263, dipole=1.483 D, mean polarizability=2.385 A**3
!       FREQ=  907.6  1065.1  1255.9  1531.7  3223.3  3346.3
!  intensity=  25.00   12.18   52.77    2.25    2.15    6.31 km/mol
!  intensity= 0.5916  0.2882   1.249   0.053   0.051   0.149 D**2/amu-A**2
!
!  GAMESS: rCO=1.3375990, rCH=1.0792009, aHCH=118.51848, aHCO=113.45981
!  FINAL E=-113.8226334417, after 11 iters
!  dipole=1.482958 D, mean polarizability=2.38513 A**3
!       FREQ=  907.81 1065.13 1256.10 1531.78 3223.60 3346.00
!  intensity= 0.59095 0.28989 1.24863 0.05311 0.05152 0.14977
!
!  This run takes 6 seconds on a 2.6 GHz Opteron ( 8 Nov 2005)
!
 $contrl scftyp=rohf mult=3 runtyp=hessian nzvar=6 $end
 $system memory=1000000 $end
 $zmat   izmat(1)=1,1,2  1,1,3,  1,1,4,  2,2,1,3,  2,2,1,4,  2,3,1,4  $end

!            MO-driven hessian code need not be direct mode.
 $cphf   cphf=mo polar=.true. nword=300000 $end
!            AO-driven code is the default, and must be forced direct by user.
x$cphf   cphf=ao $end
x$scf    dirscf=.true. $end

 $data
formaldehyde...TZ+2P basis
Cs

CARBON      6.0   0.6586033280  -0.0236258860   0.0000000000
 s 4
   1 4232.61   0.006228
   2  634.882  0.047676
   3  146.097  0.231439
   4   42.4974 0.789108
 s 2
   1 14.1892  0.791751
   2  1.9666  0.321870
 s 1 ; 1 5.1477  1.0
 s 1 ; 1 0.4962  1.0
 s 1 ; 1 0.1533  1.0
 p 3
   1 18.1557 0.039196
   2  3.9864 0.244144
   3  1.1429 0.816775
 p 1 ; 1 0.3594 1.0
 p 1 ; 1 0.1146 1.0
 d 1 ; 1 0.75 1.0
 d 1 ; 1 0.15 1.0

OXYGEN      8.0  -0.6789086551  -0.0083713804   0.0000000000
 s 4
   1 7816.54   0.006436
   2 1175.82   0.048924
   3  273.188  0.233819
   4   81.1696 0.784798
 s 2
   1 27.1836 0.803381
   2  3.4136 0.316720
 s 1 ; 1 9.5322 1.0
 s 1 ; 1 0.9398 1.0
 s 1 ; 1 0.2846 1.0
 p 3
   1 35.1832  0.040023
   2  7.9040  0.253849
   3  2.3051  0.806842
 p 1 ; 1 0.7171 1.0
 p 1 ; 1 0.2137 1.0
 d 1 ; 1 0.85 1.0
 d 1 ; 1 0.15 1.0

HYDROGEN    1.0   1.0921573406   0.3174544883  -0.9275611613
 s 2  ! s basis scale factor=1.2
   1 19.2406 0.130844
   1  2.8992 0.921539
 s 1 ; 1 0.6534 1.0
 s 1 ; 1 0.1776 1.0
 p 1 ; 1 0.75 1.0
 p 1 ; 1 0.15 1.0

 $end

! TRAVIS-CI SMALL

! TRAVIS-CI SKIP
