!  Ni(NH3)6 +2 ion ... 118 AOs are present in the ECP run.
!  an illustration of possible symmetries for hexa-NH3 type complexes
!
!  FINAL E= -236.5644823078, 25 iters, with CPHF method results:
!    AO-driven: FREQ= 56.31(e), 73.14(e), ... 3739.10(e)  (15 iters)
!    MO-driven: FREQ= 59.30(e), 76.32(e), ... 3738.97(e)
!
!  This input came from Thailand, originally, in S6 symmetry.
!  The S6 hessian has six small imaginary frequencies, so the
!  symmetry must be something else.
!  In 1995, I spotted JACS 117,7554(1995) for a picture of D3d.
!  In 2011, with the aid of the big group theory book, and
!  some diligence, the molecule is found to be D3 symmetric.
!  ROHF convergence is a little tricky in the D3 group.
!
!  The AO/MO run takes 173/57 seconds on a 2.66 GHz Cloverton (5 Dec 2014)
!
 $contrl scftyp=rohf mult=3 icharg=2 runtyp=hessian pp=sbkjc $end

!            MO-driven hessian code need not be direct mode.
x$cphf   cphf=mo $end
!            AO-driven code is the default, and must be forced direct by user.  
 $cphf   cphf=ao $end
 $scf    dirscf=.true. $end

 $system mwords=10 $end
 $basis  gbasis=sbkjc $end
 $scf    diis=.true. ethrsh=1.0 rstrct=.true. $end
 $guess  guess=huckel $end

 $data
hexa-amine complex [Ni(NH3)6]+2...e**2 configuration...3-A-2 state
Dn 3

NI         28.0   0.0000000000   0.0000000000   0.0000000000
N           7.0  -0.0533991852   1.8352121441   1.3029791914
H           1.0  -1.0151689035   2.1216450857   1.4922454550
H           1.0   0.3941849994   1.6839024840   2.2082476333
H           1.0   0.4120834167   2.6368606545   0.8749415603
 $end

Here is a S6 structure, E= -236.5627768482, six imag. frequencies
Looking at it reveals the mirror planes of D3 are present, as
well as exactly matching the D3d input just below.  Using this
is just exploiting S6 being a proper subgroup of D3d.
Note that S6 is input as "Sn2 3"
NI         28.0   0.0000000000   0.0000000000   0.0000000000
N           7.0   1.2891279625   1.2891317280   1.3268178633
H           1.0   2.2858608734   1.1259049564   1.1772221814
H           1.0   1.1259189951   2.2858687600   1.1772292423
H           1.0   1.1107095841   1.1107169082   2.3159842510

Here is a D3d optimization, to E= -236.5627768495, hessian not run.
This one has H atoms oriented to the poles, exactly like the JACS 
paper's Te(CH3)6 electron diffraction, but higher E than D3d below!
NI         28.0   0.0000000000   0.0000000000   0.0000000000
N           7.0   0.0000000000   1.8230888159   1.3268134504
H           1.0   0.8202184267   2.4124696016   1.1772428532
H           1.0   0.0000000000   1.5707513742   2.3159716082

Here is a D3d optimization, to E= -236.5628683265, 6 imag. frequencies!
This one has the H's which are in the sigma-d planes pointed towards 
the equator, not towards the north and south pole.
NI         28.0   0.0000000000   0.0000000000   0.0000000000
N           7.0   0.0000000000   1.8641245462   1.2680034749
H           1.0   0.8176219265   1.9261420847   1.8760610070
H           1.0   0.0000000000   2.7043470016   0.6875177952

Here is a D3 geometry, E= -236.5644823068, pos.def.
This one seemed to require RHF +4 cation starting orbitals.
NI         28.0   0.0000000000   0.0000000000   0.0000000000
N           7.0  -0.0533991852   1.8352121441   1.3029791914
H           1.0  -1.0151689035   2.1216450857   1.4922454550
H           1.0   0.3941849994   1.6839024840   2.2082476333
H           1.0   0.4120834167   2.6368606545   0.8749415603

Starting orbitals are needed in D3, but not the other groups.
Something that works is RHF on the closed shell +4 ion, in which
the necessary 'e' orbital appears just above the occupied orbs.
Fixing the Huckel guess circa 2013 leads to convergence in D3,
but after some ups and downs and 25 iterations.

x$guess  guess=moread norb=118 $end
E(RHF)=     -234.9313151292, E(NUC)=  380.7869368197,   14 ITERS
 $VEC   
 1  1 7.41288405E-01 0.00000000E+00 0.00000000E+00 0.00000000E+00-2.87125873E-03
 1  2-2.87125873E-03-2.81563983E-03 0.00000000E+00 0.00000000E+00 0.00000000E+00
 1  3 7.77418733E-03 7.77418733E-03 7.74924824E-03 0.00000000E+00 0.00000000E+00
 1  4 0.00000000E+00-1.14169114E-01 0.00000000E+00 0.00000000E+00 0.00000000E+00
 1  5 1.14422291E-02 0.00000000E+00 0.00000000E+00 0.00000000E+00 3.26141602E-01
 1  6 0.00000000E+00 0.00000000E+00 0.00000000E+00 4.23639855E-02 4.23639855E-02
 1  7 4.24800129E-02 0.00000000E+00 0.00000000E+00 0.00000000E+00 9.66242551E-04
 1  8 3.17353355E-04 2.27623478E-04-2.72482043E-04-5.15195302E-03-2.88362784E-03
 1  9-1.95874492E-03 2.41644083E-03 9.66242551E-04-3.55804392E-04 1.61024328E-04
 1 10-2.72482043E-04-5.15195302E-03 3.13813678E-03-1.51792250E-03 2.41644083E-03
 1 11 9.66242551E-04 3.84510372E-05 3.88647807E-04 2.72482043E-04-5.15195302E-03
 1 12-2.54508944E-04-3.47666742E-03-2.41644083E-03 9.66242551E-04-3.55804392E-04
 1 13-1.61024328E-04 2.72482043E-04-5.15195302E-03 3.13813678E-03 1.51792250E-03
 1 14-2.41644083E-03 9.66242551E-04 3.17353355E-04-2.27623478E-04 2.72482043E-04
 1 15-5.15195302E-03-2.88362784E-03 1.95874492E-03-2.41644083E-03 9.66242551E-04
 1 16 3.84510372E-05-3.88647807E-04-2.72482043E-04-5.15195302E-03-2.54508944E-04
 1 17 3.47666742E-03 2.41644083E-03 4.65145367E-04-1.33949635E-03 4.65145367E-04
 1 18-1.33949635E-03 4.65145367E-04-1.33949635E-03 4.65145367E-04-1.33949635E-03
 1 19 4.65145367E-04-1.33949635E-03 4.65145367E-04-1.33949635E-03 5.31313577E-04
 1 20-1.20014727E-03 5.31313577E-04-1.20014727E-03 5.31313577E-04-1.20014727E-03
 1 21 5.31313577E-04-1.20014727E-03 5.31313577E-04-1.20014727E-03 5.31313577E-04
 1 22-1.20014727E-03 5.24163955E-04-1.26996108E-03 5.24163955E-04-1.26996108E-03
 1 23 5.24163955E-04-1.26996108E-03 5.24163955E-04-1.26996108E-03 5.24163955E-04
 1 24-1.26996108E-03 5.24163955E-04-1.26996108E-03
 2  1 0.00000000E+00 0.00000000E+00 0.00000000E+00 8.35608729E-01 0.00000000E+00
 2  2 0.00000000E+00 0.00000000E+00 0.00000000E+00 0.00000000E+00 0.00000000E+00
 2  3 0.00000000E+00 0.00000000E+00 0.00000000E+00 0.00000000E+00 0.00000000E+00
 2  4 0.00000000E+00 0.00000000E+00 0.00000000E+00 0.00000000E+00-5.17073596E-03
 2  5 0.00000000E+00 0.00000000E+00 0.00000000E+00 1.94247917E-03 0.00000000E+00
 2  6 0.00000000E+00 0.00000000E+00 2.28206511E-01 0.00000000E+00 0.00000000E+00
 2  7 0.00000000E+00 0.00000000E+00 0.00000000E+00 0.00000000E+00 1.03971250E-03
 2  8 1.25500061E-03 8.01832554E-04-1.14673983E-03 2.22206242E-03 1.35730115E-03
 2  9 7.80147268E-04 6.93357770E-04 1.03971250E-03-1.32190767E-03 6.85946136E-04
 2 10-1.14673983E-03 2.22206242E-03-1.35427793E-03 7.85383640E-04 6.93357770E-04
 2 11-1.03971250E-03-6.69070545E-05-1.48777869E-03-1.14673983E-03-2.22206242E-03
 2 12 3.02322080E-06-1.56553091E-03 6.93357770E-04-1.03971250E-03 1.32190767E-03
 2 13 6.85946136E-04-1.14673983E-03-2.22206242E-03 1.35427793E-03 7.85383640E-04
 2 14 6.93357770E-04-1.03971250E-03-1.25500061E-03 8.01832554E-04-1.14673983E-03
 2 15-2.22206242E-03-1.35730115E-03 7.80147268E-04 6.93357770E-04 1.03971250E-03
 2 16 6.69070545E-05-1.48777869E-03-1.14673983E-03 2.22206242E-03-3.02322080E-06
 2 17-1.56553091E-03 6.93357770E-04-3.14726129E-04-2.44606980E-04-3.14726129E-04
 2 18-2.44606980E-04 3.14726129E-04 2.44606980E-04 3.14726129E-04 2.44606980E-04
 2 19 3.14726129E-04 2.44606980E-04-3.14726129E-04-2.44606980E-04-5.07714853E-04
 2 20-1.29177356E-03-5.07714853E-04-1.29177356E-03 5.07714853E-04 1.29177356E-03
 2 21 5.07714853E-04 1.29177356E-03 5.07714853E-04 1.29177356E-03-5.07714853E-04
 2 22-1.29177356E-03-1.02613139E-04 7.65790983E-04-1.02613139E-04 7.65790983E-04
 2 23 1.02613139E-04-7.65790983E-04 1.02613139E-04-7.65790983E-04 1.02613139E-04
 2 24-7.65790983E-04-1.02613139E-04 7.65790983E-04
 3  1 0.00000000E+00 0.00000000E+00 8.35621195E-01 0.00000000E+00 0.00000000E+00
 3  2 0.00000000E+00 0.00000000E+00-5.66677150E-05-3.01812882E-05 0.00000000E+00
 3  3 0.00000000E+00 0.00000000E+00 0.00000000E+00-6.01583009E-05-4.49280468E-06
 3  4 0.00000000E+00 0.00000000E+00 0.00000000E+00-4.71499844E-03 0.00000000E+00
 3  5 0.00000000E+00 0.00000000E+00 1.32741447E-03 0.00000000E+00 0.00000000E+00
 3  6 0.00000000E+00 2.28133150E-01 0.00000000E+00 0.00000000E+00 0.00000000E+00
 3  7 0.00000000E+00 2.62361183E-04-4.18819628E-05 0.00000000E+00-7.36472035E-04
 3  8-9.22149780E-04-6.37415131E-04 7.84724917E-04-1.75812338E-03-8.90954357E-04
 3  9 1.01861659E-03 7.07407754E-04-7.33040111E-04 9.04929031E-04-5.24628404E-04
 3 10 7.28460449E-04-1.27083746E-03 8.63114403E-04 1.01749177E-03 6.75612644E-04
 3 11-1.46951215E-03-8.90657961E-05-2.16331843E-03-1.51318537E-03-3.02896084E-03
 3 12 1.48941002E-05-5.01013929E-04-1.38302040E-03 7.33040111E-04-9.04929031E-04
 3 13-5.24628404E-04 7.28460449E-04 1.27083746E-03-8.63114403E-04 1.01749177E-03
 3 14 6.75612644E-04 7.36472035E-04 9.22149780E-04-6.37415131E-04 7.84724917E-04
 3 15 1.75812338E-03 8.90954357E-04 1.01861659E-03 7.07407754E-04 1.46951215E-03
 3 16 8.90657961E-05-2.16331843E-03-1.51318537E-03 3.02896084E-03-1.48941002E-05
 3 17-5.01013929E-04-1.38302040E-03 4.47633609E-04 1.18813753E-03-3.17544028E-05
 3 18-7.95818935E-04 4.15879206E-04 3.92318598E-04 3.17544028E-05 7.95818935E-04
 3 19-4.47633609E-04-1.18813753E-03-4.15879206E-04-3.92318598E-04 4.97391194E-05
 3 20-5.26457574E-04 2.51550342E-04 2.79811408E-04 3.01289462E-04-2.46646167E-04
 3 21-2.51550342E-04-2.79811408E-04-4.97391194E-05 5.26457574E-04-3.01289462E-04
 3 22 2.46646167E-04 1.61540737E-04 1.40119673E-06 4.31728515E-04 6.56303369E-04
 3 23 5.93269252E-04 6.57704566E-04-4.31728515E-04-6.56303369E-04-1.61540737E-04
 3 24-1.40119673E-06-5.93269252E-04-6.57704566E-04
 4  1 0.00000000E+00 8.35621195E-01 0.00000000E+00 0.00000000E+00 4.90756808E-05
 4  2-4.90756808E-05 0.00000000E+00 0.00000000E+00 0.00000000E+00 3.01812882E-05
 4  3 5.20986168E-05-5.20986168E-05 0.00000000E+00 0.00000000E+00 0.00000000E+00
 4  4 4.49280468E-06 0.00000000E+00-4.71499844E-03 0.00000000E+00 0.00000000E+00
 4  5 0.00000000E+00 1.32741447E-03 0.00000000E+00 0.00000000E+00 0.00000000E+00
 4  6 2.28133150E-01 0.00000000E+00 0.00000000E+00-2.27211449E-04 2.27211449E-04
 4  7 0.00000000E+00 0.00000000E+00 0.00000000E+00 4.18819628E-05-1.27164414E-03
 4  8-1.57949285E-03-9.70046478E-04 1.29421481E-03-2.48248971E-03 4.77969634E-06
 4  9-8.62464988E-04 1.18855234E-03 1.27362556E-03-1.69227957E-03 8.57032333E-04
 4 10-1.32669912E-03 2.76382436E-03 5.90451720E-06 8.91603773E-04-1.20690926E-03
 4 11-1.98142264E-06-5.35895458E-05-4.11690979E-05-3.24843059E-05-2.81334654E-04
 4 12 1.52441021E-03-1.35952690E-05-1.83569156E-05 1.27362556E-03-1.69227957E-03
 4 13-8.57032333E-04 1.32669912E-03 2.76382436E-03 5.90451720E-06-8.91603773E-04
 4 14 1.20690926E-03-1.27164414E-03-1.57949285E-03 9.70046478E-04-1.29421481E-03
 4 15-2.48248971E-03 4.77969634E-06 8.62464988E-04-1.18855234E-03-1.98142264E-06
 4 16-5.35895458E-05 4.11690979E-05 3.24843059E-05-2.81334654E-04 1.52441021E-03
 4 17 1.35952690E-05 1.83569156E-05 2.21774558E-04-2.32961028E-04-4.98549356E-04
 4 18-9.12476773E-04 2.76774797E-04 1.14543780E-03-4.98549356E-04-9.12476773E-04
 4 19 2.21774558E-04-2.32961028E-04 2.76774797E-04 1.14543780E-03 3.19182210E-04
 4 20 1.91479606E-05-2.02666446E-04 4.46351653E-04-1.16515764E-04-4.65499614E-04
 4 21-2.02666446E-04 4.46351653E-04 3.19182210E-04 1.91479606E-05-1.16515764E-04
 4 22-4.65499614E-04 5.91782737E-04 7.58642835E-04-4.35789750E-04-3.80534889E-04
 4 23-1.55992987E-04-3.78107945E-04-4.35789750E-04-3.80534889E-04 5.91782737E-04
 4 24 7.58642835E-04-1.55992987E-04-3.78107945E-04
 5  1-1.33119468E-01 0.00000000E+00 0.00000000E+00 0.00000000E+00 2.00175993E-03
 5  2 2.00175993E-03 1.73708656E-03 0.00000000E+00 0.00000000E+00 0.00000000E+00
 5  3 4.12572563E-03 4.12572563E-03 4.06267987E-03 0.00000000E+00 0.00000000E+00
 5  4 0.00000000E+00 4.42252452E-01 0.00000000E+00 0.00000000E+00 0.00000000E+00
 5  5-1.99154570E-01 0.00000000E+00 0.00000000E+00 0.00000000E+00-1.24586423E-01
 5  6 0.00000000E+00 0.00000000E+00 0.00000000E+00-2.10453227E-02-2.10453227E-02
 5  7-2.10444438E-02 0.00000000E+00 0.00000000E+00 0.00000000E+00 1.17479607E-02
 5  8 1.49053261E-01 1.04795145E-01-1.30935799E-01 1.78135829E-02 7.92659926E-02
 5  9 5.48224539E-02-6.88752051E-02 1.17479607E-02-1.65281888E-01 7.66863384E-02
 5 10-1.30935799E-01 1.78135829E-02-8.71106341E-02 4.12351363E-02-6.88752051E-02
 5 11 1.17479607E-02 1.62286269E-02 1.81481483E-01 1.30935799E-01 1.78135829E-02
 5 12 7.84464146E-03 9.60575902E-02 6.88752051E-02 1.17479607E-02-1.65281888E-01
 5 13-7.66863384E-02 1.30935799E-01 1.78135829E-02-8.71106341E-02-4.12351363E-02
 5 14 6.88752051E-02 1.17479607E-02 1.49053261E-01-1.04795145E-01 1.30935799E-01
 5 15 1.78135829E-02 7.92659926E-02-5.48224539E-02 6.88752051E-02 1.17479607E-02
 5 16 1.62286269E-02-1.81481483E-01-1.30935799E-01 1.78135829E-02 7.84464146E-03
 5 17-9.60575902E-02-6.88752051E-02-4.76595727E-02 2.23068287E-02-4.76595727E-02
 5 18 2.23068287E-02-4.76595727E-02 2.23068287E-02-4.76595727E-02 2.23068287E-02
 5 19-4.76595727E-02 2.23068287E-02-4.76595727E-02 2.23068287E-02-4.20059949E-02
 5 20 2.15989011E-02-4.20059949E-02 2.15989011E-02-4.20059949E-02 2.15989011E-02
 5 21-4.20059949E-02 2.15989011E-02-4.20059949E-02 2.15989011E-02-4.20059949E-02
 5 22 2.15989011E-02-4.07609214E-02 2.20004656E-02-4.07609214E-02 2.20004656E-02
 5 23-4.07609214E-02 2.20004656E-02-4.07609214E-02 2.20004656E-02-4.07609214E-02
 5 24 2.20004656E-02-4.07609214E-02 2.20004656E-02
 6  1 0.00000000E+00 0.00000000E+00 0.00000000E+00-2.45056188E-02 0.00000000E+00
 6  2 0.00000000E+00 0.00000000E+00 0.00000000E+00 0.00000000E+00 0.00000000E+00
 6  3 0.00000000E+00 0.00000000E+00 0.00000000E+00 0.00000000E+00 0.00000000E+00
 6  4 0.00000000E+00 0.00000000E+00 0.00000000E+00 0.00000000E+00 6.25403849E-02
 6  5 0.00000000E+00 0.00000000E+00 0.00000000E+00 2.30869251E-02 0.00000000E+00
 6  6 0.00000000E+00 0.00000000E+00-5.21529375E-03 0.00000000E+00 0.00000000E+00
 6  7 0.00000000E+00 0.00000000E+00 0.00000000E+00 0.00000000E+00 2.58775024E-01
 6  8-2.11998190E-02-1.40847263E-02 2.19350011E-02 5.58697297E-02-4.58186534E-03
 6  9-2.33470839E-03-5.01788319E-03 2.58775024E-01 2.27976403E-02-1.13172187E-02
 6 10 2.19350011E-02 5.58697297E-02 4.31284944E-03-2.80065759E-03-5.01788319E-03
 6 11-2.58775024E-01 1.59782126E-03 2.54019450E-02 2.19350011E-02-5.58697297E-02
 6 12-2.69015895E-04 5.13536597E-03-5.01788319E-03-2.58775024E-01-2.27976403E-02
 6 13-1.13172187E-02 2.19350011E-02-5.58697297E-02-4.31284944E-03-2.80065759E-03
 6 14-5.01788319E-03-2.58775024E-01 2.11998190E-02-1.40847263E-02 2.19350011E-02
 6 15-5.58697297E-02 4.58186534E-03-2.33470839E-03-5.01788319E-03 2.58775024E-01
 6 16-1.59782126E-03 2.54019450E-02 2.19350011E-02 5.58697297E-02 2.69015895E-04
 6 17 5.13536597E-03-5.01788319E-03 6.62099384E-02-4.98186663E-03 6.62099384E-02
 6 18-4.98186663E-03-6.62099384E-02 4.98186663E-03-6.62099384E-02 4.98186663E-03
 6 19-6.62099384E-02 4.98186663E-03 6.62099384E-02-4.98186663E-03 6.80354823E-02
 6 20-2.96961792E-03 6.80354823E-02-2.96961792E-03-6.80354823E-02 2.96961792E-03
 6 21-6.80354823E-02 2.96961792E-03-6.80354823E-02 2.96961792E-03 6.80354823E-02
 6 22-2.96961792E-03 6.34342231E-02-5.31908648E-03 6.34342231E-02-5.31908648E-03
 6 23-6.34342231E-02 5.31908648E-03-6.34342231E-02 5.31908648E-03-6.34342231E-02
 6 24 5.31908648E-03 6.34342231E-02-5.31908648E-03
 7  1 0.00000000E+00 0.00000000E+00 2.43189543E-02 0.00000000E+00 0.00000000E+00
 7  2 0.00000000E+00 0.00000000E+00 4.18095172E-03-1.94330942E-03 0.00000000E+00
 7  3 0.00000000E+00 0.00000000E+00 0.00000000E+00 2.12242801E-03-1.02276309E-03
 7  4 0.00000000E+00 0.00000000E+00 0.00000000E+00-6.13279684E-02 0.00000000E+00
 7  5 0.00000000E+00 0.00000000E+00-2.39532791E-02 0.00000000E+00 0.00000000E+00
 7  6 0.00000000E+00 5.06544970E-03 0.00000000E+00 0.00000000E+00 0.00000000E+00
 7  7 0.00000000E+00 6.08332387E-03-5.38472310E-03 0.00000000E+00 2.20507547E-01
 7  8-1.83541295E-02-1.60588527E-02 1.56583708E-02 4.70671626E-02-4.25930782E-03
 7  9 6.19568214E-03 3.02369825E-03 1.42608778E-01 1.22393147E-02-9.77205517E-03
 7 10 9.84457673E-03 3.18365544E-02 2.22128455E-03 7.08890295E-03 1.48152040E-03
 7 11 3.63116325E-01-2.38711897E-03-3.94101538E-02-2.55029475E-02 7.89037170E-02
 7 12 2.45459719E-04 1.02993493E-03-4.50521865E-03-1.42608778E-01-1.22393147E-02
 7 13-9.77205517E-03 9.84457673E-03-3.18365544E-02-2.22128455E-03 7.08890295E-03
 7 14 1.48152040E-03-2.20507547E-01 1.83541295E-02-1.60588527E-02 1.56583708E-02
 7 15-4.70671626E-02 4.25930782E-03 6.19568214E-03 3.02369825E-03-3.63116325E-01
 7 16 2.38711897E-03-3.94101538E-02-2.55029475E-02-7.89037170E-02-2.45459719E-04
 7 17 1.02993493E-03-4.50521865E-03 5.88712382E-02-2.02833992E-03 3.36958323E-02
 7 18-3.81963938E-03 9.25670706E-02-5.84797930E-03-3.36958323E-02 3.81963938E-03
 7 19-5.88712382E-02 2.02833992E-03-9.25670706E-02 5.84797930E-03 5.40969080E-02
 7 20-5.11143646E-03 3.66955798E-02-1.55665301E-03 9.07924878E-02-6.66808948E-03
 7 21-3.66955798E-02 1.55665301E-03-5.40969080E-02 5.11143646E-03-9.07924878E-02
 7 22 6.66808948E-03 5.53473301E-02-3.94061809E-03 3.88275423E-02-2.97487360E-03
 7 23 9.41748724E-02-6.91549169E-03-3.88275423E-02 2.97487360E-03-5.53473301E-02
 7 24 3.94061809E-03-9.41748724E-02 6.91549169E-03
 8  1 0.00000000E+00-2.43189543E-02 0.00000000E+00 0.00000000E+00 3.62081040E-03
 8  2-3.62081040E-03 0.00000000E+00 0.00000000E+00 0.00000000E+00-1.94330942E-03
 8  3 1.83807657E-03-1.83807657E-03 0.00000000E+00 0.00000000E+00 0.00000000E+00
 8  4-1.02276309E-03 0.00000000E+00 6.13279684E-02 0.00000000E+00 0.00000000E+00
 8  5 0.00000000E+00 2.39532791E-02 0.00000000E+00 0.00000000E+00 0.00000000E+00
 8  6-5.06544970E-03 0.00000000E+00 0.00000000E+00 5.26831301E-03-5.26831301E-03
 8  7 0.00000000E+00 0.00000000E+00 0.00000000E+00-5.38472310E-03-2.91980524E-01
 8  8 2.74351884E-02 1.58689989E-02-2.04079026E-02-6.39359255E-02-3.34733121E-03
 8  9 2.73698583E-03-3.45644540E-03 3.36955399E-01 3.37219859E-02-1.47244452E-02
 8 10 2.37644982E-02 7.27293212E-02-2.45411040E-03-3.74360654E-03 4.34682220E-03
 8 11-4.49748755E-02 4.08388733E-03 4.87224954E-03 3.35659557E-03-8.79339576E-03
 8 12-8.51307842E-03 1.27686227E-03 8.90376796E-04 3.36955399E-01 3.37219859E-02
 8 13 1.47244452E-02-2.37644982E-02 7.27293212E-02-2.45411040E-03 3.74360654E-03
 8 14-4.34682220E-03-2.91980524E-01 2.74351884E-02-1.58689989E-02 2.04079026E-02
 8 15-6.39359255E-02-3.34733121E-03-2.73698583E-03 3.45644540E-03-4.49748755E-02
 8 16 4.08388733E-03-4.87224954E-03-3.35659557E-03-8.79339576E-03-8.51307842E-03
 8 17-1.27686227E-03-8.90376796E-04-7.28979210E-02 5.58160225E-03 8.74329483E-02
 8 18-4.54739502E-03-1.45350274E-02-1.03420722E-03 8.74329483E-02-4.54739502E-03
 8 19-7.28979210E-02 5.58160225E-03-1.45350274E-02-1.03420722E-03-7.36052701E-02
 8 20 4.74855729E-03 8.36519317E-02-6.80091247E-03-1.00466615E-02 2.05235518E-03
 8 21 8.36519317E-02-6.80091247E-03-7.36052701E-02 4.74855729E-03-1.00466615E-02
 8 22 2.05235518E-03-7.67889800E-02 5.71020507E-03 8.63266839E-02-6.26777791E-03
 8 23-9.53770393E-03 5.57572842E-04 8.63266839E-02-6.26777791E-03-7.67889800E-02
 8 24 5.71020507E-03-9.53770393E-03 5.57572842E-04
 9  1 0.00000000E+00 0.00000000E+00 2.31972516E-03 0.00000000E+00 0.00000000E+00
 9  2 0.00000000E+00 0.00000000E+00-1.92299037E-02 2.79178348E-02 0.00000000E+00
 9  3 0.00000000E+00 0.00000000E+00 0.00000000E+00-1.07127986E-02 1.55371468E-02
 9  4 0.00000000E+00 0.00000000E+00 0.00000000E+00-7.42082547E-03 0.00000000E+00
 9  5 0.00000000E+00 0.00000000E+00-8.92530493E-03 0.00000000E+00 0.00000000E+00
 9  6 0.00000000E+00 6.46005807E-04 0.00000000E+00 0.00000000E+00 0.00000000E+00
 9  7 0.00000000E+00-3.26375990E-02 4.67629192E-02 0.00000000E+00-2.93183546E-01
 9  8 2.79420254E-02 1.77679044E-02-2.38571556E-02-5.31860691E-02 2.35384473E-03
 9  9 3.07718625E-03-1.22224138E-03 3.38330318E-01 3.38377689E-02-1.75313230E-02
 9 10 2.66458650E-02 6.56809022E-02 4.20429562E-03-7.31304458E-04 5.42678495E-03
 9 11 4.51467710E-02-3.19869566E-04-4.98757296E-03-2.78870945E-03 1.24948331E-02
 9 12 1.91795309E-05-4.29596584E-04-4.20454357E-03-3.38330318E-01-3.38377689E-02
 9 13-1.75313230E-02 2.66458650E-02-6.56809022E-02-4.20429562E-03-7.31304458E-04
 9 14 5.42678495E-03 2.93183546E-01-2.79420254E-02 1.77679044E-02-2.38571556E-02
 9 15 5.31860691E-02-2.35384473E-03 3.07718625E-03-1.22224138E-03-4.51467710E-02
 9 16 3.19869566E-04-4.98757296E-03-2.78870945E-03-1.24948331E-02-1.91795309E-05
 9 17-4.29596584E-04-4.20454357E-03-7.54023572E-02-2.32391864E-04 8.71146536E-02
 9 18-2.90353424E-03 1.17122964E-02-3.13592610E-03-8.71146536E-02 2.90353424E-03
 9 19 7.54023572E-02 2.32391864E-04-1.17122964E-02 3.13592610E-03-7.59804491E-02
 9 20-1.23115386E-03 8.72497454E-02-4.95154250E-03 1.12692963E-02-6.18269636E-03
 9 21-8.72497454E-02 4.95154250E-03 7.59804491E-02 1.23115386E-03-1.12692963E-02
 9 22 6.18269636E-03-7.55838951E-02 2.60679599E-04 8.77786948E-02-1.23983134E-03
 9 23 1.21947996E-02-9.79151744E-04-8.77786948E-02 1.23983134E-03 7.55838951E-02
 9 24-2.60679599E-04-1.21947996E-02 9.79151744E-04
10  1 0.00000000E+00-2.31972516E-03 0.00000000E+00 0.00000000E+00-1.66535851E-02
10  2 1.66535851E-02 0.00000000E+00 0.00000000E+00 0.00000000E+00 2.79178348E-02
10  3-9.27755571E-03 9.27755571E-03 0.00000000E+00 0.00000000E+00 0.00000000E+00
10  4 1.55371468E-02 0.00000000E+00 7.42082547E-03 0.00000000E+00 0.00000000E+00
10  5 0.00000000E+00 8.92530493E-03 0.00000000E+00 0.00000000E+00 0.00000000E+00
10  6-6.46005807E-04 0.00000000E+00 0.00000000E+00-2.82649899E-02 2.82649899E-02
10  7 0.00000000E+00 0.00000000E+00 0.00000000E+00 4.67629192E-02-2.21400600E-01
10  8 2.09352321E-02 1.34577505E-02-1.69940595E-02-4.51347818E-02 1.79966278E-03
10  9 2.00546248E-03-5.56065012E-03-1.43204099E-01-1.43639953E-02 7.56200700E-03
10 10-1.21638731E-02-2.34930961E-02-2.00882793E-03 1.55011591E-04 1.72183297E-03
10 11 3.64604699E-01-1.82024528E-03-4.10799064E-02-2.91579326E-02 6.86278778E-02
10 12-1.70712006E-03-4.37848674E-03-3.83881714E-03-1.43204099E-01-1.43639953E-02
10 13-7.56200700E-03 1.21638731E-02-2.34930961E-02-2.00882793E-03-1.55011591E-04
10 14-1.72183297E-03-2.21400600E-01 2.09352321E-02-1.34577505E-02 1.69940595E-02
10 15-4.51347818E-02 1.79966278E-03-2.00546248E-03 5.56065012E-03 3.64604699E-01
10 16-1.82024528E-03 4.10799064E-02 2.91579326E-02 6.86278778E-02-1.70712006E-03
10 17 4.37848674E-03 3.83881714E-03-5.70577662E-02 3.48688406E-03-3.67714738E-02
10 18-1.94469929E-03 9.38292400E-02-1.54218477E-03-3.67714738E-02-1.94469929E-03
10 19-5.70577662E-02 3.48688406E-03 9.38292400E-02-1.54218477E-03-5.68799952E-02
10 20 6.42835581E-03-3.73610015E-02-4.28038842E-03 9.42409967E-02-2.14796739E-03
10 21-3.73610015E-02-4.28038842E-03-5.68799952E-02 6.42835581E-03 9.42409967E-02
10 22-2.14796739E-03-5.77197239E-02 1.28113048E-03-3.65977113E-02-4.14810086E-04
10 23 9.43174352E-02-8.66320397E-04-3.65977113E-02-4.14810086E-04-5.77197239E-02
10 24 1.28113048E-03 9.43174352E-02-8.66320397E-04
11  1 0.00000000E+00 0.00000000E+00 6.67833607E-04 0.00000000E+00 0.00000000E+00
11  2 0.00000000E+00 0.00000000E+00 8.36991728E-02 5.88255006E-02 0.00000000E+00
11  3 0.00000000E+00 0.00000000E+00 0.00000000E+00 3.77446421E-02 2.64191900E-02
11  4 0.00000000E+00 0.00000000E+00 0.00000000E+00-4.48191059E-03 0.00000000E+00
11  5 0.00000000E+00 0.00000000E+00-9.73112986E-04 0.00000000E+00 0.00000000E+00
11  6 0.00000000E+00 6.74121544E-04 0.00000000E+00 0.00000000E+00 0.00000000E+00
11  7 0.00000000E+00-5.45447213E-03-4.01217046E-03 0.00000000E+00 7.45844822E-05
11  8 4.27336879E-03 1.47285921E-01 1.16121135E-01-5.19290089E-04-1.84105889E-03
11  9 5.10468514E-02 3.71977711E-02-1.02459096E-04-1.45498957E-03-1.83950319E-01
11 10-1.16604350E-01-9.03419353E-04 2.02478700E-03-5.54228821E-02-3.88038601E-02
11 11-2.78746135E-05 2.85449809E-01-1.33712954E-02 4.83214273E-04-1.42270944E-03
11 12 9.21136299E-02-5.53593611E-03 1.60608900E-03 1.02459096E-04 1.45498957E-03
11 13-1.83950319E-01-1.16604350E-01 9.03419353E-04-2.02478700E-03-5.54228821E-02
11 14-3.88038601E-02-7.45844822E-05-4.27336879E-03 1.47285921E-01 1.16121135E-01
11 15 5.19290089E-04 1.84105889E-03 5.10468514E-02 3.71977711E-02 2.78746135E-05
11 16-2.85449809E-01-1.33712954E-02 4.83214273E-04 1.42270944E-03-9.21136299E-02
11 17-5.53593611E-03 1.60608900E-03-7.32369769E-02 1.55442380E-03-9.32290930E-02
11 18-6.05588730E-03-1.66466070E-01-4.50146350E-03 9.32290930E-02 6.05588730E-03
11 19 7.32369769E-02-1.55442380E-03 1.66466070E-01 4.50146350E-03 1.06292552E-01
11 20 1.13503690E-03-2.84973405E-02 8.62013212E-04 7.77952112E-02 1.99705011E-03
11 21 2.84973405E-02-8.62013212E-04-1.06292552E-01-1.13503690E-03-7.77952112E-02
11 22-1.99705011E-03-3.28857257E-02-3.54697166E-03 1.21725532E-01 5.76882539E-03
11 23 8.88398068E-02 2.22185373E-03-1.21725532E-01-5.76882539E-03 3.28857257E-02
11 24 3.54697166E-03-8.88398068E-02-2.22185373E-03
12  1 0.00000000E+00-6.67833607E-04 0.00000000E+00 0.00000000E+00 7.24856099E-02
12  2-7.24856099E-02 0.00000000E+00 0.00000000E+00 0.00000000E+00 5.88255006E-02
12  3 3.26878189E-02-3.26878189E-02 0.00000000E+00 0.00000000E+00 0.00000000E+00
12  4 2.64191900E-02 0.00000000E+00 4.48191059E-03 0.00000000E+00 0.00000000E+00
12  5 0.00000000E+00 9.73112986E-04 0.00000000E+00 0.00000000E+00 0.00000000E+00
12  6-6.74121544E-04 0.00000000E+00 0.00000000E+00-4.72371143E-03 4.72371143E-03
12  7 0.00000000E+00 0.00000000E+00 0.00000000E+00-4.01217046E-03 7.52482021E-05
12  8 1.80643050E-01-1.92694322E-01 6.76005365E-02 1.34299109E-03 5.76548293E-02
12  9-5.94455423E-02 2.33306950E-02 2.69679553E-05-1.50593190E-01-1.86965963E-01
12 10 6.67635849E-02-1.12121395E-03-4.88149042E-02-6.33113882E-02 2.05488672E-02
12 11-1.02216157E-04 1.99858339E-02-9.70288557E-02 1.34364121E-01-2.21777134E-04
12 12 1.07204178E-03-3.08270287E-02 4.38795622E-02 2.69679553E-05-1.50593190E-01
12 13 1.86965963E-01-6.67635849E-02-1.12121395E-03-4.88149042E-02 6.33113882E-02
12 14-2.05488672E-02 7.52482021E-05 1.80643050E-01 1.92694322E-01-6.76005365E-02
12 15 1.34299109E-03 5.76548293E-02 5.94455423E-02-2.33306950E-02-1.02216157E-04
12 16 1.99858339E-02 9.70288557E-02-1.34364121E-01-2.21777134E-04 1.07204178E-03
12 17 3.08270287E-02-4.38795622E-02 1.49935072E-01 6.09528933E-03-1.38392619E-01
12 18-1.70147416E-03-1.15424536E-02-4.39381517E-03-1.38392619E-01-1.70147416E-03
12 19 1.49935072E-01 6.09528933E-03-1.15424536E-02-4.39381517E-03-2.84621389E-02
12 20-1.65068098E-03 1.06283119E-01 1.80831128E-03-7.78209805E-02-1.57630298E-04
12 21 1.06283119E-01 1.80831128E-03-2.84621389E-02-1.65068098E-03-7.78209805E-02
12 22-1.57630298E-04-1.21569955E-01-4.61342074E-03 3.23051038E-02-7.65057194E-04
12 23 8.92648515E-02 5.37847793E-03 3.23051038E-02-7.65057194E-04-1.21569955E-01
12 24-4.61342074E-03 8.92648515E-02 5.37847793E-03
13  1-6.91840605E-04 0.00000000E+00 0.00000000E+00 0.00000000E+00 5.11627077E-02
13  2 5.11627077E-02-1.02221912E-01 0.00000000E+00 0.00000000E+00 0.00000000E+00
13  3 2.28592973E-02 2.28592973E-02-4.64438770E-02 0.00000000E+00 0.00000000E+00
13  4 0.00000000E+00 3.47325869E-03 0.00000000E+00 0.00000000E+00 0.00000000E+00
13  5 4.84752490E-04 0.00000000E+00 0.00000000E+00 0.00000000E+00-1.00980258E-03
13  6 0.00000000E+00 0.00000000E+00 0.00000000E+00-5.01053712E-03-5.01053712E-03
13  7 5.98060610E-03 0.00000000E+00 0.00000000E+00 0.00000000E+00-5.57127598E-05
13  8 1.16197895E-01 7.17832310E-02 1.90074745E-01 1.14503380E-03 4.01974105E-02
13  9 1.78599005E-02 6.04511020E-02-5.57127598E-05-1.20265049E-01 6.47387135E-02
13 10 1.90074745E-01 1.14503380E-03-3.55658328E-02 2.58820285E-02 6.04511020E-02
13 11-5.57127598E-05 4.06715411E-03 1.36521945E-01-1.90074745E-01 1.14503380E-03
13 12-4.63157774E-03 4.37419289E-02-6.04511020E-02-5.57127598E-05-1.20265049E-01
13 13-6.47387135E-02-1.90074745E-01 1.14503380E-03-3.55658328E-02-2.58820285E-02
13 14-6.04511020E-02-5.57127598E-05 1.16197895E-01-7.17832310E-02-1.90074745E-01
13 15 1.14503380E-03 4.01974105E-02-1.78599005E-02-6.04511020E-02-5.57127598E-05
13 16 4.06715411E-03-1.36521945E-01 1.90074745E-01 1.14503380E-03-4.63157774E-03
13 17-4.37419289E-02 6.04511020E-02-5.45727349E-03-3.39188325E-03-5.45727349E-03
13 18-3.39188325E-03-5.45727349E-03-3.39188325E-03-5.45727349E-03-3.39188325E-03
13 19-5.45727349E-03-3.39188325E-03-5.45727349E-03-3.39188325E-03 1.19978270E-01
13 20 5.75094422E-03 1.19978270E-01 5.75094422E-03 1.19978270E-01 5.75094422E-03
13 21 1.19978270E-01 5.75094422E-03 1.19978270E-01 5.75094422E-03 1.19978270E-01
13 22 5.75094422E-03-1.15941849E-01-2.90077260E-03-1.15941849E-01-2.90077260E-03
13 23-1.15941849E-01-2.90077260E-03-1.15941849E-01-2.90077260E-03-1.15941849E-01
13 24-2.90077260E-03-1.15941849E-01-2.90077260E-03
14  1 0.00000000E+00 0.00000000E+00-2.34219319E-02 0.00000000E+00 0.00000000E+00
14  2 0.00000000E+00 0.00000000E+00 3.04654181E-03 1.02040693E-03 0.00000000E+00
14  3 0.00000000E+00 0.00000000E+00 0.00000000E+00 2.53511124E-04 1.56341967E-04
14  4 0.00000000E+00 0.00000000E+00 0.00000000E+00 4.22564643E-02 0.00000000E+00
14  5 0.00000000E+00 0.00000000E+00 8.18372461E-02 0.00000000E+00 0.00000000E+00
14  6 0.00000000E+00-2.35696974E-03 0.00000000E+00 0.00000000E+00 0.00000000E+00
14  7 0.00000000E+00 3.60548380E-03 1.66065525E-03 0.00000000E+00 5.09659806E-03
14  8-1.07844893E-01 2.39398337E-01 8.81813886E-02 4.76188971E-04-2.82052182E-02
14  9 7.50627380E-02 2.27765152E-02 5.39731394E-03 8.82286882E-02 2.27193279E-01
14 10 6.81401448E-02 5.94278861E-03 2.60781841E-02 6.61105398E-02 2.00716747E-02
14 11 1.04939120E-02 2.03779925E-02 6.34911053E-02-1.56321533E-01 6.41897758E-03
14 12 8.81634815E-03 2.35758335E-02-4.28481899E-02-5.39731394E-03-8.82286882E-02
14 13 2.27193279E-01 6.81401448E-02-5.94278861E-03-2.60781841E-02 6.61105398E-02
14 14 2.00716747E-02-5.09659806E-03 1.07844893E-01 2.39398337E-01 8.81813886E-02