!   This molecule is test case in the paper on MCQDPT parallelization:
!            H.Umeda, S.Koseki, U.Nagashima, M.W.Schmidt
!                J.Comput.Chem. 22, 1243-1251(2001)
!   The test is unruly when MCQDPT is used, so it now is Joe's DETPT,
!   and only 7 singlets (skipping many triplets and quintets):
!
!     MCSCF=  -56.687404740, CI STATE 23, MCQDPT E(MP2) = -57.0072323329
!     MCSCF=  -56.683884495, CI STATE 30, MCQDPT E(MP2) = -57.0072323245
!     MCSCF=  -56.683884494, CI STATE 31, MCQDPT E(MP2) = -57.0062991510
!     MCSCF=  -56.680665536, CI STATE 35, MCQDPT E(MP2) = -57.0014217263
!     MCSCF=  -56.680665530, CI STATE 36, MCQDPT E(MP2) = -57.0014217125
!     MCSCF=  -56.668854859, CI STATE 46, MCQDPT E(MP2) = -56.9867634992
!     MCSCF=  -56.668854859, CI STATE 47, MCQDPT E(MP2) = -56.9867634747
!
!   This run takes 232 seconds on 2.66 GHz Cloverton (22 Apr 2015)
!
!   --------------------------------------------------------------------
!   The answers were generated when the code still had 1d-6 denominator
!   shifts present.  The MCQDPT does not hold degeneracy well, and
!   Dmitri suggested later that thrcon=1e-8 thrgen=1e-10 should be
!   used.  In addition, why is there a nosym in the input?
!
!   Answers are given for the first 3 and last (28th) state, as there
!   is a state reversal in the first 3.  Even the 28th state is not
!   that high in energy, this really is a MCQDPT problem!
!
!  STATE                       1ST ORDER                       2ND ORDER
!    1     E(MCSCF)=      -56.6874047411     E(MP.)=      -57.0680447990
!    2     E(MCSCF)=      -56.6838844954     E(MP.)=      -57.0680426120
!    3     E(MCSCF)=      -56.6838844954     E(MP.)=      -57.0163910912
!   28     E(MCSCF)=      -56.6279984158     E(MP.)=      -56.9593346272
!
!   Typical run time is 73,250 sconds on IBM J50, using p=2 (20 Sep 2001)
!
 $contrl scftyp=mcscf mplevl=2 runtyp=energy mult=1 ecp=sbkjc $end
 $system parall=.t. mwords=5 memddi=0 $end
 $guess  guess=moread  norb=27     $end

!    the lowest seven singlet states are included in the MCQDPT
!    the four semi-core orbitals of Nb are to be included in the MCQDPT

!    determinants
 $mcscf  cistep=aldet soscf=.true. $end
 $det    group=c1 ncore=4 nact=10 nels=6
         nstate=50 wstate(1)=1,1,1,1,1,1,1 $end
 $mrmp   rdvecs=.true. mrpt=detmrpt $end
 $scf    dirscf=.t. $end
 $trans  dirtrf=.t. $end
 $detpt  nval=4 $end

!    CSFs
--- $mcscf  cistep=guga soscf=.true. $end
--- $drt    group=c1 fors=.true. nmcc=4 ndoc=1 nalp=4 nval=5 $end
--- $gugdia nstate=12  nextra=0  itermx=300  $end
--- $gugdm2 wstate(1)=1,1,1,1,1,1,1   $end
--- $mrmp   mrpt=mcqdpt rdvecs=.true. $end
--- $MCQDPT NMOFZC=0 NMODOC=4 NMOACT=10 NMOFZV=0 nosym=1 nstop=1000
---         thrgen=1d-12 MULT=1  ISTSYM=1 NSTATE=28 mxbase=60 $end

 $data
NbH, singlet states
Cnv   2

NIOBIUM   41.0  0.0  0.0  0.0
      s   4
      1  3.853D+01  -2.059D-03
      2  3.907D+00   1.618867D+00
      3  3.274D+00  -2.83086D+00
      4  1.052D+00   1.818465D+00
      p   4
      1  3.853D+01  -3.576D-03
      2  3.907D+00  -3.3217D-02
      3  3.274D+00  -1.85568D-01
      4  1.052D+00   1.133471D+00
      d   3
      1  7.994D+00   1.0433D-02
      2  1.55D+00    3.18071D-01
      3  6.666D-01   7.39654D-01
      d   1 ; 1  2.462D-01   1.0d+00
      s   2
      1  1.057D+00  -7.1919D-02
      2  7.876D-02   1.023797D+00
      p   2
      1  1.057D+00  -6.7815D-02
      2  7.876D-02   1.010254D+00
      s   1 ; 1  3.091D-02   1.0d+00
      p   1 ; 1  3.091D-02   1.0d+00
      s   1 ; 1  4.165D-01   1.0d+00
      p   1 ; 1  4.165D-01   1.0d+00
      d   1 ; 1  7.86D-02    1.0d+00
      f   1 ; 1  0.952       1.0d+00

HYDROGEN    1.0   0.0   0.0   1.8
      s  3
      1  1.300773400D+01   3.349460434D-02
      2  1.962079420D+00   2.347269535D-01
      3  4.445289530D-01   8.137573262D-01
      s  1 ; 1  1.219491560D-01   1.0d+00
      p  1 ; 1  1.100000d+00      1.0d+00

 $END
 SYMMETRIES FOR THE   4 CORE,  10 ACTIVE,   0 EXTERNAL MO-S ARE
 THE ELECTRONIC STATE IS  5-A   CONTAINS      2310 WALKS (CSF-S).
triplet =      -56.6727978995,  2 ITERS, E(NUC)=    0.6879304240
quintet =
10.0    =      -56.6727978996,  1 ITERS, E(NUC)=    0.6879304240
 9.0    =      -56.6727980874,  2 ITERS, E(NUC)=    0.7643671378
 8.0    =      -56.6727993795,  2 ITERS, E(NUC)=    0.8599130300
 7.0    =      -56.6728037358,  2 ITERS, E(NUC)=    0.9827577486
 6.4    =      -56.6728076579,  2 ITERS, E(NUC)=    1.0748912875
 6.0    =      -56.6728092211,  2 ITERS, E(NUC)=    1.1465507067
 5.6    =      -56.6728059568,  2 ITERS, E(NUC)=    1.2284471857
 5.2    =      -56.6727887468,  2 ITERS, E(NUC)=    1.3229431231
 4.8    =      -56.6727385306,  2 ITERS, E(NUC)=    1.4331883834
 4.4    =      -56.6726231137,  2 ITERS, E(NUC)=    1.5634782364
 4.0    =      -56.6724281151,  2 ITERS, E(NUC)=    1.7198260600
 3.8    =      -56.6723651360,  2 ITERS, E(NUC)=    1.8103432211
 3.6    =      -56.6725599228,  2 ITERS, E(NUC)=    1.9109178445
 3.4    =      -56.6737814408,  2 ITERS, E(NUC)=    2.0233247765
 3.2    =      -56.6773492972,  2 ITERS, E(NUC)=    2.1497825750
 3.0    =      -56.6837873266,  2 ITERS, E(NUC)=    2.2931014134
 2.8    =      -56.6927185415,  2 ITERS, E(NUC)=    2.4568943715
 2.6    =      -56.7034106428,  2 ITERS, E(NUC)=    2.6458862462
 2.4    =      -56.7149312430,  2 ITERS, E(NUC)=    2.8663767667
 2.2    =      -56.7258702413,  2 ITERS, E(NUC)=    3.1269564728
 2.0    =      -56.7337353593,  2 ITERS, E(NUC)=    3.4396521201
 1.9    =      -56.7352844337,  2 ITERS, E(NUC)=    3.6206864422
 1.8    =
   1     -56.733741528     -56.733741528  0.070515 4.519E-03  1   0.0000
   1     -56.734161378     -56.734161378  0.000188 1.305E-03  1   0.0000
   2     -56.734175532      -0.000014154  0.000091 8.517E-04  1   0.0000
   3     -56.734184473      -0.000008941  0.000092 5.666E-04  1   0.0000
   1     -56.734190476     -56.734190476  0.000060 3.753E-04  1   0.0000
   2     -56.734194246      -0.000003770  0.000047 2.373E-04  1   0.0000
   3     -56.734196594      -0.000002348  0.000037 1.462E-04  1   0.0000
   1     -56.734198109     -56.734198109  0.000028 8.807E-05  1   0.0000
   2     -56.734198965      -0.000000856  0.000022 5.171E-05  1   0.0000
   3     -56.734199463      -0.000000498  0.000016 3.009E-05  1   0.0000
   1     -56.734199755     -56.734199755  0.000013 1.764E-05  1   0.0000
   2     -56.734199897      -0.000000142  0.000009 9.915E-06  1   0.0000
   3     -56.734199914      -0.000000017  0.000009 1.003E-05  1   0.0000
   1     -56.734199922     -56.734199922  0.000009 9.945E-06  1   0.0000
   2     -56.734199922       0.000000000  0.000009 1.004E-05  1   0.0000
 FINAL MCSCF ENERGY IS      -56.7341999223 AFTER   2 ITERATIONS
   1     -56.734199922     -56.734199922  0.000009 9.945E-06  1   0.0000
   2     -56.734199922       0.000000000  0.000009 1.004E-05  1   0.0000
 FINAL MCSCF ENERGY IS      -56.7341999223 AFTER   2 ITERATIONS
   1     -56.734199922     -56.734199922  0.000009 9.945E-06  1   0.0000
   2     -56.734199922       0.000000000  0.000009 1.004E-05  1   0.0000
 FINAL MCSCF ENERGY IS      -56.7341999223 AFTER   2 ITERATIONS

 STATE #    1  ENERGY =     -56.752524203
     1239    0.961678  2001010011

 STATE #    2  ENERGY =     -56.752524202
      110    0.961677  2001100011

 STATE #    3  ENERGY =     -56.747438243
     1125    0.933446  2001110001

 STATE #    4  ENERGY =     -56.747438243
     1190    0.933446  2001110010

 STATE #    5  ENERGY =     -56.717428060
     1660    0.892919  2001111000
      609    0.302985  2001001011
     1345   -0.265300  2001110100

 STATE #    6  ENERGY =     -56.711023253
     1709    0.663493  2001011001
      560    0.663493  2001101010
     1394   -0.208518  2001010101
      280   -0.208518  2001100110

 STATE #    7  ENERGY =     -56.711023253
     1779   -0.663493  2001011010
      495    0.663493  2001101001
     1464    0.208518  2001010110
      215   -0.208518  2001100101

 STATE #    8  ENERGY =     -56.708336921
     1240    0.955389  2000110011

 STATE #    9  ENERGY =     -56.697333274
 STATE #   10  ENERGY =     -56.697333274
 STATE #   11  ENERGY =     -56.682347357
 STATE #   12  ENERGY =     -56.673605304

E(MCSCF)=      -56.7341999223,  2 ITERS, E(NUC)=    3.8218356890
 $VEC
 1  1 0.48076242E+00 0.00000000E+00 0.00000000E+00 0.62058177E-03 0.28909213E-01
 1  2 0.28909213E-01 0.24521966E-01 0.00000000E+00 0.00000000E+00 0.00000000E+00
 1  3-0.41735511E-02-0.41735511E-02-0.80219915E-02 0.00000000E+00 0.00000000E+00
 1  4 0.00000000E+00 0.28381175E-01 0.00000000E+00 0.00000000E+00-0.10648029E-02
 1  5 0.30051667E-02 0.00000000E+00 0.00000000E+00 0.52629804E-03 0.48615170E+00
 1  6 0.00000000E+00 0.00000000E+00-0.20351203E-02-0.70148658E-02-0.70148658E-02
 1  7-0.70091067E-02 0.00000000E+00 0.00000000E+00 0.00000000E+00 0.00000000E+00
 1  8 0.00000000E+00-0.17749254E-02 0.00000000E+00 0.26399465E-03 0.00000000E+00
 1  9 0.26399465E-03 0.00000000E+00 0.00000000E+00 0.00000000E+00-0.37978144E-03
 1 10-0.43567534E-02 0.00000000E+00 0.00000000E+00-0.67089799E-03
 2  1 0.00000000E+00 0.58412024E+00 0.00000000E+00 0.00000000E+00 0.00000000E+00
 2  2 0.00000000E+00 0.00000000E+00 0.00000000E+00-0.28193610E-04 0.00000000E+00
 2  3 0.00000000E+00 0.00000000E+00 0.00000000E+00 0.00000000E+00-0.21057026E-02
 2  4 0.00000000E+00 0.00000000E+00 0.36137450E-01 0.00000000E+00 0.00000000E+00
 2  5 0.00000000E+00-0.11559257E-01 0.00000000E+00 0.00000000E+00 0.00000000E+00
 2  6 0.47415745E+00 0.00000000E+00 0.00000000E+00 0.00000000E+00 0.00000000E+00
 2  7 0.00000000E+00 0.00000000E+00-0.18001912E-04 0.00000000E+00-0.91317022E-02
 2  8 0.00000000E+00 0.00000000E+00 0.00000000E+00 0.00000000E+00-0.40838229E-02
 2  9 0.00000000E+00-0.70049245E-02 0.00000000E+00 0.00000000E+00 0.00000000E+00
 2 10 0.00000000E+00 0.61693746E-03 0.00000000E+00 0.00000000E+00
 3  1 0.00000000E+00 0.00000000E+00 0.58412024E+00 0.00000000E+00 0.00000000E+00
 3  2 0.00000000E+00 0.00000000E+00 0.00000000E+00 0.00000000E+00-0.28193610E-04
 3  3 0.00000000E+00 0.00000000E+00 0.00000000E+00 0.00000000E+00 0.00000000E+00
 3  4-0.21057026E-02 0.00000000E+00 0.00000000E+00 0.36137450E-01 0.00000000E+00
 3  5 0.00000000E+00 0.00000000E+00-0.11559257E-01 0.00000000E+00 0.00000000E+00
 3  6 0.00000000E+00 0.47415745E+00 0.00000000E+00 0.00000000E+00 0.00000000E+00
 3  7 0.00000000E+00 0.00000000E+00 0.00000000E+00-0.18001912E-04 0.00000000E+00
 3  8-0.91317022E-02 0.00000000E+00-0.40838229E-02 0.00000000E+00 0.00000000E+00
 3  9 0.00000000E+00 0.00000000E+00-0.70049245E-02 0.00000000E+00 0.00000000E+00
 3 10 0.00000000E+00 0.00000000E+00 0.61693746E-03 0.00000000E+00
 4  1 0.28635182E-02 0.00000000E+00 0.00000000E+00 0.58505950E+00 0.15394050E-02
 4  2 0.15394050E-02-0.89472154E-02 0.00000000E+00 0.00000000E+00 0.00000000E+00
 4  3 0.13965037E-02 0.13965037E-02-0.14553657E-02 0.00000000E+00 0.00000000E+00
 4  4 0.00000000E+00 0.26081949E-02 0.00000000E+00 0.00000000E+00 0.41356158E-01
 4  5-0.37562401E-03 0.00000000E+00 0.00000000E+00-0.91874384E-02 0.36399762E-02
 4  6 0.00000000E+00 0.00000000E+00 0.47052957E+00 0.30508141E-03 0.30508141E-03
 4  7 0.71750573E-02 0.00000000E+00 0.00000000E+00 0.00000000E+00 0.00000000E+00
 4  8 0.00000000E+00-0.10735506E-01 0.00000000E+00-0.54073170E-02 0.00000000E+00
 4  9-0.54073170E-02 0.00000000E+00 0.00000000E+00 0.00000000E+00 0.28299639E-01
 4 10-0.10418868E-01 0.00000000E+00 0.00000000E+00-0.38137566E-02
 5  1-0.91593850E-01 0.00000000E+00 0.00000000E+00-0.11114435E+00-0.10546653E+00
 5  2-0.10546653E+00 0.24560593E+00 0.00000000E+00 0.00000000E+00 0.00000000E+00
 5  3-0.74582240E-01-0.74582240E-01 0.21635263E+00 0.00000000E+00 0.00000000E+00
 5  4 0.00000000E+00 0.20363887E+00 0.00000000E+00 0.00000000E+00 0.11418994E+00
 5  5 0.68319346E-01 0.00000000E+00 0.00000000E+00 0.50669900E-02-0.16346086E+00
 5  6 0.00000000E+00 0.00000000E+00-0.49294518E-01-0.26461367E-01-0.26461367E-01
 5  7 0.77109650E-01 0.00000000E+00 0.00000000E+00 0.00000000E+00 0.00000000E+00
 5  8 0.00000000E+00 0.13124403E-01 0.00000000E+00-0.87378832E-02 0.00000000E+00
 5  9-0.87378832E-02 0.00000000E+00 0.00000000E+00 0.00000000E+00 0.41369515E+00
 5 10 0.25290351E+00 0.00000000E+00 0.00000000E+00-0.16785060E-01
 6  1 0.00000000E+00-0.16735267E+00 0.00000000E+00 0.00000000E+00 0.00000000E+00
 6  2 0.00000000E+00 0.00000000E+00 0.00000000E+00-0.43576792E+00 0.00000000E+00
 6  3 0.00000000E+00 0.00000000E+00 0.00000000E+00 0.00000000E+00 0.20991783E+00
 6  4 0.00000000E+00 0.00000000E+00 0.59886064E+00 0.00000000E+00 0.00000000E+00
 6  5 0.00000000E+00-0.12129395E+00 0.00000000E+00 0.00000000E+00 0.00000000E+00
 6  6 0.76831272E-01 0.00000000E+00 0.00000000E+00 0.00000000E+00 0.00000000E+00
 6  7 0.00000000E+00 0.00000000E+00 0.37592929E+00 0.00000000E+00-0.12478278E+00
 6  8 0.00000000E+00 0.00000000E+00 0.00000000E+00 0.00000000E+00-0.55804589E-01
 6  9 0.00000000E+00 0.10058813E+00 0.00000000E+00 0.00000000E+00 0.00000000E+00
 6 10 0.00000000E+00 0.52453237E+00 0.00000000E+00 0.00000000E+00
 7  1 0.00000000E+00 0.00000000E+00-0.16735267E+00 0.00000000E+00 0.00000000E+00
 7  2 0.00000000E+00 0.00000000E+00 0.00000000E+00 0.00000000E+00-0.43576792E+00
 7  3 0.00000000E+00 0.00000000E+00 0.00000000E+00 0.00000000E+00 0.00000000E+00
 7  4 0.20991783E+00 0.00000000E+00 0.00000000E+00 0.59886064E+00 0.00000000E+00
 7  5 0.00000000E+00 0.00000000E+00-0.12129395E+00 0.00000000E+00 0.00000000E+00
 7  6 0.00000000E+00 0.76831272E-01 0.00000000E+00 0.00000000E+00 0.00000000E+00
 7  7 0.00000000E+00 0.00000000E+00 0.00000000E+00 0.37592929E+00 0.00000000E+00
 7  8-0.12478278E+00 0.00000000E+00-0.55804589E-01 0.00000000E+00 0.00000000E+00
 7  9 0.00000000E+00 0.00000000E+00 0.10058813E+00 0.00000000E+00 0.00000000E+00
 7 10 0.00000000E+00 0.00000000E+00 0.52453237E+00 0.00000000E+00
 8  1-0.15746861E+00 0.00000000E+00 0.00000000E+00 0.24306052E-01 0.15975933E+00
 8  2 0.15975933E+00-0.29715662E+00 0.00000000E+00 0.00000000E+00 0.00000000E+00
 8  3 0.15300035E+00 0.15300035E+00-0.21985775E+00 0.00000000E+00 0.00000000E+00
 8  4 0.00000000E+00 0.58152282E+00 0.00000000E+00 0.00000000E+00-0.13599393E+00
 8  5 0.28440432E+00 0.00000000E+00 0.00000000E+00-0.54075105E-01-0.29588054E+00
 8  6 0.00000000E+00 0.00000000E+00 0.19461745E-01 0.63647736E-01 0.63647736E-01
 8  7-0.90764066E-01 0.00000000E+00 0.00000000E+00 0.00000000E+00 0.00000000E+00
 8  8 0.00000000E+00 0.46109256E-02 0.00000000E+00-0.10012029E-04 0.00000000E+00
 8  9-0.10012029E-04 0.00000000E+00 0.00000000E+00 0.00000000E+00-0.69609237E-01
 8 10 0.32517616E-01 0.00000000E+00 0.00000000E+00 0.14054457E-02
 9  1 0.00000000E+00 0.00000000E+00 0.00000000E+00 0.00000000E+00 0.50657435E+00
 9  2-0.50657435E+00 0.00000000E+00 0.00000000E+00 0.00000000E+00 0.00000000E+00
 9  3 0.39946227E+00-0.39946227E+00 0.00000000E+00 0.00000000E+00 0.00000000E+00
 9  4 0.00000000E+00 0.00000000E+00 0.00000000E+00 0.00000000E+00 0.00000000E+00
 9  5 0.00000000E+00 0.00000000E+00 0.00000000E+00 0.00000000E+00 0.00000000E+00
 9  6 0.00000000E+00 0.00000000E+00 0.00000000E+00 0.13515185E+00-0.13515185E+00
 9  7 0.00000000E+00 0.00000000E+00 0.00000000E+00 0.00000000E+00 0.00000000E+00
 9  8 0.00000000E+00 0.00000000E+00 0.00000000E+00-0.23815825E-02 0.00000000E+00
 9  9 0.23815825E-02 0.00000000E+00 0.00000000E+00 0.00000000E+00 0.00000000E+00
 9 10 0.00000000E+00 0.00000000E+00 0.00000000E+00 0.00000000E+00
10  1 0.00000000E+00 0.00000000E+00 0.00000000E+00 0.00000000E+00 0.00000000E+00
10  2 0.00000000E+00 0.00000000E+00 0.58494161E+00 0.00000000E+00 0.00000000E+00
10  3 0.00000000E+00 0.00000000E+00 0.00000000E+00 0.46125931E+00 0.00000000E+00
10  4 0.00000000E+00 0.00000000E+00 0.00000000E+00 0.00000000E+00 0.00000000E+00
10  5 0.00000000E+00 0.00000000E+00 0.00000000E+00 0.00000000E+00 0.00000000E+00
10  6 0.00000000E+00 0.00000000E+00 0.00000000E+00 0.00000000E+00 0.00000000E+00
10  7 0.00000000E+00 0.15606000E+00 0.00000000E+00 0.00000000E+00 0.00000000E+00
10  8 0.00000000E+00 0.00000000E+00 0.00000000E+00 0.00000000E+00 0.00000000E+00
10  9 0.00000000E+00 0.00000000E+00 0.00000000E+00-0.27500340E-02 0.00000000E+00
10 10 0.00000000E+00 0.00000000E+00 0.00000000E+00 0.00000000E+00
11  1 0.45485845E-01 0.00000000E+00 0.00000000E+00-0.11817037E+00 0.23047739E+00
11  2 0.23047739E+00-0.44433420E+00 0.00000000E+00 0.00000000E+00 0.00000000E+00
11  3 0.16667369E+00 0.16667369E+00-0.34702476E+00 0.00000000E+00 0.00000000E+00
11  4 0.00000000E+00-0.30735927E+00 0.00000000E+00 0.00000000E+00 0.24616710E+00
11  5-0.19142638E+00 0.00000000E+00 0.00000000E+00 0.12143081E+00 0.97742313E-01
11  6 0.00000000E+00 0.00000000E+00-0.93292366E-01 0.57172147E-01 0.57172147E-01
11  7-0.14795129E+00 0.00000000E+00 0.00000000E+00 0.00000000E+00 0.00000000E+00
11  8 0.00000000E+00 0.10570024E-01 0.00000000E+00-0.51530083E-02 0.00000000E+00
11  9-0.51530083E-02 0.00000000E+00 0.00000000E+00 0.00000000E+00 0.45618351E+00
11 10 0.21440988E+00 0.00000000E+00 0.00000000E+00-0.29780469E-02
12  1 0.87979723E-01 0.00000000E+00 0.00000000E+00 0.15607432E+00 0.65062782E-01
12  2 0.65062782E-01-0.20837060E+00 0.00000000E+00 0.00000000E+00 0.00000000E+00
12  3-0.93161547E-03-0.93161547E-03-0.20719859E+00 0.00000000E+00 0.00000000E+00
12  4 0.00000000E+00-0.28462515E+00 0.00000000E+00 0.00000000E+00-0.83569385E+00
12  5 0.60496921E-01 0.00000000E+00 0.00000000E+00-0.17408782E+00 0.12123130E+00
12  6 0.00000000E+00 0.00000000E+00-0.49778720E-01 0.11182367E-01 0.11182367E-01
12  7-0.92463677E-01 0.00000000E+00 0.00000000E+00 0.00000000E+00 0.00000000E+00
12  8 0.00000000E+00 0.36323692E-01 0.00000000E+00 0.10064806E-01 0.00000000E+00
12  9 0.10064806E-01 0.00000000E+00 0.00000000E+00 0.00000000E+00 0.96911627E+00
12 10 0.17376969E-01 0.00000000E+00 0.00000000E+00-0.87570011E-03
13  1 0.00000000E+00 0.26174973E-01 0.00000000E+00 0.00000000E+00 0.00000000E+00
13  2 0.00000000E+00 0.00000000E+00 0.00000000E+00 0.58887740E+00 0.00000000E+00
13  3 0.00000000E+00 0.00000000E+00 0.00000000E+00 0.00000000E+00 0.44765067E+00
13  4 0.00000000E+00 0.00000000E+00-0.82532836E-01 0.00000000E+00 0.00000000E+00
13  5 0.00000000E+00 0.36878655E-02 0.00000000E+00 0.00000000E+00 0.00000000E+00
13  6-0.54440094E-02 0.00000000E+00 0.00000000E+00 0.00000000E+00 0.00000000E+00
13  7 0.00000000E+00 0.00000000E+00 0.16756774E+00 0.00000000E+00 0.80969823E-02
13  8 0.00000000E+00 0.00000000E+00 0.00000000E+00 0.00000000E+00 0.36210817E-02
13  9 0.00000000E+00-0.53691852E-02 0.00000000E+00 0.00000000E+00 0.00000000E+00
13 10 0.00000000E+00-0.72450081E-02 0.00000000E+00 0.00000000E+00
14  1 0.00000000E+00 0.00000000E+00 0.26174973E-01 0.00000000E+00 0.00000000E+00
14  2 0.00000000E+00 0.00000000E+00 0.00000000E+00 0.00000000E+00 0.58887740E+00
14  3 0.00000000E+00 0.00000000E+00 0.00000000E+00 0.00000000E+00 0.00000000E+00
14  4 0.44765067E+00 0.00000000E+00 0.00000000E+00-0.82532836E-01 0.00000000E+00
14  5 0.00000000E+00 0.00000000E+00 0.36878655E-02 0.00000000E+00 0.00000000E+00
14  6 0.00000000E+00-0.54440094E-02 0.00000000E+00 0.00000000E+00 0.00000000E+00
14  7 0.00000000E+00 0.00000000E+00 0.00000000E+00 0.16756774E+00 0.00000000E+00
14  8 0.80969823E-02 0.00000000E+00 0.36210817E-02 0.00000000E+00 0.00000000E+00
14  9 0.00000000E+00 0.00000000E+00-0.53691852E-02 0.00000000E+00 0.00000000E+00
14 10 0.00000000E+00 0.00000000E+00-0.72450081E-02 0.00000000E+00
15  1 0.00000000E+00-0.40970555E-01 0.00000000E+00 0.00000000E+00 0.00000000E+00
15  2 0.00000000E+00 0.00000000E+00 0.00000000E+00-0.77952062E+00 0.00000000E+00
15  3 0.00000000E+00 0.00000000E+00 0.00000000E+00 0.00000000E+00 0.12440337E+01
15  4 0.00000000E+00 0.00000000E+00-0.60002036E+00 0.00000000E+00 0.00000000E+00
15  5 0.00000000E+00 0.20297175E+00 0.00000000E+00 0.00000000E+00 0.00000000E+00
15  6 0.23567243E+00 0.00000000E+00 0.00000000E+00 0.00000000E+00 0.00000000E+00
15  7 0.00000000E+00 0.00000000E+00-0.91019124E+00 0.00000000E+00-0.75644144E-01
15  8 0.00000000E+00 0.00000000E+00 0.00000000E+00 0.00000000E+00-0.33829107E-01
15  9 0.00000000E+00 0.77655026E-01 0.00000000E+00 0.00000000E+00 0.00000000E+00
15 10 0.00000000E+00 0.24816751E+00 0.00000000E+00 0.00000000E+00
16  1 0.00000000E+00 0.00000000E+00-0.40970554E-01 0.00000000E+00 0.00000000E+00
16  2 0.00000000E+00 0.00000000E+00 0.00000000E+00 0.00000000E+00-0.77952062E+00
16  3 0.00000000E+00 0.00000000E+00 0.00000000E+00 0.00000000E+00 0.00000000E+00
16  4 0.12440337E+01 0.00000000E+00 0.00000000E+00-0.60002036E+00 0.00000000E+00
16  5 0.00000000E+00 0.00000000E+00 0.20297175E+00 0.00000000E+00 0.00000000E+00
16  6 0.00000000E+00 0.23567243E+00 0.00000000E+00 0.00000000E+00 0.00000000E+00
16  7 0.00000000E+00 0.00000000E+00 0.00000000E+00-0.91019124E+00 0.00000000E+00
16  8-0.75644144E-01 0.00000000E+00-0.33829107E-01 0.00000000E+00 0.00000000E+00
16  9 0.00000000E+00 0.00000000E+00 0.77655026E-01 0.00000000E+00 0.00000000E+00
16 10 0.00000000E+00 0.00000000E+00 0.24816751E+00 0.00000000E+00
17  1 0.00000000E+00 0.00000000E+00 0.00000000E+00 0.00000000E+00-0.95761481E+00
17  2 0.95761481E+00 0.00000000E+00 0.00000000E+00 0.00000000E+00 0.00000000E+00
17  3 0.12134573E+01-0.12134573E+01-0.18302680E-07 0.00000000E+00 0.00000000E+00
17  4 0.00000000E+00 0.10877503E-07 0.00000000E+00 0.00000000E+00 0.00000000E+00
17  5 0.00000000E+00 0.00000000E+00 0.00000000E+00 0.00000000E+00 0.00000000E+00
17  6 0.00000000E+00 0.00000000E+00 0.00000000E+00-0.46998495E+00 0.46998495E+00
17  7 0.00000000E+00 0.00000000E+00 0.00000000E+00 0.00000000E+00 0.00000000E+00
17  8 0.00000000E+00 0.00000000E+00 0.00000000E+00-0.47778829E-03 0.00000000E+00
17  9 0.47778829E-03 0.00000000E+00 0.00000000E+00 0.00000000E+00 0.00000000E+00
17 10 0.00000000E+00 0.00000000E+00 0.00000000E+00 0.00000000E+00
18  1 0.00000000E+00 0.00000000E+00 0.00000000E+00 0.00000000E+00 0.00000000E+00
18  2 0.00000000E+00 0.00000000E+00-0.11057584E+01 0.00000000E+00 0.00000000E+00
18  3 0.00000000E+00 0.00000000E+00 0.00000000E+00 0.14011797E+01 0.00000000E+00
18  4 0.00000000E+00 0.00000000E+00 0.00000000E+00 0.00000000E+00 0.00000000E+00
18  5 0.00000000E+00 0.00000000E+00 0.00000000E+00 0.00000000E+00 0.00000000E+00
18  6 0.00000000E+00 0.00000000E+00 0.00000000E+00 0.00000000E+00 0.00000000E+00
18  7 0.00000000E+00-0.54269186E+00 0.00000000E+00 0.00000000E+00 0.00000000E+00
18  8 0.00000000E+00 0.00000000E+00 0.00000000E+00 0.00000000E+00 0.00000000E+00
18  9 0.00000000E+00 0.00000000E+00 0.00000000E+00-0.55169944E-03 0.00000000E+00
18 10 0.00000000E+00 0.00000000E+00 0.00000000E+00 0.00000000E+00
19  1 0.15522479E-01 0.00000000E+00 0.00000000E+00 0.32555191E+00 0.49053388E+00
19  2 0.49053388E+00-0.11236617E+01 0.00000000E+00 0.00000000E+00 0.00000000E+00
19  3-0.94880173E+00-0.94880173E+00 0.12356941E+01 0.00000000E+00 0.00000000E+00
19  4 0.00000000E+00 0.75154664E+00 0.00000000E+00 0.00000000E+00 0.45948170E-01
19  5 0.17129494E+00 0.00000000E+00 0.00000000E+00-0.27541801E+00-0.19801367E+00
19  6 0.00000000E+00 0.00000000E+00-0.55689537E+00 0.24215174E-01 0.24215174E-01
19  7-0.10387130E+01 0.00000000E+00 0.00000000E+00 0.00000000E+00 0.00000000E+00
19  8 0.00000000E+00 0.18016879E-01 0.00000000E+00 0.99176806E-01 0.00000000E+00
19  9 0.99176806E-01 0.00000000E+00 0.00000000E+00 0.00000000E+00-0.60066646E+00
19 10 0.85311553E+00 0.00000000E+00 0.00000000E+00 0.73727199E-01
20  1 0.75933749E+00 0.00000000E+00 0.00000000E+00 0.21895085E-01-0.11662739E+01
20  2-0.11662739E+01-0.10708961E+01 0.00000000E+00 0.00000000E+00 0.00000000E+00
20  3-0.45298017E+01-0.45298017E+01-0.46074836E+01 0.00000000E+00 0.00000000E+00
20  4 0.00000000E+00 0.16769779E+02 0.00000000E+00 0.00000000E+00 0.52749489E-02
20  5 0.29373948E+01 0.00000000E+00 0.00000000E+00-0.62765431E-01-0.20843512E+01
20  6 0.00000000E+00 0.00000000E+00-0.58537417E-01-0.41918204E+01-0.41918204E+01
20  7-0.42201740E+01 0.00000000E+00 0.00000000E+00 0.00000000E+00 0.00000000E+00
20  8 0.00000000E+00-0.17513411E-02 0.00000000E+00 0.13544038E-01 0.00000000E+00
20  9 0.13544038E-01 0.00000000E+00 0.00000000E+00 0.00000000E+00-0.17819319E+00
20 10 0.23785517E+00 0.00000000E+00 0.00000000E+00 0.67742859E-02
21  1-0.15015254E-01 0.00000000E+00 0.00000000E+00-0.15278665E+01 0.13246317E+00
21  2 0.13246317E+00-0.23225859E+00 0.00000000E+00 0.00000000E+00 0.00000000E+00
21  3-0.43193928E+00-0.43193928E+00-0.10933235E+00 0.00000000E+00 0.00000000E+00
21  4 0.00000000E+00 0.69615127E+00 0.00000000E+00 0.00000000E+00-0.15056177E+01
21  5 0.18436780E+00 0.00000000E+00 0.00000000E+00 0.31879118E+00-0.25708035E+00
21  6 0.00000000E+00 0.00000000E+00 0.21287906E+01-0.15560119E+00-0.15560119E+00
21  7-0.81423688E+00 0.00000000E+00 0.00000000E+00 0.00000000E+00 0.00000000E+00
21  8 0.00000000E+00-0.14241444E+00 0.00000000E+00-0.19182260E+00 0.00000000E+00
21  9-0.19182260E+00 0.00000000E+00 0.00000000E+00 0.00000000E+00-0.25211799E+00
21 10 0.11764481E+01 0.00000000E+00 0.00000000E+00-0.28100649E+00
22  1 0.00000000E+00-0.16143903E+01 0.00000000E+00 0.00000000E+00 0.00000000E+00
22  2 0.00000000E+00 0.00000000E+00 0.00000000E+00 0.22327838E+00 0.00000000E+00
22  3 0.00000000E+00 0.00000000E+00 0.00000000E+00 0.00000000E+00-0.23768438E+00
22  4 0.00000000E+00 0.00000000E+00-0.10634382E+01 0.00000000E+00 0.00000000E+00
22  5 0.00000000E+00 0.49443761E+00 0.00000000E+00 0.00000000E+00 0.00000000E+00
22  6 0.24290275E+01 0.00000000E+00 0.00000000E+00 0.00000000E+00 0.00000000E+00
22  7 0.00000000E+00 0.00000000E+00 0.13348013E-01 0.00000000E+00-0.38929105E+00
22  8 0.00000000E+00 0.00000000E+00 0.00000000E+00 0.00000000E+00-0.17409627E+00
22  9 0.00000000E+00-0.82015635E-01 0.00000000E+00 0.00000000E+00 0.00000000E+00
22 10 0.00000000E+00 0.13270903E+00 0.00000000E+00 0.00000000E+00
23  1 0.00000000E+00 0.00000000E+00-0.16143903E+01 0.00000000E+00 0.00000000E+00
23  2 0.00000000E+00 0.00000000E+00 0.00000000E+00 0.00000000E+00 0.22327838E+00
23  3 0.00000000E+00 0.00000000E+00 0.00000000E+00 0.00000000E+00 0.00000000E+00
23  4-0.23768438E+00 0.00000000E+00 0.00000000E+00-0.10634382E+01 0.00000000E+00
23  5 0.00000000E+00 0.00000000E+00 0.49443761E+00 0.00000000E+00 0.00000000E+00
23  6 0.00000000E+00 0.24290275E+01 0.00000000E+00 0.00000000E+00 0.00000000E+00
23  7 0.00000000E+00 0.00000000E+00 0.00000000E+00 0.13348013E-01 0.00000000E+00
23  8-0.38929105E+00 0.00000000E+00-0.17409627E+00 0.00000000E+00 0.00000000E+00
23  9 0.00000000E+00 0.00000000E+00-0.82015634E-01 0.00000000E+00 0.00000000E+00
23 10 0.00000000E+00 0.00000000E+00 0.13270903E+00 0.00000000E+00
24  1-0.91737844E-01 0.00000000E+00 0.00000000E+00-0.18475335E-01 0.79525005E-01
24  2 0.79525005E-01 0.28244879E+00 0.00000000E+00 0.00000000E+00 0.00000000E+00
24  3 0.43972670E+00 0.43972670E+00 0.19631762E-01 0.00000000E+00 0.00000000E+00
24  4 0.00000000E+00-0.23185138E+01 0.00000000E+00 0.00000000E+00-0.19034805E+01
24  5-0.10406447E+00 0.00000000E+00 0.00000000E+00-0.50279217E+00-0.14018828E+00
24  6 0.00000000E+00 0.00000000E+00-0.20227785E+00 0.30258470E+00 0.30258470E+00
24  7-0.12784998E+01 0.00000000E+00 0.00000000E+00 0.00000000E+00 0.00000000E+00
24  8 0.00000000E+00 0.78369721E-01 0.00000000E+00 0.52645537E-01 0.00000000E+00
24  9 0.52645537E-01 0.00000000E+00 0.00000000E+00 0.00000000E+00-0.90435863E+00
24 10 0.41306141E+01 0.00000000E+00 0.00000000E+00 0.83187177E-03
25  1 0.00000000E+00 0.40803893E+00 0.00000000E+00 0.00000000E+00 0.00000000E+00
25  2 0.00000000E+00 0.00000000E+00 0.00000000E+00 0.54940983E+00 0.00000000E+00
25  3 0.00000000E+00 0.00000000E+00 0.00000000E+00 0.00000000E+00-0.60318932E+00
25  4 0.00000000E+00 0.00000000E+00-0.11853671E+00 0.00000000E+00 0.00000000E+00
25  5 0.00000000E+00-0.19725026E-02 0.00000000E+00 0.00000000E+00 0.00000000E+00
25  6-0.47044069E+00 0.00000000E+00 0.00000000E+00 0.00000000E+00 0.00000000E+00
25  7 0.00000000E+00 0.00000000E+00-0.28155597E-01 0.00000000E+00-0.29615193E+00
25  8 0.00000000E+00 0.00000000E+00 0.00000000E+00 0.00000000E+00-0.13244326E+00
25  9 0.00000000E+00 0.65408950E+00 0.00000000E+00 0.00000000E+00 0.00000000E+00
25 10 0.00000000E+00 0.59889344E+00 0.00000000E+00 0.00000000E+00
26  1 0.00000000E+00 0.00000000E+00 0.40803893E+00 0.00000000E+00 0.00000000E+00
26  2 0.00000000E+00 0.00000000E+00 0.00000000E+00 0.00000000E+00 0.54940983E+00
26  3 0.00000000E+00 0.00000000E+00 0.00000000E+00 0.00000000E+00 0.00000000E+00
26  4-0.60318932E+00 0.00000000E+00 0.00000000E+00-0.11853671E+00 0.00000000E+00
26  5 0.00000000E+00 0.00000000E+00-0.19725029E-02 0.00000000E+00 0.00000000E+00
26  6 0.00000000E+00-0.47044069E+00 0.00000000E+00 0.00000000E+00 0.00000000E+00
26  7 0.00000000E+00 0.00000000E+00 0.00000000E+00-0.28155596E-01 0.00000000E+00
26  8-0.29615193E+00 0.00000000E+00-0.13244326E+00 0.00000000E+00 0.00000000E+00
26  9 0.00000000E+00 0.00000000E+00 0.65408950E+00 0.00000000E+00 0.00000000E+00
26 10 0.00000000E+00 0.00000000E+00 0.59889344E+00 0.00000000E+00
27  1-0.47124145E-02 0.00000000E+00 0.00000000E+00 0.47510172E+00 0.34247971E-02
27  2 0.34247971E-02-0.28964384E-01 0.00000000E+00 0.00000000E+00 0.00000000E+00
27  3-0.21413547E+00-0.21413547E+00-0.29176899E+00 0.00000000E+00 0.00000000E+00
27  4 0.00000000E+00 0.80929812E+00 0.00000000E+00 0.00000000E+00 0.34254311E+00
27  5 0.74256407E-01 0.00000000E+00 0.00000000E+00-0.12668822E+00-0.12823168E+00
27  6 0.00000000E+00 0.00000000E+00-0.72120694E+00-0.20002870E+00-0.20002870E+00
27  7-0.35801590E-01 0.00000000E+00 0.00000000E+00 0.00000000E+00 0.00000000E+00
27  8 0.00000000E+00 0.10034536E+01 0.00000000E+00-0.56674800E+00 0.00000000E+00
27  9-0.56674800E+00 0.00000000E+00 0.00000000E+00 0.00000000E+00-0.95222806E-01
27 10-0.54538308E-01 0.00000000E+00 0.00000000E+00-0.30635647E+00
 $end

! TRAVIS-CI SMALL

! TRAVIS-CI SKIP
