!  NH2...2nd order perturbation test, following
!  T.J.Lee, A.P.Rendell, K.G.Dyall, D.Jayatilaka
!  J.Chem.Phys. 100, 7400-7409(1994), Table III.
!  State is 2-B-1, 69 AOs, either 1 or 49 CSFs.
!
!  For 49 CSF full valence MCSCF reference, E(MC)= -55.6323324950
!      CAS CSFs: E(MP2) = -55.7857462631
!      CAS dets: E(MP2) = -55.7857462631   <---this run's answer
!  general dets: E(MP2) = -55.7857462631
!
!  This run takes 9 seconds on 2.66 GHz Cloverton (27 Apr 2015)
!  answers are essentially unchanged since 2005
!
!  ------------------------------------------------------------------------
!  The paper is about single reference open shell PT, for which results are
!    E(ROHF) = -55.5836109825
!    E(ZAPT) = -55.7763947115
!   [E(ZAPT) = -55.7763947289 at lit's ZAPT geom]
!     E(RMP) = -55.7772299958
!    E(OPT1) = -55.7830422945
!   [E(OPT1) = -55.7830437413 at lit's OPT1 geom]
!  and this input shows how to run each of those theories, too.
!
 $contrl scftyp=mcscf mplevl=2 runtyp=energy mult=2 $end
 $system parall=.t. mwords=1 memddi=1 $end
 $guess  guess=moread norb=69 $end
 $mcscf  fullnr=.true. $end
!
!      Next set of lines carry out a MRMP computation,
!      after a preliminary MCSCF orbital optimization.
!
!      using determinants for the MCSCF
 $mcscf  cistep=aldet soscf=.true. $end
 $det    stsym=b1 ncore=1 nact=6 nels=7 $end

!      (no input at all is needed for 1 state run, not even the MR-PT line)
 $mrmp   mrpt=detmrpt $end

!      MRMP, using CSFs
--- $mcscf  cistep=guga $end
--- $drt    group=c2v stsym=b1 fors=.t.
---         nmcc=1 ndoc=3 nalp=1 nval=2 $end
--- $mrmp   mrpt=mcqdpt $end
--- $mcqdpt stsym=b1 nmofzc=1 nmodoc=0 nmoact=6 thrgen=1d-12 $end

!      MRMP, using determinants, and the general PT program.
--- $system parall=.false. mwords=10 memddi=0 $end
--- $mrmp   mrpt=gmcpt $end
--- $gmcpt  nmofzc=1 nmodoc=0 nmoact=6 nelact=7 mult=2 stsym=b1
---         reftyp=ormas nspace=1 mstart(1)=2 mine(1)=7 maxe(1)=7 
---         kxgmc=.false.    krot=.false. kszdoe=.false. thrde=-1.0
---         thrwgt=-1.0 thrgen=1d-12 thrhde=1d+10 $end

!      Next lines carry out a single reference OPT1.
!      We skip the MCSCF step, using converged $VEC below,
!      but must formally define active space with one
!      alpha spin so that info reaches the two MRMP codes!
!      To wit: both kinds of OPT1 runs should use next line:
--- $det    stsym=b1 ncore=4 nact=1 nels=1 $end
!              use these two lines for CSF-based OPT1
--- $mrmp   mrpt=mcqdpt rdvecs=.true. $end
--- $mcqdpt stsym=b1 nmofzc=1 nmodoc=3 nmoact=1 $end
!              use these two lines for determinant-based OPT1
--- $mrmp   mrpt=detmrpt rdvecs=.true. $end
--- $detpt  $end

!     Next lines are single reference RMP and/or ZAPT
--- $contrl scftyp=rohf $end
--- $mp2    ospt=rmp $end

 $data
2-B-1 state...TZ2Pf basis, RMP geom. of Lee, et al.
Cnv  2

Nitrogen   7.0
  S 6
   1 13520.0    0.000760
   2  1999.0    0.006076
   3   440.0    0.032847
   4   120.9    0.132396
   5    38.47   0.393261
   6    13.46   0.546339
  S 2
   1    13.46   0.252036
   2     4.993  0.779385
  S 1 ; 1 1.569  1.0
  S 1 ; 1 0.5800 1.0
  S 1 ; 1 0.1923 1.0
  P 3
   1 35.91  0.040319
   2  8.480 0.243602
   3  2.706 0.805968
  P 1 ; 1 0.9921 1.0
  P 1 ; 1 0.3727 1.0
  P 1 ; 1 0.1346 1.0
  D 1 ; 1 1.654 1.0
  D 1 ; 1 0.469 1.0
  F 1 ; 1 1.093 1.0

Hydrogen   1.0  0.0 0.7993787 0.6359684
  S 3   ! note that this is unscaled
   1 33.64  0.025374
   2  5.058 0.189684
   3  1.147 0.852933
  S 1 ; 1 0.3211 1.0
  S 1 ; 1 0.1013 1.0
  P 1 ; 1 1.407 1.0
  P 1 ; 1 0.388 1.0
  D 1 ; 1 1.057 1.0

 $end

OPT1 geom: H 1.0  0.0 0.7998834 0.6369401
RMP  geom: H 1.0  0.0 0.7993787 0.6359684
ZAPT geom: H 1.0  0.0 0.7994114 0.6357666

--- ROHF ORBITALS --- GENERATED AT 17:17:13 CST 28-OCT-1996
NH2...2-B-1 state...TZ2Pf basis, RMP geom. used by Lee, et al.                  
E(ROHF)=      -55.5836109825, E(NUC)=    7.5835449477,    9 ITERS
 $VEC
 1  1 5.58322965E-01 4.70929432E-01 5.73806136E-02-1.13046053E-02-5.09017043E-03
 1  2 0.00000000E+00 0.00000000E+00 2.75137270E-03 0.00000000E+00 0.00000000E+00
 1  3-2.05538347E-03 0.00000000E+00 0.00000000E+00 2.77424124E-04 0.00000000E+00
 1  4 0.00000000E+00-7.24231201E-05 6.03351037E-04 7.50771838E-04 8.20867850E-04
 1  5 0.00000000E+00 0.00000000E+00 0.00000000E+00 3.16903082E-03 3.45364974E-03
 1  6 3.46577404E-03 0.00000000E+00 0.00000000E+00 0.00000000E+00 0.00000000E+00
 1  7 0.00000000E+00 1.04853928E-03 0.00000000E+00 4.25519242E-04 0.00000000E+00
 1  8 5.87003260E-04 0.00000000E+00 0.00000000E+00 0.00000000E+00 1.07039982E-04
 1  9-4.94208037E-04 4.09678130E-04 0.00000000E+00 8.62929738E-05-8.17899975E-05
 1 10 0.00000000E+00-2.44935789E-04 2.35975874E-04-3.67060923E-05-4.30004639E-05
 1 11-4.15870220E-05 0.00000000E+00 0.00000000E+00 1.34276932E-06 1.07039982E-04
 1 12-4.94208037E-04 4.09678130E-04 0.00000000E+00-8.62929738E-05-8.17899975E-05
 1 13 0.00000000E+00 2.44935789E-04 2.35975874E-04-3.67060923E-05-4.30004639E-05
 1 14-4.15870220E-05 0.00000000E+00 0.00000000E+00-1.34276932E-06
 2  1-1.10690460E-01-1.84489169E-01 7.60382938E-02 4.46509886E-01 2.17483711E-01
 2  2 0.00000000E+00 0.00000000E+00 4.39709542E-02 0.00000000E+00 0.00000000E+00
 2  3 7.29842155E-02 0.00000000E+00 0.00000000E+00 5.57119154E-02 0.00000000E+00
 2  4 0.00000000E+00 1.28673092E-02 2.53136348E-03 1.33115586E-02 1.18086736E-02
 2  5 0.00000000E+00 0.00000000E+00 0.00000000E+00 7.26347993E-03 1.74422775E-02
 2  6 2.00275371E-02 0.00000000E+00 0.00000000E+00 0.00000000E+00 0.00000000E+00
 2  7 0.00000000E+00 1.29558994E-03 0.00000000E+00-2.08389654E-04 0.00000000E+00
 2  8 2.69373334E-03 0.00000000E+00 0.00000000E+00 0.00000000E+00 1.07815497E-01
 2  9 1.22471333E-01 1.95839917E-02 0.00000000E+00 1.19050955E-02-8.21382737E-03
 2 10 0.00000000E+00 1.87342433E-02-8.97177147E-03-3.24268121E-04 3.87331761E-03
 2 11 1.58785775E-03 0.00000000E+00 0.00000000E+00-3.23986966E-03 1.07815497E-01
 2 12 1.22471333E-01 1.95839917E-02 0.00000000E+00-1.19050955E-02-8.21382737E-03
 2 13 0.00000000E+00-1.87342433E-02-8.97177147E-03-3.24268121E-04 3.87331761E-03
 2 14 1.58785775E-03 0.00000000E+00 0.00000000E+00 3.23986966E-03
 3  1 0.00000000E+00 0.00000000E+00 0.00000000E+00 0.00000000E+00 0.00000000E+00
 3  2 0.00000000E+00 1.57163588E-01 0.00000000E+00 0.00000000E+00 2.44594195E-01
 3  3 0.00000000E+00 0.00000000E+00 2.45075287E-01 0.00000000E+00 0.00000000E+00
 3  4 9.16040596E-02 0.00000000E+00 0.00000000E+00 0.00000000E+00 0.00000000E+00
 3  5 0.00000000E+00 0.00000000E+00 1.79064523E-02 0.00000000E+00 0.00000000E+00
 3  6 0.00000000E+00 0.00000000E+00 0.00000000E+00 2.59629081E-02 0.00000000E+00
 3  7 1.57401582E-03 0.00000000E+00-5.58670384E-04 0.00000000E+00 0.00000000E+00
 3  8 0.00000000E+00 0.00000000E+00-1.11704954E-04 0.00000000E+00-1.46088860E-01
 3  9-2.28940339E-01-7.84959314E-02 0.00000000E+00-9.45445361E-03 1.22576473E-02
 3 10 0.00000000E+00-1.35782571E-02 1.86825338E-02 1.84125493E-03-1.12002853E-03
 3 11-1.71286715E-03 0.00000000E+00 0.00000000E+00 4.58846445E-03 1.46088860E-01
 3 12 2.28940339E-01 7.84959314E-02 0.00000000E+00-9.45445361E-03-1.22576473E-02
 3 13 0.00000000E+00-1.35782571E-02-1.86825338E-02-1.84125493E-03 1.12002853E-03
 3 14 1.71286715E-03 0.00000000E+00 0.00000000E+00 4.58846445E-03
 4  1-5.29970847E-02-9.22208653E-02 3.31185044E-02 2.57181075E-01 3.52542177E-01
 4  2 0.00000000E+00 0.00000000E+00-1.75097514E-01 0.00000000E+00 0.00000000E+00
 4  3-2.67243820E-01 0.00000000E+00 0.00000000E+00-2.74343016E-01 0.00000000E+00
 4  4 0.00000000E+00-2.21749647E-01 8.06528692E-03 9.59567110E-04-5.79035504E-03
 4  5 0.00000000E+00 0.00000000E+00 0.00000000E+00 1.32282179E-02 6.00452576E-03
 4  6-1.99418206E-02 0.00000000E+00 0.00000000E+00 0.00000000E+00 0.00000000E+00
 4  7 0.00000000E+00-6.17056088E-03 0.00000000E+00-3.18457235E-03 0.00000000E+00
 4  8-4.39452817E-03 0.00000000E+00 0.00000000E+00 0.00000000E+00-7.29613716E-02
 4  9-1.45185489E-01-2.64376687E-02 0.00000000E+00-7.46857638E-03-1.52100420E-03
 4 10 0.00000000E+00-2.15827723E-02-9.49630008E-03 1.36387240E-03-2.72285250E-03
 4 11 3.05345268E-03 0.00000000E+00 0.00000000E+00 4.29399069E-04-7.29613716E-02
 4 12-1.45185489E-01-2.64376687E-02 0.00000000E+00 7.46857638E-03-1.52100420E-03
 4 13 0.00000000E+00 2.15827723E-02-9.49630008E-03 1.36387240E-03-2.72285250E-03
 4 14 3.05345268E-03 0.00000000E+00 0.00000000E+00-4.29399069E-04
 5  1 0.00000000E+00 0.00000000E+00 0.00000000E+00 0.00000000E+00 0.00000000E+00
 5  2 2.12098947E-01 0.00000000E+00 0.00000000E+00 3.31602588E-01 0.00000000E+00
 5  3 0.00000000E+00 3.98538590E-01 0.00000000E+00 0.00000000E+00 2.55528855E-01
 5  4 0.00000000E+00 0.00000000E+00 0.00000000E+00 0.00000000E+00 0.00000000E+00
 5  5 0.00000000E+00 6.69468636E-03 0.00000000E+00 0.00000000E+00 0.00000000E+00
 5  6 0.00000000E+00 0.00000000E+00 2.58012665E-02 0.00000000E+00 7.06011749E-03
 5  7 0.00000000E+00 0.00000000E+00 0.00000000E+00 0.00000000E+00 6.11397064E-05
 5  8 0.00000000E+00-2.33728143E-03 0.00000000E+00 0.00000000E+00 0.00000000E+00
 5  9 0.00000000E+00 0.00000000E+00 8.77173408E-03 0.00000000E+00 0.00000000E+00
 5 10 2.20115286E-02 0.00000000E+00 0.00000000E+00 0.00000000E+00 0.00000000E+00
 5 11 0.00000000E+00 2.95184238E-03-2.54047542E-03 0.00000000E+00 0.00000000E+00
 5 12 0.00000000E+00 0.00000000E+00 8.77173408E-03 0.00000000E+00 0.00000000E+00
 5 13 2.20115286E-02 0.00000000E+00 0.00000000E+00 0.00000000E+00 0.00000000E+00
 5 14 0.00000000E+00-2.95184238E-03-2.54047542E-03 0.00000000E+00
 6  1-3.72321739E-02-8.02534807E-02-1.27424561E-01 7.39220590E-02 2.56498430E+00
 6  2 0.00000000E+00 0.00000000E+00 5.12237467E-02 0.00000000E+00 0.00000000E+00
 6  3 8.85664554E-02 0.00000000E+00 0.00000000E+00 1.32979009E-01 0.00000000E+00
 6  4 0.00000000E+00 5.44452207E-01-4.32307548E-02-4.56931113E-02-4.67216642E-02
 6  5 0.00000000E+00 0.00000000E+00 0.00000000E+00-3.41010210E-01-2.80118503E-01
 6  6-2.83315462E-01 0.00000000E+00 0.00000000E+00 0.00000000E+00 0.00000000E+00
 6  7 0.00000000E+00 1.75668869E-02 0.00000000E+00 5.66579813E-03 0.00000000E+00
 6  8 2.18301210E-02 0.00000000E+00 0.00000000E+00 0.00000000E+00-3.51238087E-02
 6  9-2.98650806E-02-1.25314862E+00 0.00000000E+00 5.34092289E-03-1.02947963E-03
 6 10 0.00000000E+00-7.51430868E-02 4.73842590E-02-1.55793553E-02-3.21113781E-02
 6 11-2.57899022E-02 0.00000000E+00 0.00000000E+00 1.35032467E-02-3.51238087E-02
 6 12-2.98650806E-02-1.25314862E+00 0.00000000E+00-5.34092289E-03-1.02947963E-03
 6 13 0.00000000E+00 7.51430868E-02 4.73842590E-02-1.55793553E-02-3.21113781E-02
 6 14-2.57899022E-02 0.00000000E+00 0.00000000E+00-1.35032467E-02
 7  1 0.00000000E+00 0.00000000E+00 0.00000000E+00 0.00000000E+00 0.00000000E+00
 7  2 0.00000000E+00 8.94180493E-02 0.00000000E+00 0.00000000E+00 1.53416199E-01
 7  3 0.00000000E+00 0.00000000E+00-7.67567986E-03 0.00000000E+00 0.00000000E+00
 7  4 1.09845576E+00 0.00000000E+00 0.00000000E+00 0.00000000E+00 0.00000000E+00
 7  5 0.00000000E+00 0.00000000E+00 6.75595517E-03 0.00000000E+00 0.00000000E+00
 7  6 0.00000000E+00 0.00000000E+00 0.00000000E+00 2.01428553E-02 0.00000000E+00
 7  7 4.05238989E-02 0.00000000E+00 1.78409647E-02 0.00000000E+00 0.00000000E+00
 7  8 0.00000000E+00 0.00000000E+00 1.99635175E-02 0.00000000E+00 5.37491810E-02
 7  9-2.92948322E-01 2.24920411E+00 0.00000000E+00-7.45926268E-03 9.85718021E-03
 7 10 0.00000000E+00 3.33555241E-02-2.10477076E-02 3.43024823E-02 4.30034964E-02
 7 11 3.72467557E-02 0.00000000E+00 0.00000000E+00-7.34917425E-03-5.37491810E-02
 7 12 2.92948322E-01-2.24920411E+00 0.00000000E+00-7.45926268E-03-9.85718021E-03
 7 13 0.00000000E+00 3.33555241E-02 2.10477076E-02-3.43024823E-02-4.30034964E-02
 7 14-3.72467557E-02 0.00000000E+00 0.00000000E+00-7.34917425E-03
 8  1 0.00000000E+00 0.00000000E+00 0.00000000E+00 0.00000000E+00 0.00000000E+00
 8  2-1.08727557E-01 0.00000000E+00 0.00000000E+00-1.83608572E-01 0.00000000E+00
 8  3 0.00000000E+00-1.06359161E+00 0.00000000E+00 0.00000000E+00 1.44726163E+00
 8  4 0.00000000E+00 0.00000000E+00 0.00000000E+00 0.00000000E+00 0.00000000E+00
 8  5 0.00000000E+00-8.16174414E-03 0.00000000E+00 0.00000000E+00 0.00000000E+00
 8  6 0.00000000E+00 0.00000000E+00 1.07464472E-02 0.00000000E+00 1.57012347E-01
 8  7 0.00000000E+00 0.00000000E+00 0.00000000E+00 0.00000000E+00 7.22866242E-02
 8  8 0.00000000E+00 7.39998306E-02 0.00000000E+00 0.00000000E+00 0.00000000E+00
 8  9 0.00000000E+00 0.00000000E+00 8.46780361E-03 0.00000000E+00 0.00000000E+00
 8 10-2.64554358E-02 0.00000000E+00 0.00000000E+00 0.00000000E+00 0.00000000E+00
 8 11 0.00000000E+00-3.66282598E-04-5.08291928E-04 0.00000000E+00 0.00000000E+00
 8 12 0.00000000E+00 0.00000000E+00 8.46780361E-03 0.00000000E+00 0.00000000E+00
 8 13-2.64554358E-02 0.00000000E+00 0.00000000E+00 0.00000000E+00 0.00000000E+00
 8 14 0.00000000E+00 3.66282598E-04-5.08291928E-04 0.00000000E+00
 9  1-2.55701122E-02-3.96292766E-02 2.18478285E-02 2.65956389E-01 1.61904436E+00
 9  2 0.00000000E+00 0.00000000E+00-7.04181948E-02 0.00000000E+00 0.00000000E+00
 9  3-1.24637196E-01 0.00000000E+00 0.00000000E+00-4.10063971E-01 0.00000000E+00
 9  4 0.00000000E+00 1.91239722E+00 3.13028175E-02 2.65683266E-03-4.83590874E-03
 9  5 0.00000000E+00 0.00000000E+00 0.00000000E+00-2.93187145E-02 1.63573986E-01
 9  6 1.51332666E-01 0.00000000E+00 0.00000000E+00 0.00000000E+00 0.00000000E+00
 9  7 0.00000000E+00 1.33736517E-01 0.00000000E+00 4.83397977E-02 0.00000000E+00
 9  8 8.06406680E-02 0.00000000E+00 0.00000000E+00 0.00000000E+00 5.10384678E-02
 9  9-1.39801086E+00-1.78197355E-01 0.00000000E+00-1.13842900E-02 1.70203035E-02
 9 10 0.00000000E+00-2.65664061E-01 1.40678162E-01 7.63441247E-02 3.81181277E-02
 9 11 5.57049168E-02 0.00000000E+00 0.00000000E+00 2.67367661E-02 5.10384678E-02
 9 12-1.39801086E+00-1.78197355E-01 0.00000000E+00 1.13842900E-02 1.70203035E-02
 9 13 0.00000000E+00 2.65664061E-01 1.40678162E-01 7.63441247E-02 3.81181277E-02
 9 14 5.57049168E-02 0.00000000E+00 0.00000000E+00-2.67367661E-02
10  1 0.00000000E+00 0.00000000E+00 0.00000000E+00 0.00000000E+00 0.00000000E+00
10  2 0.00000000E+00 2.37781761E-02 0.00000000E+00 0.00000000E+00 2.10734976E-02
10  3 0.00000000E+00 0.00000000E+00-1.90713863E-01 0.00000000E+00 0.00000000E+00
10  4 2.01350131E+00 0.00000000E+00 0.00000000E+00 0.00000000E+00 0.00000000E+00
10  5 0.00000000E+00 0.00000000E+00-3.18395976E-02 0.00000000E+00 0.00000000E+00
10  6 0.00000000E+00 0.00000000E+00 0.00000000E+00 1.03900783E-01 0.00000000E+00
10  7 1.01257879E-01 0.00000000E+00 3.99356006E-02 0.00000000E+00 0.00000000E+00
10  8 0.00000000E+00 0.00000000E+00 5.31998988E-02 0.00000000E+00-1.06295992E-02
10  9 1.34683124E+00 4.43977678E-01 0.00000000E+00 2.52128869E-02-8.35426784E-03
10 10 0.00000000E+00 5.73494754E-02-3.56748858E-02-7.85949959E-02-5.66975796E-02
10 11-7.53022952E-02 0.00000000E+00 0.00000000E+00-1.92387287E-02 1.06295992E-02
10 12-1.34683124E+00-4.43977678E-01 0.00000000E+00 2.52128869E-02 8.35426784E-03
10 13 0.00000000E+00 5.73494754E-02 3.56748858E-02 7.85949959E-02 5.66975796E-02
10 14 7.53022952E-02 0.00000000E+00 0.00000000E+00-1.92387287E-02
11  1 2.15201370E-02 4.57295895E-02 4.77806911E-03 1.07489916E-01-1.08706169E+00
11  2 0.00000000E+00 0.00000000E+00-9.56717162E-02 0.00000000E+00 0.00000000E+00
11  3-1.31095131E-01 0.00000000E+00 0.00000000E+00-6.52676026E-01 0.00000000E+00
11  4 0.00000000E+00 5.34796614E-02-1.36147277E-02 5.03162099E-02 1.28035611E-02
11  5 0.00000000E+00 0.00000000E+00 0.00000000E+00 1.67528332E-02 2.00413436E-01
11  6 1.89817391E-01 0.00000000E+00 0.00000000E+00 0.00000000E+00 0.00000000E+00
11  7 0.00000000E+00 9.79269625E-02 0.00000000E+00 2.48880399E-02 0.00000000E+00
11  8 5.95644770E-02 0.00000000E+00 0.00000000E+00 0.00000000E+00-3.45197947E-02
11  9 1.49219721E+00-5.45772592E-01 0.00000000E+00-3.14430320E-03 1.00623118E-02
11 10 0.00000000E+00-2.25705444E-01-4.10364054E-03-1.00904690E-01-1.26540027E-01
11 11-1.03184567E-01 0.00000000E+00 0.00000000E+00 1.60448894E-02-3.45197947E-02
11 12 1.49219721E+00-5.45772592E-01 0.00000000E+00 3.14430320E-03 1.00623118E-02
11 13 0.00000000E+00 2.25705444E-01-4.10364054E-03-1.00904690E-01-1.26540027E-01
11 14-1.03184567E-01 0.00000000E+00 0.00000000E+00-1.60448894E-02
12  1 0.00000000E+00 0.00000000E+00 0.00000000E+00 0.00000000E+00 0.00000000E+00
12  2 0.00000000E+00-1.45148066E-01 0.00000000E+00 0.00000000E+00-1.95970889E-01
12  3 0.00000000E+00 0.00000000E+00-9.44406503E-01 0.00000000E+00 0.00000000E+00
12  4 2.10265174E+00 0.00000000E+00 0.00000000E+00 0.00000000E+00 0.00000000E+00
12  5 0.00000000E+00 0.00000000E+00 2.24337876E-02 0.00000000E+00 0.00000000E+00
12  6 0.00000000E+00 0.00000000E+00 0.00000000E+00 2.17677145E-01 0.00000000E+00
12  7 1.74930128E-01 0.00000000E+00 5.43616762E-02 0.00000000E+00 0.00000000E+00
12  8 0.00000000E+00 0.00000000E+00 9.98285569E-02 0.00000000E+00-6.78139005E-03
12  9-5.94159280E-01 2.18778828E+00 0.00000000E+00 1.81131809E-02-7.78157488E-03
12 10 0.00000000E+00 2.53226379E-01-2.83456664E-01 4.43859991E-02 8.58998456E-02
12 11 7.02313770E-02 0.00000000E+00 0.00000000E+00-3.81244829E-02 6.78139005E-03
12 12 5.94159280E-01-2.18778828E+00 0.00000000E+00 1.81131809E-02 7.78157488E-03
12 13 0.00000000E+00 2.53226379E-01 2.83456664E-01-4.43859991E-02-8.58998456E-02
12 14-7.02313770E-02 0.00000000E+00 0.00000000E+00-3.81244829E-02
13  1 7.66124935E-02 6.78267843E-02-7.13949777E-01-1.06292699E+00 8.50101165E+00
13  2 0.00000000E+00 0.00000000E+00-3.53147390E-02 0.00000000E+00 0.00000000E+00
13  3-5.49757755E-02 0.00000000E+00 0.00000000E+00 6.02062873E-01 0.00000000E+00
13  4 0.00000000E+00 1.17376685E+00-2.20425462E-01-2.14214387E-01-2.14796796E-01
13  5 0.00000000E+00 0.00000000E+00 0.00000000E+00-1.55610598E+00-1.22598076E+00
13  6-1.32978991E+00 0.00000000E+00 0.00000000E+00 0.00000000E+00 0.00000000E+00
13  7 0.00000000E+00-1.88557515E-02 0.00000000E+00-2.44693470E-02 0.00000000E+00
13  8 4.05810687E-02 0.00000000E+00 0.00000000E+00 0.00000000E+00 6.12005668E-02
13  9-1.18855726E+00-1.33050834E+00 0.00000000E+00-2.42966315E-02 1.48715088E-02
13 10 0.00000000E+00-4.18534954E-01 3.42053674E-01 4.23511042E-02-2.59810900E-02
13 11-8.89830727E-04 0.00000000E+00 0.00000000E+00 5.30748338E-02 6.12005668E-02
13 12-1.18855726E+00-1.33050834E+00 0.00000000E+00 2.42966315E-02 1.48715088E-02
13 13 0.00000000E+00 4.18534954E-01 3.42053674E-01 4.23511042E-02-2.59810900E-02
13 14-8.89830727E-04 0.00000000E+00 0.00000000E+00-5.30748338E-02
14  1 2.19906041E-03 2.22930303E-03-1.58291988E-02 3.22781775E-02 2.34519728E+00
14  2 0.00000000E+00 0.00000000E+00 3.92423061E-02 0.00000000E+00 0.00000000E+00
14  3 6.75336794E-03 0.00000000E+00 0.00000000E+00 1.47693125E+00 0.00000000E+00
14  4 0.00000000E+00 7.80766359E-01 1.34540755E-02 1.32134303E-02-4.49895405E-02
14  5 0.00000000E+00 0.00000000E+00 0.00000000E+00-5.77262138E-02-1.23656091E-02
14  6 1.94483250E-01 0.00000000E+00 0.00000000E+00 0.00000000E+00 0.00000000E+00
14  7 0.00000000E+00-7.83637009E-02 0.00000000E+00-6.90569448E-02 0.00000000E+00
14  8-4.79072087E-02 0.00000000E+00 0.00000000E+00 0.00000000E+00 6.13864812E-02
14  9-1.64934110E+00-8.75012532E-02 0.00000000E+00 2.88488893E-02 3.78584161E-02
14 10 0.00000000E+00-9.05405205E-01-4.10129270E-01 5.63109224E-02-1.64022603E-02
14 11 7.61500210E-02 0.00000000E+00 0.00000000E+00-1.04927822E-02 6.13864812E-02
14 12-1.64934110E+00-8.75012532E-02 0.00000000E+00-2.88488893E-02 3.78584161E-02
14 13 0.00000000E+00 9.05405205E-01-4.10129270E-01 5.63109224E-02-1.64022603E-02
14 14 7.61500210E-02 0.00000000E+00 0.00000000E+00 1.04927822E-02
15  1 0.00000000E+00 0.00000000E+00 0.00000000E+00 0.00000000E+00 0.00000000E+00
15  2 0.00000000E+00 0.00000000E+00 0.00000000E+00 0.00000000E+00 0.00000000E+00
15  3 0.00000000E+00 0.00000000E+00 0.00000000E+00 0.00000000E+00 0.00000000E+00
15  4 0.00000000E+00 0.00000000E+00 0.00000000E+00 0.00000000E+00 0.00000000E+00
15  5-2.59643292E-02 0.00000000E+00 0.00000000E+00 0.00000000E+00 0.00000000E+00
15  6 0.00000000E+00-1.19111898E-01 0.00000000E+00 0.00000000E+00 0.00000000E+00
15  7 0.00000000E+00 0.00000000E+00 0.00000000E+00 0.00000000E+00 0.00000000E+00
15  8 0.00000000E+00 0.00000000E+00 0.00000000E+00 1.94385950E-02 0.00000000E+00
15  9 0.00000000E+00 0.00000000E+00-5.85682463E-02 0.00000000E+00 0.00000000E+00
15 10 7.48772269E-01 0.00000000E+00 0.00000000E+00 0.00000000E+00 0.00000000E+00
15 11 0.00000000E+00 5.42667882E-03-1.54374866E-02 0.00000000E+00 0.00000000E+00
15 12 0.00000000E+00 0.00000000E+00 5.85682463E-02 0.00000000E+00 0.00000000E+00
15 13-7.48772269E-01 0.00000000E+00 0.00000000E+00 0.00000000E+00 0.00000000E+00
15 14 0.00000000E+00 5.42667882E-03 1.54374866E-02 0.00000000E+00
16  1 0.00000000E+00 0.00000000E+00 0.00000000E+00 0.00000000E+00 0.00000000E+00
16  2-3.82517084E-02 0.00000000E+00 0.00000000E+00-5.10037964E-02 0.00000000E+00
16  3 0.00000000E+00-4.47077961E-01 0.00000000E+00 0.00000000E+00-4.79204281E-01
16  4 0.00000000E+00 0.00000000E+00 0.00000000E+00 0.00000000E+00 0.00000000E+00
16  5 0.00000000E+00 1.95756318E-02 0.00000000E+00 0.00000000E+00 0.00000000E+00
16  6 0.00000000E+00 0.00000000E+00 1.84413763E-01 0.00000000E+00 4.71347195E-02
16  7 0.00000000E+00 0.00000000E+00 0.00000000E+00 0.00000000E+00-8.65998823E-03
16  8 0.00000000E+00 1.12356208E-02 0.00000000E+00 0.00000000E+00 0.00000000E+00
16  9 0.00000000E+00 0.00000000E+00-6.63969378E-02 0.00000000E+00 0.00000000E+00
16 10 8.34751668E-01 0.00000000E+00 0.00000000E+00 0.00000000E+00 0.00000000E+00
16 11 0.00000000E+00 2.41985676E-02 2.91132939E-04 0.00000000E+00 0.00000000E+00
16 12 0.00000000E+00 0.00000000E+00-6.63969378E-02 0.00000000E+00 0.00000000E+00
16 13 8.34751668E-01 0.00000000E+00 0.00000000E+00 0.00000000E+00 0.00000000E+00
16 14 0.00000000E+00-2.41985676E-02 2.91132939E-04 0.00000000E+00
17  1 0.00000000E+00 0.00000000E+00 0.00000000E+00 0.00000000E+00 0.00000000E+00
17  2 0.00000000E+00 3.88981272E-02 0.00000000E+00 0.00000000E+00 1.00110243E-02
17  3 0.00000000E+00 0.00000000E+00 1.32938324E+00 0.00000000E+00 0.00000000E+00
17  4 9.88358895E-01 0.00000000E+00 0.00000000E+00 0.00000000E+00 0.00000000E+00
17  5 0.00000000E+00 0.00000000E+00-3.92285436E-03 0.00000000E+00 0.00000000E+00
17  6 0.00000000E+00 0.00000000E+00 0.00000000E+00 3.23044456E-01 0.00000000E+00
17  7-1.01038038E-03 0.00000000E+00-3.93942431E-02 0.00000000E+00 0.00000000E+00
17  8 0.00000000E+00 0.00000000E+00-1.89121128E-02 0.00000000E+00-4.78648083E-02
17  9 1.36587732E+00 2.40558972E-01 0.00000000E+00 6.30228754E-02 5.16849173E-02
17 10 0.00000000E+00-3.12605207E-01-1.18222174E+00-4.11470361E-02-2.34051976E-02
17 11-7.00088400E-03 0.00000000E+00 0.00000000E+00-2.17035303E-02 4.78648083E-02
17 12-1.36587732E+00-2.40558972E-01 0.00000000E+00 6.30228754E-02-5.16849173E-02
17 13 0.00000000E+00-3.12605207E-01 1.18222174E+00 4.11470361E-02 2.34051976E-02
17 14 7.00088400E-03 0.00000000E+00 0.00000000E+00-2.17035303E-02
18  1-2.34421844E-02-1.37191833E-02 1.70703671E-01 2.60474805E+00 1.34234394E+00
18  2 0.00000000E+00 0.00000000E+00 8.17345803E-03 0.00000000E+00 0.00000000E+00
18  3-3.35280359E-02 0.00000000E+00 0.00000000E+00 3.34618145E+00 0.00000000E+00
18  4 0.00000000E+00-1.82706639E-01 8.37375892E-02 7.38393428E-02 6.78130171E-02
18  5 0.00000000E+00 0.00000000E+00 0.00000000E+00 1.15206623E+00 1.44654322E+00
18  6 1.42895415E+00 0.00000000E+00 0.00000000E+00 0.00000000E+00 0.00000000E+00
18  7 0.00000000E+00-1.16405697E-01 0.00000000E+00-9.06950328E-02 0.00000000E+00
18  8 5.02309135E-02 0.00000000E+00 0.00000000E+00 0.00000000E+00-7.31555155E-02
18  9-3.03638097E+00-2.36012536E-01 0.00000000E+00 8.68411619E-03-2.41260290E-02
18 10 0.00000000E+00-2.00384458E+00 1.54814522E+00 2.80188180E-02-1.42708909E-01
18 11-5.21015183E-02 0.00000000E+00 0.00000000E+00 8.98529732E-02-7.31555155E-02
18 12-3.03638097E+00-2.36012536E-01 0.00000000E+00-8.68411619E-03-2.41260290E-02
18 13 0.00000000E+00 2.00384458E+00 1.54814522E+00 2.80188180E-02-1.42708909E-01
18 14-5.21015183E-02 0.00000000E+00 0.00000000E+00-8.98529732E-02
19  1 0.00000000E+00 0.00000000E+00 0.00000000E+00 0.00000000E+00 0.00000000E+00
19  2 0.00000000E+00 1.34391603E-02 0.00000000E+00 0.00000000E+00-2.00908552E-02
19  3 0.00000000E+00 0.00000000E+00 4.11742096E+00 0.00000000E+00 0.00000000E+00
19  4-1.49935205E-01 0.00000000E+00 0.00000000E+00 0.00000000E+00 0.00000000E+00
19  5 0.00000000E+00 0.00000000E+00-8.10173175E-03 0.00000000E+00 0.00000000E+00
19  6 0.00000000E+00 0.00000000E+00 0.00000000E+00 6.71898984E-01 0.00000000E+00
19  7-1.16647357E-01 0.00000000E+00-1.25569905E-01 0.00000000E+00 0.00000000E+00
19  8 0.00000000E+00 0.00000000E+00-2.42396177E-02 0.00000000E+00 2.87033157E-01
19  9 2.39092322E+00 6.27678952E-01 0.00000000E+00-1.96199739E-02 1.28460829E-02
19 10 0.00000000E+00 1.94588620E+00-1.59142265E+00 9.09028936E-02 1.70918027E-01
19 11 1.47737034E-01 0.00000000E+00 0.00000000E+00-1.15903856E-01-2.87033157E-01
19 12-2.39092322E+00-6.27678952E-01 0.00000000E+00-1.96199739E-02-1.28460829E-02
19 13 0.00000000E+00 1.94588620E+00 1.59142265E+00-9.09028936E-02-1.70918027E-01
19 14-1.47737034E-01 0.00000000E+00 0.00000000E+00-1.15903856E-01
20  1 0.00000000E+00 0.00000000E+00 0.00000000E+00 0.00000000E+00 0.00000000E+00
20  2 1.26513795E-01 0.00000000E+00 0.00000000E+00 1.98938237E-01 0.00000000E+00
20  3 0.00000000E+00-3.14924529E-01 0.00000000E+00 0.00000000E+00 7.30944877E-01
20  4 0.00000000E+00 0.00000000E+00 0.00000000E+00 0.00000000E+00 0.00000000E+00
20  5 0.00000000E+00-1.39126601E-02 0.00000000E+00 0.00000000E+00 0.00000000E+00
20  6 0.00000000E+00 0.00000000E+00 1.19456662E+00 0.00000000E+00 1.55465032E-01
20  7 0.00000000E+00 0.00000000E+00 0.00000000E+00 0.00000000E+00 9.50516364E-02
20  8 0.00000000E+00 1.07087324E-01 0.00000000E+00 0.00000000E+00 0.00000000E+00
20  9 0.00000000E+00 0.00000000E+00 4.22327653E-02 0.00000000E+00 0.00000000E+00
20 10-8.10095540E-01 0.00000000E+00 0.00000000E+00 0.00000000E+00 0.00000000E+00
20 11 0.00000000E+00-2.72590538E-02 4.22553119E-02 0.00000000E+00 0.00000000E+00
20 12 0.00000000E+00 0.00000000E+00 4.22327653E-02 0.00000000E+00 0.00000000E+00
20 13-8.10095540E-01 0.00000000E+00 0.00000000E+00 0.00000000E+00 0.00000000E+00
20 14 0.00000000E+00 2.72590538E-02 4.22553119E-02 0.00000000E+00
21  1 0.00000000E+00 0.00000000E+00 0.00000000E+00 0.00000000E+00 0.00000000E+00
21  2 0.00000000E+00 0.00000000E+00 0.00000000E+00 0.00000000E+00 0.00000000E+00
21  3 0.00000000E+00 0.00000000E+00 0.00000000E+00 0.00000000E+00 0.00000000E+00
21  4 0.00000000E+00 0.00000000E+00 0.00000000E+00 0.00000000E+00 0.00000000E+00
21  5-2.05178984E-02 0.00000000E+00 0.00000000E+00 0.00000000E+00 0.00000000E+00
21  6 0.00000000E+00 1.39899795E+00 0.00000000E+00 0.00000000E+00 0.00000000E+00
21  7 0.00000000E+00 0.00000000E+00 0.00000000E+00 0.00000000E+00 0.00000000E+00
21  8 0.00000000E+00 0.00000000E+00 0.00000000E+00 5.44449880E-02 0.00000000E+00
21  9 0.00000000E+00 0.00000000E+00-3.95034594E-02 0.00000000E+00 0.00000000E+00
21 10 8.38030017E-01 0.00000000E+00 0.00000000E+00 0.00000000E+00 0.00000000E+00
21 11 0.00000000E+00 6.41164086E-02-3.54556224E-02 0.00000000E+00 0.00000000E+00
21 12 0.00000000E+00 0.00000000E+00 3.95034594E-02 0.00000000E+00 0.00000000E+00
21 13-8.38030017E-01 0.00000000E+00 0.00000000E+00 0.00000000E+00 0.00000000E+00
21 14 0.00000000E+00 6.41164086E-02 3.54556224E-02 0.00000000E+00
22  1-3.88253189E-03-1.05694134E-02-2.27848547E-01 1.76653596E+00 5.52628272E+00
22  2 0.00000000E+00 0.00000000E+00 2.56702447E-01 0.00000000E+00 0.00000000E+00
22  3 4.28004639E-01 0.00000000E+00 0.00000000E+00 1.39722080E+00 0.00000000E+00
22  4 0.00000000E+00 1.67457869E+00-5.92173265E-02-2.86677784E-02-3.91620046E-02
22  5 0.00000000E+00 0.00000000E+00 0.00000000E+00-9.99739698E-01 1.06403120E+00
22  6 1.19863416E+00 0.00000000E+00 0.00000000E+00 0.00000000E+00 0.00000000E+00
22  7 0.00000000E+00 3.77272196E-01 0.00000000E+00 1.05836980E-01 0.00000000E+00
22  8 3.20474914E-01 0.00000000E+00 0.00000000E+00 0.00000000E+00 1.64645858E-01
22  9-4.36799298E+00-4.60984584E-01 0.00000000E+00-3.87939055E-02 4.54769475E-02
22 10 0.00000000E+00-1.78194997E+00 1.05589307E+00 1.49023239E-01-3.15544713E-02
22 11 5.00885937E-02 0.00000000E+00 0.00000000E+00 1.42120686E-01 1.64645858E-01
22 12-4.36799298E+00-4.60984584E-01 0.00000000E+00 3.87939055E-02 4.54769475E-02
22 13 0.00000000E+00 1.78194997E+00 1.05589307E+00 1.49023239E-01-3.15544713E-02
22 14 5.00885937E-02 0.00000000E+00 0.00000000E+00-1.42120686E-01
23  1 0.00000000E+00 0.00000000E+00 0.00000000E+00 0.00000000E+00 0.00000000E+00
23  2 0.00000000E+00 1.62121679E-01 0.00000000E+00 0.00000000E+00 1.95646878E-01
23  3 0.00000000E+00 0.00000000E+00 3.58350531E+00 0.00000000E+00 0.00000000E+00
23  4 1.46384648E+00 0.00000000E+00 0.00000000E+00 0.00000000E+00 0.00000000E+00
23  5 0.00000000E+00 0.00000000E+00 1.76000108E-02 0.00000000E+00 0.00000000E+00
23  6 0.00000000E+00 0.00000000E+00 0.00000000E+00 2.19185040E+00 0.00000000E+00
23  7 3.27946039E-01 0.00000000E+00 1.77956419E-02 0.00000000E+00 0.00000000E+00
23  8 0.00000000E+00 0.00000000E+00 2.84381047E-01 0.00000000E+00-4.69927450E-01
23  9 5.89746266E+00 3.44817034E-01 0.00000000E+00 5.75988955E-02-7.36125449E-02
23 10 0.00000000E+00 2.38703145E+00-1.65507296E+00-2.85484995E-01-1.02631681E-01
23 11-2.04108635E-01 0.00000000E+00 0.00000000E+00-1.93374527E-01 4.69927450E-01
23 12-5.89746266E+00-3.44817034E-01 0.00000000E+00 5.75988955E-02 7.36125449E-02
23 13 0.00000000E+00 2.38703145E+00 1.65507296E+00 2.85484995E-01 1.02631681E-01
23 14 2.04108635E-01 0.00000000E+00 0.00000000E+00-1.93374527E-01
24  1 0.00000000E+00 0.00000000E+00 0.00000000E+00 0.00000000E+00 0.00000000E+00
24  2-3.56838365E-01 0.00000000E+00 0.00000000E+00-7.62703602E-01 0.00000000E+00
24  3 0.00000000E+00 2.86318128E+00 0.00000000E+00 0.00000000E+00-7.29814000E-01