!   "DL"  This is the organic molecule used as a test case in a paper
!   on MCQDPT parallelization:  H.Umeda, S.Koseki, U.Nagashima,
!   M.W.Schmidt  J.Comput.Chem. 22, 1243-1251(2001).  IUPAC name is
!   4a,4b,8a,9a-tetrahydro-pyridino[1',2'-4,3]imidazolidino[1-5a]pyridine
!   The "DL" might refer to the stereochemistry at the cross link?
!   There are 219 AOs, 13 cores, 28 filled valence, 8 active, and
!   210 external MOs.  There are 600 CSFs of 1-A symmetry in C2.
!
!   using determinants in the MCSCF to have identical MCSCF reference:
!              FINAL E= -532.4167603576, 3 iters
!         CSFs: E(MP2)= -534.0718582938
!         dets: E(MP2)= -534.0718582938    <--- this test's answer.
!   GMCPT dets: E(MP2)= -534.0718580640, Reference =  63.932 %
!
!   This test takes 355 seconds on 2.66 GHz Cloverton (27 Apr 2015)
!   The numerical results have not changed much at all since 2005.
!
!   CSF/det/GMCPT once too 512/371/6200 scnds, respectively
!   The CSF code will run in m-words=10 mem-ddi=50 or 240 (max DDI is 231)
!
 $contrl scftyp=mcscf mplevl=2 runtyp=energy $end
 $system parall=.t. mwords=50 memddi=200 $end
 $basis  gbasis=n31 ngauss=6 ndfunc=1 npfunc=0 $end
 $guess  guess=moread norb=60 $end

             *** MCSCF input ***

!   the test should always use determinants for the MCSCF,
!   so that the orbitals passed to the PT codes are -absolutely identical-
 $mcscf  cistep=aldet soscf=.true. $end
 $det    ncore=41 nact=8 nels=10 $end

             *** PT2 input ***

!   determinant MRMP requires no further input, not even next line
 $mrmp    mrpt=detmrpt $end

!   CSF MRMP inputs, with full accuracy
--- $mrmp   mrpt=mcqdpt $end
--- $MCQDPT NSTATE=1 ISTSYM=1 NMOFZC=13 NMODOC=28 NMOACT=8 thrgen=1d-12 $end

!   general PT2 inputs, to run as a CAS-reference MRMP
!   3rd line forces compatibility with MCQDPT methodology,
!   4th line turns off ISA,
!   5th line requests full accuracy
!   we get the fastest test case by not usually including the last two!
--- $mrmp   mrpt=gmcpt $end
--- $gmcpt  nmofzc=13 nmodoc=28 nmoact=8 nelact=10 mult=1 istsym=1
---         reftyp=ormas nspace=1 mstart(1)=42 mine(1)=10 maxe(1)=10
---                $end
---         krot=.false. kszdoe=.false. thrwgt=-1.0
---         thrde=-1.0
---         thrgen=1d-12 thrhde=1d+10 $end

The data below was gathered with some misunderstanding about THRWGT,
when it was included in the "numbers".  It is an important cutoff to
keep the entire CAS reference in the internal determinant space.


       K-rot  K-Sz-doE  ISA     numbers         PT2         CPU
       false    false   off    accurate   -534.0718580640   6200
       true     false   off    accurate   -534.0554301792   3200
       true     true    off    accurate   -534.0554301792   3621
       true     true  default  accurate   -534.0554301792   3249
       true     true  default  defaults   -534.0554296807    947

 $data
n1-mc-d/dl
Cn    2

HYDROGEN    1.0   0.1399025042   0.8675399132   3.1225558947
CARBON      6.0   0.0000000000   0.0000000000   2.4866749735
NITROGEN    7.0   1.1451698192  -0.2084654139   1.6115945792
CARBON      6.0   0.7687399184   0.1755703918   0.2498923219
CARBON      6.0   1.5972298121  -0.4963903571  -0.8106960530
CARBON      6.0   2.4487004084  -1.4933923413  -0.5245939781
CARBON      6.0   2.6122188713  -1.9478542629   0.8631248767
CARBON      6.0   1.9472592128  -1.3198979932   1.8237814804
HYDROGEN    1.0   1.4592618251  -0.1530086590  -1.8209707370
HYDROGEN    1.0   0.8480496912   1.2563174395   0.1541225846
HYDROGEN    1.0   3.0191918136  -1.9658035678  -1.3042029996
HYDROGEN    1.0   3.2678481641  -2.7638090411   1.0986386934
HYDROGEN    1.0   2.0324442914  -1.6169727437   2.8534158499
 $end

E(MCSCF)=     -532.4167604756,  0 ITERS, E(NUC)=  777.1692685926
 $VEC
 1  1 5.21576521E-05 3.38077434E-04-5.21576521E-05-3.38077434E-04 0.00000000E+00
 1  2 0.00000000E+00-3.36354914E-04 4.44919443E-05 0.00000000E+00 0.00000000E+00
 1  3-1.73538959E-04 8.40452440E-04 0.00000000E+00 0.00000000E+00 0.00000000E+00
 1  4 0.00000000E+00 0.00000000E+00-5.63009186E-05-2.94519788E-05 7.03631748E-01
 1  5 1.80724834E-02 4.36585152E-04 5.45302488E-04-1.64647594E-04-3.83472239E-03
 1  6-3.63282297E-04-1.05202838E-03 8.08514135E-04-2.22230492E-03-2.13643441E-03
 1  7-2.32190085E-03 6.45271113E-05-3.37944048E-05-3.64672144E-05-7.03631748E-01
 1  8-1.80724834E-02 4.36585152E-04 5.45302488E-04 1.64647594E-04 3.83472239E-03
 1  9-3.63282297E-04-1.05202838E-03-8.08514135E-04 2.22230492E-03 2.13643441E-03
 1 10 2.32190085E-03-6.45271113E-05-3.37944048E-05-3.64672144E-05-2.27199818E-05
 1 11 1.87980773E-05-2.89062270E-05 4.81169302E-05 2.25505136E-04 2.76171894E-03
 1 12-2.31983264E-04 9.68219150E-04 1.38592890E-04-7.40553759E-06-3.36099586E-05
 1 13-7.94885303E-05-4.63754723E-05-1.00674715E-05 2.25831304E-05 2.27199818E-05
 1 14-1.87980773E-05-2.89062270E-05 4.81169302E-05-2.25505136E-04-2.76171894E-03
 1 15-2.31983264E-04 9.68219150E-04-1.38592890E-04 7.40553759E-06 3.36099586E-05
 1 16 7.94885303E-05 4.63754723E-05-1.00674715E-05 2.25831304E-05 2.52055164E-05
 1 17 1.58782223E-04 2.47759937E-06-8.00338249E-06-2.43906231E-05-1.82232539E-03
 1 18-2.02514063E-04-1.97221682E-04-1.10690717E-03 8.75156592E-06 2.91623019E-05
 1 19-6.67912184E-06 1.39139087E-05-4.25053372E-05-5.68137334E-06-2.52055164E-05
 1 20-1.58782223E-04 2.47759937E-06-8.00338249E-06 2.43906231E-05 1.82232539E-03
 1 21-2.02514063E-04-1.97221682E-04 1.10690717E-03-8.75156592E-06-2.91623019E-05
 1 22 6.67912184E-06-1.39139087E-05-4.25053372E-05-5.68137334E-06-1.73448523E-05
 1 23-1.11486890E-04-2.40307677E-06 3.07196969E-07-1.23855404E-05 1.64514246E-03
 1 24 5.41391131E-04-3.33732766E-04 9.64424871E-04-2.33481821E-05-2.67281382E-05
 1 25-3.04879664E-06-1.33762515E-05-1.94315226E-06 8.13735344E-06 1.73448523E-05
 1 26 1.11486890E-04-2.40307677E-06 3.07196969E-07 1.23855404E-05-1.64514246E-03
 1 27 5.41391131E-04-3.33732766E-04-9.64424871E-04 2.33481821E-05 2.67281382E-05
 1 28 3.04879664E-06 1.33762515E-05-1.94315226E-06 8.13735344E-06 2.68997476E-05
 1 29 1.25006316E-04-1.53927598E-05 2.51830251E-05-1.76451656E-05-2.05164466E-03
 1 30-8.79693144E-04 9.88265344E-04 4.36336643E-04 1.14344837E-06 9.40517876E-06
 1 31 2.68799768E-05 3.00234473E-05-9.55625680E-06 4.37718785E-06-2.68997476E-05
 1 32-1.25006316E-04-1.53927598E-05 2.51830251E-05 1.76451656E-05 2.05164466E-03
 1 33-8.79693144E-04 9.88265344E-04-4.36336643E-04-1.14344837E-06-9.40517876E-06
 1 34-2.68799768E-05-3.00234473E-05-9.55625680E-06 4.37718785E-06 6.89544140E-06
 1 35 1.32489487E-04 1.05720824E-04-1.13885888E-04-9.16089566E-06 2.26225142E-03
 1 36 4.41736325E-04-4.95009149E-04-1.35896665E-03-5.71638402E-05-1.41414983E-04
 1 37 3.66777010E-06 2.86903681E-05 5.23277487E-06-1.51563148E-05-6.89544140E-06
 1 38-1.32489487E-04 1.05720824E-04-1.13885888E-04 9.16089566E-06-2.26225142E-03
 1 39 4.41736325E-04-4.95009149E-04 1.35896665E-03 5.71638402E-05 1.41414983E-04
 1 40-3.66777010E-06-2.86903681E-05 5.23277487E-06-1.51563148E-05-4.13087102E-06
 1 41-2.48603972E-04 4.13087102E-06 2.48603972E-04-5.42252988E-05 1.60291393E-04
 1 42 5.42252988E-05-1.60291393E-04 3.01088406E-05 2.90507223E-04-3.01088406E-05
 1 43-2.90507223E-04-4.24016920E-05-3.56658579E-04 4.24016920E-05 3.56658579E-04
 1 44 1.69907176E-05 3.71801319E-04-1.69907176E-05-3.71801319E-04
 2  1-1.47769369E-04-2.78236098E-04-1.47769369E-04-2.78236098E-04-2.00234867E-05
 2  2 1.77811902E-04 0.00000000E+00 0.00000000E+00-3.19902087E-04 2.96259768E-03
 2  3 0.00000000E+00 0.00000000E+00-8.19812996E-04-1.76005445E-04-9.26901608E-05
 2  4-9.41371555E-05-3.55704051E-05 0.00000000E+00 0.00000000E+00 7.03654296E-01
 2  5 1.81269605E-02 3.72410687E-04 5.36567063E-04-1.49610641E-04-4.94133015E-03
 2  6-7.98764969E-04-6.94697158E-04 6.14351877E-04-2.18173394E-03-2.14191215E-03
 2  7-2.29375609E-03 7.37531973E-05-6.36970780E-05-2.23937707E-05 7.03654296E-01
 2  8 1.81269605E-02-3.72410687E-04-5.36567063E-04-1.49610641E-04-4.94133015E-03
 2  9 7.98764969E-04 6.94697158E-04 6.14351877E-04-2.18173394E-03-2.14191215E-03
 2 10-2.29375609E-03 7.37531973E-05 6.36970780E-05 2.23937707E-05-4.95588714E-05
 2 11-6.18180706E-05-1.28955495E-04 4.80198496E-05 1.80704666E-04 2.11510562E-03
 2 12-3.72942250E-04 9.04442456E-04 8.64580062E-04-1.11626786E-04-1.14361400E-04
 2 13-8.05481595E-05-1.53390640E-05 2.82428463E-05 2.27456785E-05-4.95588714E-05
 2 14-6.18180706E-05 1.28955495E-04-4.80198496E-05 1.80704666E-04 2.11510562E-03
 2 15 3.72942250E-04-9.04442456E-04 8.64580062E-04-1.11626786E-04-1.14361400E-04
 2 16-8.05481595E-05-1.53390640E-05-2.82428463E-05-2.27456785E-05 8.21729660E-06
 2 17 7.88621695E-05-2.72980631E-05 1.12073155E-05-2.31467368E-05-1.23561748E-03
 2 18 3.24907240E-04-5.44519343E-04-8.92627334E-04-8.69185756E-06-9.59695702E-06
 2 19-2.39282996E-05 9.60446712E-06-9.71630949E-06-4.65907922E-06 8.21729660E-06
 2 20 7.88621695E-05 2.72980631E-05-1.12073155E-05-2.31467368E-05-1.23561748E-03
 2 21-3.24907240E-04 5.44519343E-04-8.92627334E-04-8.69185756E-06-9.59695702E-06
 2 22-2.39282996E-05 9.60446712E-06 9.71630949E-06 4.65907922E-06-1.45794318E-05
 2 23-8.87898178E-05 3.15048850E-06-1.38732342E-05-6.85639488E-06 1.65211352E-03
 2 24 4.94284951E-04-4.13492780E-04 5.92312320E-04-1.88030656E-05-1.19878117E-05
 2 25-1.09141461E-05-1.80658629E-05-3.98489631E-06 1.04106744E-05-1.45794318E-05
 2 26-8.87898178E-05-3.15048850E-06 1.38732342E-05-6.85639488E-06 1.65211352E-03
 2 27-4.94284951E-04 4.13492780E-04 5.92312320E-04-1.88030656E-05-1.19878117E-05
 2 28-1.09141461E-05-1.80658629E-05 3.98489631E-06-1.04106744E-05 1.90043603E-05
 2 29 8.72909862E-05-1.46378164E-05 1.59235288E-05-1.36326793E-05-1.32409380E-03
 2 30-6.51364857E-04 7.72699589E-04 3.77995032E-04-3.27474845E-06-1.91321348E-06
 2 31 2.74616454E-05 2.21942471E-05-7.53309042E-06 7.11464774E-06 1.90043603E-05
 2 32 8.72909862E-05 1.46378164E-05-1.59235288E-05-1.36326793E-05-1.32409380E-03
 2 33 6.51364857E-04-7.72699589E-04 3.77995032E-04-3.27474845E-06-1.91321348E-06
 2 34 2.74616454E-05 2.21942471E-05 7.53309042E-06-7.11464774E-06 1.56043097E-05
 2 35 1.64807899E-04 1.28329211E-04-1.12836538E-04-2.74492598E-05 1.74475260E-03
 2 36 4.86526791E-04-5.31376982E-04-9.16660608E-04-2.97201323E-05-1.25141914E-04
 2 37 1.08711795E-05 2.90369603E-05-1.70325774E-06-1.21591120E-05 1.56043097E-05
 2 38 1.64807899E-04-1.28329211E-04 1.12836538E-04-2.74492598E-05 1.74475260E-03
 2 39-4.86526791E-04 5.31376982E-04-9.16660608E-04-2.97201323E-05-1.25141914E-04
 2 40 1.08711795E-05 2.90369603E-05 1.70325774E-06 1.21591120E-05-4.99397790E-05
 2 41-2.86542475E-04-4.99397790E-05-2.86542475E-04-3.62011111E-05 5.15241641E-06
 2 42-3.62011111E-05 5.15241641E-06 7.05632576E-06 1.99335839E-04 7.05632576E-06
 2 43 1.99335839E-04-4.45700236E-05-2.89541153E-04-4.45700236E-05-2.89541153E-04
 2 44-1.69003392E-05 2.87298187E-04-1.69003392E-05 2.87298187E-04
 3  1 1.68537417E-04 2.45905177E-03 1.68537417E-04 2.45905177E-03 9.95902288E-01
 3  2 2.77855245E-02 0.00000000E+00 0.00000000E+00-7.99352190E-04-1.39057429E-02
 3  3 0.00000000E+00 0.00000000E+00 7.21926536E-04-1.46719201E-03-1.39380639E-03
 3  4-1.41118940E-03 4.37782724E-06 0.00000000E+00 0.00000000E+00-1.75188139E-04
 3  5 2.98453653E-04 1.24332077E-04-8.22313905E-06 6.38549005E-05 1.29503139E-03
 3  6 1.45901578E-04-2.37973089E-04 3.60418176E-04-4.22571572E-04-1.56677654E-05
 3  7-2.17901247E-04 1.12940062E-04-2.42362400E-04-3.40886348E-05-1.75188139E-04
 3  8 2.98453653E-04-1.24332077E-04 8.22313905E-06 6.38549005E-05 1.29503139E-03
 3  9-1.45901578E-04 2.37973089E-04 3.60418176E-04-4.22571572E-04-1.56677654E-05
 3 10-2.17901247E-04 1.12940062E-04 2.42362400E-04 3.40886348E-05-2.08323564E-04
 3 11-2.22889893E-04-7.39109542E-05 6.65311321E-05-8.55423772E-05-2.16248006E-04
 3 12 8.12548111E-04-8.06184677E-04 1.16504311E-03-1.18703907E-05-3.93674786E-05
 3 13 1.27567457E-04-5.42128564E-06 2.70759594E-05 4.41014577E-05-2.08323564E-04
 3 14-2.22889893E-04 7.39109542E-05-6.65311321E-05-8.55423772E-05-2.16248006E-04
 3 15-8.12548111E-04 8.06184677E-04 1.16504311E-03-1.18703907E-05-3.93674786E-05
 3 16 1.27567457E-04-5.42128564E-06-2.70759594E-05-4.41014577E-05 1.17575087E-06
 3 17-6.49434683E-05 1.83489052E-05 1.10771835E-05 4.17413304E-05 1.03045321E-03
 3 18 4.58949282E-04-4.72902932E-04 3.75756961E-04-6.86266351E-06-2.56079300E-05
 3 19 3.46577530E-05-6.92648118E-06 1.84160987E-05-1.04853188E-05 1.17575087E-06
 3 20-6.49434683E-05-1.83489052E-05-1.10771835E-05 4.17413304E-05 1.03045321E-03
 3 21-4.58949282E-04 4.72902932E-04 3.75756961E-04-6.86266351E-06-2.56079300E-05
 3 22 3.46577530E-05-6.92648118E-06-1.84160987E-05 1.04853188E-05 6.77358943E-06
 3 23-3.49303170E-05 1.89556013E-06-2.42171536E-06 1.66905946E-05 4.62059285E-04
 3 24 4.55442624E-05 1.38100528E-05-5.29109070E-05-2.71593814E-06 2.10266149E-08
 3 25 1.33018483E-05-1.27470195E-05 6.78903488E-06 7.74175203E-06 6.77358943E-06
 3 26-3.49303170E-05-1.89556013E-06 2.42171536E-06 1.66905946E-05 4.62059285E-04
 3 27-4.55442624E-05-1.38100528E-05-5.29109070E-05-2.71593814E-06 2.10266149E-08
 3 28 1.33018483E-05-1.27470195E-05-6.78903488E-06-7.74175203E-06 1.02862451E-05
 3 29-1.52231791E-05 3.59392215E-05-1.70747088E-05-1.01882500E-05 8.26573385E-04
 3 30-1.06871312E-05-1.07322080E-04 5.73541543E-04-8.39729754E-07 1.65214012E-05
 3 31 9.27389453E-07-1.07885185E-05 7.06282663E-06-1.49583573E-05 1.02862451E-05
 3 32-1.52231791E-05-3.59392215E-05 1.70747088E-05-1.01882500E-05 8.26573385E-04
 3 33 1.06871312E-05 1.07322080E-04 5.73541543E-04-8.39729754E-07 1.65214012E-05
 3 34 9.27389453E-07-1.07885185E-05-7.06282663E-06 1.49583573E-05-3.48350354E-04
 3 35-2.51934961E-04-7.83869087E-05 3.36583783E-05-4.89328597E-05 1.40136336E-04
 3 36 9.58065545E-04-6.03398349E-04 5.93906469E-04 3.61775125E-05-1.34209739E-05
 3 37-2.67943373E-05-9.79352669E-05 3.41944826E-06 4.49423900E-05-3.48350354E-04
 3 38-2.51934961E-04 7.83869087E-05-3.36583783E-05-4.89328597E-05 1.40136336E-04
 3 39-9.58065545E-04 6.03398349E-04 5.93906469E-04 3.61775125E-05-1.34209739E-05
 3 40-2.67943373E-05-9.79352669E-05-3.41944826E-06-4.49423900E-05-4.71300486E-05
 3 41-2.16499985E-05-4.71300486E-05-2.16499985E-05-1.18246769E-04-2.40639118E-04
 3 42-1.18246769E-04-2.40639118E-04-3.03156793E-05-4.14802122E-06-3.03156793E-05
 3 43-4.14802122E-06-5.15209305E-05-5.84966439E-05-5.15209305E-05-5.84966439E-05
 3 44-6.67924137E-05-2.61728620E-04-6.67924137E-05-2.61728620E-04
 4  1 2.47430862E-04 8.38970463E-04-2.47430862E-04-8.38970463E-04 0.00000000E+00
 4  2 0.00000000E+00 8.48595852E-06-1.62712850E-04 0.00000000E+00 0.00000000E+00
 4  3-1.83318347E-04 2.36299049E-03 0.00000000E+00 0.00000000E+00 0.00000000E+00
 4  4 0.00000000E+00 0.00000000E+00 3.34536414E-05 1.26916917E-06-1.50403225E-04
 4  5 3.10178516E-04-3.15412839E-05 1.77211810E-04 6.39752280E-06-1.92348226E-04
 4  6 8.16278682E-04-2.09199568E-03-6.33595073E-04-1.04595153E-04-3.45854608E-04
 4  7 2.20631542E-06 3.09450385E-04 2.71217063E-05-1.48166645E-04 1.50403225E-04
 4  8-3.10178516E-04-3.15412839E-05 1.77211810E-04-6.39752280E-06 1.92348226E-04
 4  9 8.16278682E-04-2.09199568E-03 6.33595073E-04 1.04595153E-04 3.45854608E-04
 4 10-2.20631542E-06-3.09450385E-04 2.71217063E-05-1.48166645E-04-1.16732138E-03
 4 11-2.73726963E-04 3.81049396E-05-8.37803119E-05 3.26042769E-05 5.34522814E-04
 4 12-1.75168550E-04 7.78684661E-04-1.35648074E-03 3.94163081E-05-1.13080979E-05
 4 13-2.53365008E-05-1.24286708E-04 3.92987164E-06 2.60883777E-05 1.16732138E-03
 4 14 2.73726963E-04 3.81049396E-05-8.37803119E-05-3.26042769E-05-5.34522814E-04
 4 15-1.75168550E-04 7.78684661E-04 1.35648074E-03-3.94163081E-05 1.13080979E-05
 4 16 2.53365008E-05 1.24286708E-04 3.92987164E-06 2.60883777E-05-9.36760285E-04
 4 17-5.31239268E-05-2.33867476E-05 1.00328759E-05-4.59711536E-05-6.66466168E-04
 4 18-7.34636273E-04 5.45357804E-04-3.64138553E-04-3.37369317E-05-1.81561347E-06
 4 19-2.79001677E-05-5.84449062E-06-4.43650313E-05 3.74387906E-06 9.36760285E-04
 4 20 5.31239268E-05-2.33867476E-05 1.00328759E-05 4.59711536E-05 6.66466168E-04
 4 21-7.34636273E-04 5.45357804E-04 3.64138553E-04 3.37369317E-05 1.81561347E-06
 4 22 2.79001677E-05 5.84449062E-06-4.43650313E-05 3.74387906E-06 8.77965433E-04
 4 23-6.78774399E-05-2.58521399E-05 3.17180215E-05-1.39811679E-05 1.04895569E-04
 4 24-1.05852473E-04 2.64549871E-04 7.40615641E-04-1.13629670E-05-1.58971428E-05
 4 25 1.18555498E-04-1.28360536E-05 1.27494280E-05 3.33191490E-06-8.77965433E-04
 4 26 6.78774399E-05-2.58521399E-05 3.17180215E-05 1.39811679E-05-1.04895569E-04
 4 27-1.05852473E-04 2.64549871E-04-7.40615641E-04 1.13629670E-05 1.58971428E-05
 4 28-1.18555498E-04 1.28360536E-05 1.27494280E-05 3.33191490E-06 9.99946051E-03
 4 29 1.06648249E-04-8.85948243E-05 7.41748780E-05-1.41913031E-04 1.93820770E-03
 4 30 4.32615089E-04-1.69549015E-04 1.39611401E-03-9.83281465E-05-1.46192313E-04
 4 31-2.44049523E-04 6.75627624E-05 1.00862973E-05-4.04214069E-05-9.99946051E-03
 4 32-1.06648249E-04-8.85948243E-05 7.41748780E-05 1.41913031E-04-1.93820770E-03
 4 33 4.32615089E-04-1.69549015E-04-1.39611401E-03 9.83281465E-05 1.46192313E-04
 4 34 2.44049523E-04-6.75627624E-05 1.00862973E-05-4.04214069E-05 7.03975466E-01
 4 35 1.93066585E-02 5.01107221E-04-5.80893285E-04-5.12823476E-05-6.28122988E-03
 4 36 6.70184819E-04-1.06288761E-03-1.22282666E-04-1.32563000E-03-1.18365309E-03
 4 37-1.12072823E-03-5.06464769E-04 1.52868331E-04-5.91703871E-05-7.03975466E-01
 4 38-1.93066585E-02 5.01107221E-04-5.80893285E-04 5.12823476E-05 6.28122988E-03
 4 39 6.70184819E-04-1.06288761E-03 1.22282666E-04 1.32563000E-03 1.18365309E-03
 4 40 1.12072823E-03 5.06464769E-04 1.52868331E-04-5.91703871E-05 5.48131630E-06
 4 41 1.07468661E-05-5.48131630E-06-1.07468661E-05 1.19253809E-04 1.34372068E-04
 4 42-1.19253809E-04-1.34372068E-04 4.44957602E-05 2.22579401E-04-4.44957602E-05
 4 43-2.22579401E-04-5.29628572E-05-1.36388582E-04 5.29628572E-05 1.36388582E-04
 4 44-8.24885468E-05 1.58929498E-03 8.24885468E-05-1.58929498E-03
 5  1-1.08130393E-04-1.13840210E-04-1.08130393E-04-1.13840210E-04 3.81595772E-04
 5  2-5.56043703E-04 0.00000000E+00 0.00000000E+00-1.41297753E-05 2.92488529E-03
 5  3 0.00000000E+00 0.00000000E+00-1.07804940E-03 1.43853894E-04-3.87735715E-05
 5  4-1.23567944E-05-2.09954831E-04 0.00000000E+00 0.00000000E+00-9.21515322E-05
 5  5 5.80201285E-04 3.29557738E-05 3.94259679E-05 2.63509841E-05-2.33423387E-03
 5  6-5.63527421E-04-6.87936082E-04-3.23635902E-04-4.85287096E-05-1.54021344E-04
 5  7 1.74133374E-05 3.69546503E-04 1.34913503E-05-1.18457669E-04-9.21515322E-05
 5  8 5.80201285E-04-3.29557738E-05-3.94259679E-05 2.63509841E-05-2.33423387E-03
 5  9 5.63527421E-04 6.87936082E-04-3.23635902E-04-4.85287096E-05-1.54021344E-04
 5 10 1.74133374E-05 3.69546503E-04-1.34913503E-05 1.18457669E-04-1.67805320E-03
 5 11-2.83384182E-04-4.85238371E-05-1.29905191E-04 1.07850654E-05 6.12036175E-04
 5 12-3.14088479E-04 1.56947982E-03 3.09760759E-04-6.31431351E-05-4.46785772E-05
 5 13 3.18382014E-05-1.69180893E-05-3.87413472E-05 7.29142091E-05-1.67805320E-03
 5 14-2.83384182E-04 4.85238371E-05 1.29905191E-04 1.07850654E-05 6.12036175E-04
 5 15 3.14088479E-04-1.56947982E-03 3.09760759E-04-6.31431351E-05-4.46785772E-05
 5 16 3.18382014E-05-1.69180893E-05 3.87413472E-05-7.29142091E-05-9.07573342E-04
 5 17-6.84220038E-05-5.75718980E-05 3.28042713E-05-3.63176410E-05-5.50987709E-04
 5 18-3.88401941E-06-2.76792497E-04-4.85675409E-04-3.43442371E-05 1.76712669E-06
 5 19-3.11023712E-05-1.69706095E-05-1.86943912E-05-2.48270409E-05-9.07573342E-04
 5 20-6.84220038E-05 5.75718980E-05-3.28042713E-05-3.63176410E-05-5.50987709E-04
 5 21 3.88401941E-06 2.76792497E-04-4.85675409E-04-3.43442371E-05 1.76712669E-06
 5 22-3.11023712E-05-1.69706095E-05 1.86943912E-05 2.48270409E-05 8.34085166E-04
 5 23-5.89919467E-05-5.15421234E-07-1.52738949E-06 1.55907207E-06 6.52380642E-04
 5 24 4.35219126E-05 5.08522416E-05 3.18111238E-04-3.83628983E-07 3.59357454E-06
 5 25 1.08588414E-04-1.53524319E-05 1.63966148E-05-6.92316846E-07 8.34085166E-04
 5 26-5.89919467E-05 5.15421234E-07 1.52738949E-06 1.55907207E-06 6.52380642E-04
 5 27-4.35219126E-05-5.08522416E-05 3.18111238E-04-3.83628983E-07 3.59357454E-06
 5 28 1.08588414E-04-1.53524319E-05-1.63966148E-05 6.92316846E-07 9.99489111E-03
 5 29 7.45990173E-05-4.92782798E-05 4.49714377E-05-1.12272034E-04 2.88926207E-03
 5 30 5.55649953E-04-4.44835836E-04 1.42125667E-03-9.80938063E-05-1.32837872E-04
 5 31-2.21779138E-04 5.89227916E-05 2.08750211E-05-5.79398325E-05 9.99489111E-03
 5 32 7.45990173E-05 4.92782798E-05-4.49714377E-05-1.12272034E-04 2.88926207E-03
 5 33-5.55649953E-04 4.44835836E-04 1.42125667E-03-9.80938063E-05-1.32837872E-04
 5 34-2.21779138E-04 5.89227916E-05-2.08750211E-05 5.79398325E-05 7.03958001E-01
 5 35 1.92871052E-02 4.09134275E-04-5.03520902E-04-7.13643565E-05-7.30014264E-03
 5 36 8.68786942E-04-8.57798395E-04 6.45600612E-04-1.36089792E-03-1.26030645E-03
 5 37-1.18886295E-03-4.69844751E-04 1.44021747E-04-5.14563967E-05 7.03958001E-01
 5 38 1.92871052E-02-4.09134275E-04 5.03520902E-04-7.13643565E-05-7.30014264E-03
 5 39-8.68786942E-04 8.57798395E-04 6.45600612E-04-1.36089792E-03-1.26030645E-03
 5 40-1.18886295E-03-4.69844751E-04-1.44021747E-04 5.14563967E-05-5.63963120E-05
 5 41-1.72400912E-04-5.63963120E-05-1.72400912E-04 1.03094046E-04 6.39478848E-04
 5 42 1.03094046E-04 6.39478848E-04 5.63979723E-06 1.25787234E-04 5.63979723E-06
 5 43 1.25787234E-04-6.76340378E-05-1.21046844E-04-6.76340378E-05-1.21046844E-04
 5 44-1.34966753E-04 1.36000164E-03-1.34966753E-04 1.36000164E-03
 6  1-2.26561972E-05-3.44301679E-05-2.26561972E-05-3.44301679E-05 1.77819509E-04
 6  2-2.08276687E-04 0.00000000E+00 0.00000000E+00-2.46521842E-04 1.16084208E-03
 6  3 0.00000000E+00 0.00000000E+00-5.23152204E-04 1.11087470E-06-6.99334572E-05
 6  4 1.96055306E-04 1.25469089E-05 0.00000000E+00 0.00000000E+00-2.24327663E-04
 6  5-1.59622882E-05 2.85110026E-04 3.09729771E-05-3.73740014E-04 3.54000411E-03
 6  6-1.23814030E-04 7.76330008E-04-1.35680702E-03-1.58686653E-04-1.41715462E-04
 6  7-4.74846325E-04 8.58806419E-05 9.93185453E-05-1.49184276E-04-2.24327663E-04
 6  8-1.59622882E-05-2.85110026E-04-3.09729771E-05-3.73740014E-04 3.54000411E-03
 6  9 1.23814030E-04-7.76330008E-04-1.35680702E-03-1.58686653E-04-1.41715462E-04
 6 10-4.74846325E-04 8.58806419E-05-9.93185453E-05 1.49184276E-04 7.04688299E-01
 6 11 1.92856141E-02-2.24010554E-03-3.25767303E-04 6.71672941E-04-1.28392310E-02
 6 12 1.32730493E-03-3.32153837E-03 1.87312694E-04-1.40115204E-03-8.78860832E-04
 6 13-9.13231303E-04-1.39593866E-04 8.25130031E-06 1.31546973E-05 7.04688299E-01
 6 14 1.92856141E-02 2.24010554E-03 3.25767303E-04 6.71672941E-04-1.28392310E-02
 6 15-1.32730493E-03 3.32153837E-03 1.87312694E-04-1.40115204E-03-8.78860832E-04
 6 16-9.13231303E-04-1.39593866E-04-8.25130031E-06-1.31546973E-05-2.18332412E-04
 6 17-3.34279714E-04-8.17331260E-05-1.76476510E-04 1.50394209E-04 5.95922105E-03
 6 18 1.01833912E-03-1.01127361E-05 3.34976393E-03-2.53633074E-04-2.46254520E-04
 6 19-2.22544790E-04 6.01490597E-05-9.30367057E-05 1.02581146E-04-2.18332412E-04
 6 20-3.34279714E-04 8.17331260E-05 1.76476510E-04 1.50394209E-04 5.95922105E-03
 6 21-1.01833912E-03 1.01127361E-05 3.34976393E-03-2.53633074E-04-2.46254520E-04
 6 22-2.22544790E-04 6.01490597E-05 9.30367057E-05-1.02581146E-04 5.93398614E-03
 6 23 3.43800331E-04-1.52333648E-04 2.66421265E-04 2.48904568E-05-2.15555719E-03
 6 24-6.79084973E-04 5.11876779E-04-1.19153255E-03-6.05388187E-06 2.05904859E-05
 6 25 4.78474488E-05-4.29258933E-05 5.94306973E-06 8.65990470E-06 5.93398614E-03
 6 26 3.43800331E-04 1.52333648E-04-2.66421265E-04 2.48904568E-05-2.15555719E-03
 6 27 6.79084973E-04-5.11876779E-04-1.19153255E-03-6.05388187E-06 2.05904859E-05
 6 28 4.78474488E-05-4.29258933E-05-5.94306973E-06-8.65990470E-06-3.90975128E-05
 6 29-8.70935233E-05-1.26841751E-04-3.11767058E-05-1.49729371E-04 8.71440787E-04
 6 30 2.53609309E-04-5.48865513E-04-5.90546423E-04-6.10334529E-05-6.63443784E-05
 6 31 1.64554819E-05-3.55839545E-06-1.11472896E-05 1.57851159E-06-3.90975128E-05
 6 32-8.70935233E-05 1.26841751E-04 3.11767058E-05-1.49729371E-04 8.71440787E-04
 6 33-2.53609309E-04 5.48865513E-04-5.90546423E-04-6.10334529E-05-6.63443784E-05
 6 34 1.64554819E-05-3.55839545E-06 1.11472896E-05-1.57851159E-06 1.61578280E-03
 6 35-2.03211023E-04-3.86708817E-05 1.50415358E-04 1.65452419E-04-7.11417960E-04
 6 36-2.11677198E-04 2.93567554E-04-4.73205852E-04-5.42035392E-05-8.17190645E-05
 6 37 3.46388352E-06-5.76727283E-05-1.69722189E-05-2.08704571E-06 1.61578280E-03
 6 38-2.03211023E-04 3.86708817E-05-1.50415358E-04 1.65452419E-04-7.11417960E-04
 6 39 2.11677198E-04-2.93567554E-04-4.73205852E-04-5.42035392E-05-8.17190645E-05
 6 40 3.46388352E-06-5.76727283E-05 1.69722189E-05 2.08704571E-06-1.04711374E-04
 6 41 5.99098255E-04-1.04711374E-04 5.99098255E-04 1.62579877E-04 1.65263219E-03
 6 42 1.62579877E-04 1.65263219E-03 1.16154520E-04-8.35311497E-05 1.16154520E-04
 6 43-8.35311497E-05 5.69832449E-07 1.83862646E-04 5.69832449E-07 1.83862646E-04
 6 44 1.07360252E-04 4.80951183E-04 1.07360252E-04 4.80951183E-04
 7  1-7.46481461E-05-3.33706561E-04 7.46481461E-05 3.33706561E-04 0.00000000E+00
 7  2 0.00000000E+00 9.28953065E-05 1.03526088E-04 0.00000000E+00 0.00000000E+00
 7  3 4.48826672E-05-7.55084122E-04 0.00000000E+00 0.00000000E+00 0.00000000E+00
 7  4 0.00000000E+00 0.00000000E+00 7.20488357E-06 3.90554592E-05-1.40719825E-04
 7  5 1.98707207E-04 3.64078976E-05-3.80979307E-06-1.40553289E-04 2.29284037E-03
 7  6 6.46130021E-04-5.27496273E-04-7.61020222E-04-1.59947290E-04-3.64747405E-05
 7  7-3.67468596E-04 5.89092590E-05 1.64693745E-04-1.05557036E-04 1.40719825E-04
 7  8-1.98707207E-04 3.64078976E-05-3.80979307E-06 1.40553289E-04-2.29284037E-03
 7  9 6.46130021E-04-5.27496273E-04 7.61020222E-04 1.59947290E-04 3.64747405E-05
 7 10 3.67468596E-04-5.89092590E-05 1.64693745E-04-1.05557036E-04 7.04445094E-01
 7 11 2.03376215E-02-3.41075106E-04 2.02270587E-04 4.75096982E-04-1.82799469E-02
 7 12-2.83214984E-03-1.31164234E-03-6.17589521E-04-7.25365221E-04-7.01388969E-04
 7 13-7.03458808E-04 2.27838562E-05 7.35937995E-05 8.92317199E-06-7.04445094E-01
 7 14-2.03376215E-02-3.41075106E-04 2.02270587E-04-4.75096982E-04 1.82799469E-02
 7 15-2.83214984E-03-1.31164234E-03 6.17589521E-04 7.25365221E-04 7.01388969E-04
 7 16 7.03458808E-04-2.27838562E-05 7.35937995E-05 8.92317199E-06 2.84374900E-03
 7 17 2.17358822E-04 6.01245223E-05-2.00317473E-05 8.76678163E-05 1.35091231E-03
 7 18 1.23971128E-03-7.23744201E-04 9.88004240E-04-6.34873250E-05-7.83535874E-05
 7 19-1.22316469E-04 7.20285512E-05-7.12188704E-05 1.77509066E-04-2.84374900E-03
 7 20-2.17358822E-04 6.01245223E-05-2.00317473E-05-8.76678163E-05-1.35091231E-03
 7 21 1.23971128E-03-7.23744201E-04-9.88004240E-04 6.34873250E-05 7.83535874E-05
 7 22 1.22316469E-04-7.20285512E-05-7.12188704E-05 1.77509066E-04 2.89612340E-03
 7 23-4.95309416E-05-1.77647623E-04 1.00388022E-04-3.35824232E-05 1.32090606E-03
 7 24 6.13675974E-04-6.37664122E-04 1.84110915E-04-6.63459956E-05-6.59482866E-05
 7 25 3.29078831E-06-7.21341596E-05 1.93785169E-05 4.41927266E-05-2.89612340E-03
 7 26 4.95309416E-05-1.77647623E-04 1.00388022E-04 3.35824232E-05-1.32090606E-03
 7 27 6.13675974E-04-6.37664122E-04-1.84110915E-04 6.63459956E-05 6.59482866E-05
 7 28-3.29078831E-06 7.21341596E-05 1.93785169E-05 4.41927266E-05-4.34309979E-05
 7 29 4.11494837E-05-7.79774030E-05 2.60842801E-05-5.66692551E-05-9.18530703E-04
 7 30-4.47646517E-04 5.51016199E-04-3.82141012E-05-4.99417019E-05-6.72495190E-05
 7 31-1.51241339E-05 1.42010113E-05 9.05373380E-07-7.69868989E-06 4.34309979E-05
 7 32-4.11494837E-05-7.79774030E-05 2.60842801E-05 5.66692551E-05 9.18530703E-04
 7 33-4.47646517E-04 5.51016199E-04 3.82141012E-05 4.99417019E-05 6.72495190E-05
 7 34 1.51241339E-05-1.42010113E-05 9.05373380E-07-7.69868989E-06 1.10231049E-03
 7 35-2.73479703E-04-4.30994838E-05 2.00214290E-05 9.39807022E-05 1.45152798E-03
 7 36 3.18278356E-04-3.61221090E-04-1.08776221E-03-4.95536883E-05-2.26631970E-05
 7 37 2.96998456E-05-1.06421267E-04-1.94265935E-05-1.27700845E-05-1.10231049E-03
 7 38 2.73479703E-04-4.30994838E-05 2.00214290E-05-9.39807022E-05-1.45152798E-03
 7 39 3.18278356E-04-3.61221090E-04 1.08776221E-03 4.95536883E-05 2.26631970E-05
 7 40-2.96998456E-05 1.06421267E-04-1.94265935E-05-1.27700845E-05-1.49975384E-04
 7 41 1.98534881E-04 1.49975384E-04-1.98534881E-04 3.92857101E-04 1.99160698E-03
 7 42-3.92857101E-04-1.99160698E-03 8.07493099E-05 3.74058072E-04-8.07493099E-05
 7 43-3.74058072E-04-4.34136602E-05-1.56991094E-04 4.34136602E-05 1.56991094E-04
 7 44 4.09596452E-05 4.60743217E-04-4.09596452E-05-4.60743217E-04
 8  1-3.06601190E-05-1.30170829E-04 3.06601190E-05 1.30170829E-04 0.00000000E+00
 8  2 0.00000000E+00-5.12657837E-05 4.05046711E-05 0.00000000E+00 0.00000000E+00
 8  3-1.33042563E-05-2.35569000E-04 0.00000000E+00 0.00000000E+00 0.00000000E+00
 8  4 0.00000000E+00 0.00000000E+00-7.97679128E-06 3.12844194E-06 4.24890735E-05
 8  5-3.17234990E-06-1.04855922E-04-3.56615136E-05 1.61318892E-04-8.44728794E-04
 8  6-4.15296224E-05 8.89643117E-05 5.57086761E-04 3.73372258E-05 2.24194146E-05
 8  7 3.07655575E-05-1.31722014E-05 2.08867007E-05-2.18438065E-05-4.24890735E-05
 8  8 3.17234990E-06-1.04855922E-04-3.56615136E-05-1.61318892E-04 8.44728794E-04
 8  9-4.15296224E-05 8.89643117E-05-5.57086761E-04-3.73372258E-05-2.24194146E-05
 8 10-3.07655575E-05 1.31722014E-05 2.08867007E-05-2.18438065E-05-4.24054058E-03
 8 11 3.18927796E-04-1.72637245E-04 3.30850877E-04-5.12974978E-04 6.70835999E-04
 8 12-1.33340444E-03 3.89474597E-04 2.70414416E-04-7.22463833E-05 2.92686185E-06
 8 13-3.08525943E-05-4.00654496E-05-1.92566933E-05 3.61821200E-05 4.24054058E-03
 8 14-3.18927796E-04-1.72637245E-04 3.30850877E-04 5.12974978E-04-6.70835999E-04
 8 15-1.33340444E-03 3.89474597E-04-2.70414416E-04 7.22463833E-05-2.92686185E-06
 8 16 3.08525943E-05 4.00654496E-05-1.92566933E-05 3.61821200E-05 4.03588625E-01