!   transition state between short and long bond isomers.  (see long input)
!
!     FINAL MCSCF E= -1159.1455448906, 2 iters, E(MP2)= -1159.4191305499
!
!   This run takes 19 seconds on 2.66 GHz Cloverton (27 Apr 2015)
!
 $contrl scftyp=mcscf runtyp=energy mplevl=2 molplt=.t. nzvar=24 $end
 $system parall=.t. mwords=5 memddi=20 $end
 $basis  gbasis=n31 ngauss=6 ndfunc=1 $end
 $zmat   izmat(1)=1,1,2,  1,1,4,  1,1,3,  1,2,4,  1,2,3,  3,3,2,1,4,
            1,1,5, 2,5,1,2, 3,5,1,2,4,
            1,6,2, 2,6,2,1, 3,6,2,1,3,
            1,3,7, 1,3,9,  2,7,3,9,  6,7,9,3,1,2,  2,7,3,1, 2,7,3,2,
            1,4,8, 1,4,10, 2,8,4,10, 6,8,10,4,1,2, 2,8,4,1, 2,8,4,2 $end
 $guess  guess=moread norb=88  $end
--- $scf    nco=30 npair=1 $end
 $mcscf  cistep=aldet fullnr=.true. $end
 $det    stsym=A1 ncore=26 nact=10 nels=10 $end
 $mrmp   mrpt=detmrpt $end
 $statpt opttol=1d-5 nstep=100 $end
 $force  nvib=2 $end
 $data
transition state for the isomerization of tetrasilabicylo[1.0.0]butane
Cnv 2

SI         14.0   1.2510188088   0.0000000000   0.1361230802
SI         14.0   0.0000000000   1.7931284825  -0.7036556793
H           1.0   2.2685946097  -0.0000000000   1.2073445303
H           1.0  -0.0000000000   2.9803987959   0.1781908769
H           1.0   0.0000000000   2.2053731730  -2.1243734091
 $end

============= RHF/6-31G(d) transition state
SI         14.0   1.2422521782  -0.0000000000   0.0927205015
SI         14.0   0.0000000000   1.7805467394  -0.6665313993
H           1.0   2.1028687323   0.0000000000   1.2924033535
H           1.0  -0.0000000000   2.9590748944   0.2261142365
H           1.0   0.0000000000   2.1989120312  -2.0830718400

============= GVB/6-31G(d) transition state
SI         14.0   1.2634629909  -0.0000000000   0.0942650149
SI         14.0  -0.0000000000   1.7717826171  -0.6644322225
H           1.0   2.2486333731  -0.0000000000   1.1942190254
H           1.0  -0.0000000000   2.9564543362   0.2211779357
H           1.0   0.0000000000   2.1938730116  -2.0810989944

============= MCSCF/6-31G(d) transition state
SI         14.0   1.2510188088   0.0000000000   0.1361230802
SI         14.0   0.0000000000   1.7931284825  -0.7036556793
H           1.0   2.2685946097  -0.0000000000   1.2073445303
H           1.0  -0.0000000000   2.9803987959   0.1781908769
H           1.0   0.0000000000   2.2053731730  -2.1243734091

---------- TCSCF data are
--- $GRAD
E=    -1159.0889914783  GMAX=   0.0000019  GRMS=   0.0000005
SI          14.    1.8750109794E-06   -5.4123395413E-16    8.2113719269E-07
SI          14.   -1.8750109794E-06    5.4123372450E-16    8.2113719269E-07
SI          14.   -1.7763568394E-15   -1.6509243927E-07   -3.5140516541E-07
SI          14.    1.7763568596E-15    1.6509243927E-07   -3.5140516541E-07
H            1.    8.1025348209E-08    1.0841922497E-18   -2.9042582139E-07
H            1.   -8.1025348209E-08   -1.0842021725E-18   -2.9042582139E-07
H            1.   -2.4980018054E-16   -5.8329360009E-08   -7.2262944073E-08
H            1.    2.4980018768E-16    5.8329360009E-08   -7.2262944073E-08
H            1.   -1.0234868508E-16    4.4109607744E-08   -1.0702868858E-07
H            1.    1.0234867968E-16   -4.4109607744E-08   -1.0702868858E-07
 $END
--- $HESS
ENERGY IS    -1159.0889914783 E(NUC) IS      319.7749615219
 1  1 1.98219904E-01-2.19805511E-18-1.59726642E-01-1.90410177E-02 0.00000000E+00
 1  2-2.94053325E-02-4.00969882E-02 3.79419655E-02 4.26726443E-02-4.00969882E-02
 1  3-3.79419655E-02 4.26726443E-02-9.01663151E-02 8.65977290E-18 1.02314410E-01
 1  4-1.08452142E-02 0.00000000E+00 6.91117679E-03 1.04196695E-03-4.26711798E-03
 1  5-3.37837203E-03 1.04196695E-03 4.26711798E-03-3.37837203E-03-2.46433573E-05
 1  6 4.31915020E-03 6.24145032E-04-2.46433573E-05-4.31915020E-03 6.24145032E-04
 2  1-2.19805511E-18 1.80271422E-01 1.95608721E-17 0.00000000E+00 6.28109847E-03
 2  2 0.00000000E+00 4.16704182E-02-7.56462936E-02-2.32247794E-02-4.16704182E-02
 2  3-7.56462936E-02 2.32247794E-02 8.65977290E-18-1.94539032E-02-1.25299015E-17
 2  4 0.00000000E+00-5.19988780E-03 0.00000000E+00 7.57966293E-03-3.40300839E-03
 2  5-1.51548417E-03-7.57966293E-03-3.40300839E-03 1.51548417E-03-1.07454086E-03
 2  6-1.90053080E-03-8.68435607E-04 1.07454086E-03-1.90053080E-03 8.68435607E-04
 3  1-1.59726642E-01 1.95608721E-17 1.80685983E-01 2.94053325E-02 0.00000000E+00
 3  2-4.05128924E-02 2.70064487E-02-2.45155981E-02-1.98487602E-02 2.70064487E-02
 3  3 2.45155981E-02-1.98487602E-02 9.29900387E-02-1.13879953E-17-1.18727032E-01
 3  4-1.62677391E-02 0.00000000E+00 1.26077792E-02-6.18153783E-03 2.51266706E-03
 3  5 1.80663316E-03-6.18153783E-03-2.51266706E-03 1.80663316E-03 5.97354333E-03
 3  6-2.38903903E-03 1.02661486E-03 5.97354333E-03 2.38903903E-03 1.02661486E-03
 4  1-1.90410177E-02 3.10106485E-18 2.94053325E-02 1.98219904E-01 0.00000000E+00
 4  2 1.59726642E-01-4.00969882E-02-3.79419655E-02-4.26726443E-02-4.00969882E-02
 4  3 3.79419655E-02-4.26726443E-02-1.08452142E-02 6.91353089E-19-6.91117679E-03
 4  4-9.01663151E-02 0.00000000E+00-1.02314410E-01 1.04196695E-03 4.26711798E-03
 4  5 3.37837203E-03 1.04196695E-03-4.26711798E-03 3.37837203E-03-2.46433573E-05
 4  6-4.31915020E-03-6.24145032E-04-2.46433573E-05 4.31915020E-03-6.24145032E-04
 5  1 3.10106485E-18 6.28109847E-03-3.60111463E-18 0.00000000E+00 1.80271422E-01
 5  2 0.00000000E+00-4.16704182E-02-7.56462936E-02-2.32247794E-02 4.16704182E-02
 5  3-7.56462936E-02 2.32247794E-02 6.91353089E-19-5.19988780E-03 8.46375053E-19
 5  4 0.00000000E+00-1.94539032E-02 0.00000000E+00-7.57966293E-03-3.40300839E-03
 5  5-1.51548417E-03 7.57966293E-03-3.40300839E-03 1.51548417E-03 1.07454086E-03
 5  6-1.90053080E-03-8.68435607E-04-1.07454086E-03-1.90053080E-03 8.68435607E-04
 6  1-2.94053325E-02 3.60111463E-18-4.05128924E-02 1.59726642E-01 0.00000000E+00
 6  2 1.80685983E-01-2.70064487E-02-2.45155981E-02-1.98487602E-02-2.70064487E-02
 6  3 2.45155981E-02-1.98487602E-02 1.62677391E-02-1.99222346E-18 1.26077792E-02
 6  4-9.29900387E-02 0.00000000E+00-1.18727032E-01 6.18153783E-03 2.51266706E-03
 6  5 1.80663316E-03 6.18153783E-03-2.51266706E-03 1.80663316E-03-5.97354333E-03
 6  6-2.38903903E-03 1.02661486E-03-5.97354333E-03 2.38903903E-03 1.02661486E-03
 7  1-4.00969882E-02 4.16704182E-02 2.70064487E-02-4.00969882E-02-4.16704182E-02
 7  2-2.70064487E-02 1.13394529E-01 0.00000000E+00 0.00000000E+00 1.27614601E-02
 7  3-3.04033771E-18-9.46282883E-19-1.86462005E-03 1.22206111E-03-2.40531490E-03
 7  4-1.86462005E-03-1.22206111E-03 2.40531490E-03-1.56578819E-02 0.00000000E+00
 7  5 0.00000000E+00-5.83885542E-03 4.50967401E-19 1.85772467E-19-1.91397939E-02
 7  6 0.00000000E+00 0.00000000E+00-1.60080842E-03 3.72144359E-19 1.04966523E-20
 8  1 3.79419655E-02-7.56462936E-02-2.45155981E-02-3.79419655E-02-7.56462936E-02
 8  2-2.45155981E-02 0.00000000E+00 3.32070202E-01 1.36754029E-02-3.04033771E-18
 8  3-1.20647813E-02-7.72698613E-03 5.70698712E-05 3.08114925E-03 2.64777416E-03
 8  4-5.70698712E-05 3.08114925E-03 2.64777416E-03-7.70371978E-34-1.35699131E-01
 8  5 7.92982973E-02 4.50967401E-19-2.15642713E-03 1.51694731E-03 9.62964972E-35
 8  6-3.84569904E-02-4.31752459E-02 3.72144359E-19 1.43798088E-03 8.57116702E-05
 9  1 4.26726443E-02-2.32247794E-02-1.98487602E-02-4.26726443E-02-2.32247794E-02
 9  2-1.98487602E-02 0.00000000E+00 1.36754029E-02 3.24765663E-01 9.46282883E-19
 9  3 7.72698613E-03-1.86245407E-03-2.60304882E-03-6.05406153E-03-4.56583201E-03
 9  4 2.60304882E-03-6.05406153E-03-4.56583201E-03 0.00000000E+00 8.45541710E-02
 9  5-8.84308244E-02 1.08876019E-19 8.89040163E-04 3.55602750E-04 0.00000000E+00
 9  6-5.07252896E-02-1.84755503E-01 2.98363567E-19 2.43632342E-03-1.26779469E-03
10  1-4.00969882E-02-4.16704182E-02 2.70064487E-02-4.00969882E-02 4.16704182E-02
10  2-2.70064487E-02 1.27614601E-02 0.00000000E+00 0.00000000E+00 1.13394529E-01
10  3 2.67800463E-17-1.67475384E-18-1.86462005E-03-1.22206111E-03-2.40531490E-03
10  4-1.86462005E-03 1.22206111E-03 2.40531490E-03-5.83885542E-03 0.00000000E+00
10  5 0.00000000E+00-1.56578819E-02-1.47008131E-17-9.71124060E-18-1.60080842E-03
10  6 0.00000000E+00 0.00000000E+00-1.91397939E-02-2.36567429E-18 5.28744266E-18
11  1-3.79419655E-02-7.56462936E-02 2.45155981E-02 3.79419655E-02-7.56462936E-02
11  2 2.45155981E-02 0.00000000E+00-1.20647813E-02 7.72698613E-03 2.67800463E-17
11  3 3.32070202E-01-1.36754029E-02-5.70698712E-05 3.08114925E-03-2.64777416E-03
11  4 5.70698712E-05 3.08114925E-03-2.64777416E-03 0.00000000E+00-2.15642713E-03
11  5-1.51694731E-03-1.47008131E-17-1.35699131E-01-7.92982973E-02 0.00000000E+00
11  6 1.43798088E-03-8.57116702E-05-2.36567429E-18-3.84569904E-02 4.31752459E-02
12  1 4.26726443E-02 2.32247794E-02-1.98487602E-02-4.26726443E-02 2.32247794E-02
12  2-1.98487602E-02 0.00000000E+00-7.72698613E-03-1.86245407E-03-1.67475384E-18
12  3-1.36754029E-02 3.24765663E-01-2.60304882E-03 6.05406153E-03-4.56583201E-03
12  4 2.60304882E-03 6.05406153E-03-4.56583201E-03 0.00000000E+00-8.89040163E-04
12  5 3.55602750E-04-1.03548995E-17-8.45541710E-02-8.84308244E-02 0.00000000E+00
12  6-2.43632342E-03-1.26779469E-03 6.21205635E-18 5.07252896E-02-1.84755503E-01
13  1-9.01663151E-02 8.65977290E-18 9.29900387E-02-1.08452142E-02 0.00000000E+00
13  2 1.62677391E-02-1.86462005E-03 5.70698712E-05-2.60304882E-03-1.86462005E-03
13  3-5.70698712E-05-2.60304882E-03 9.70403264E-02-9.86926052E-18-9.87855492E-02
13  4 6.13150060E-03 0.00000000E+00-4.67789730E-03 3.83118100E-04 3.81473830E-04
13  5-6.51801341E-06 3.83118100E-04-3.81473830E-04-6.51801341E-06 3.97909254E-04
13  6-1.19619894E-03-2.91675529E-04 3.97909254E-04 1.19619894E-03-2.91675529E-04
14  1 8.65977290E-18-1.94539032E-02-1.13879953E-17 0.00000000E+00-5.19988780E-03
14  2 0.00000000E+00 1.22206111E-03 3.08114925E-03-6.05406153E-03-1.22206111E-03
14  3 3.08114925E-03 6.05406153E-03-9.86926052E-18 1.64516985E-02 1.20977407E-17
14  4 0.00000000E+00 2.55603053E-03 0.00000000E+00-2.12740434E-04 2.77682880E-04
14  5 6.36405167E-04 2.12740434E-04 2.77682880E-04-6.36405167E-04 2.31720933E-03
14  6-5.35121296E-04-2.14890826E-04-2.31720933E-03-5.35121296E-04 2.14890826E-04
15  1 1.02314410E-01-1.25299015E-17-1.18727032E-01-6.91117679E-03 0.00000000E+00
15  2 1.26077792E-02-2.40531490E-03 2.64777416E-03-4.56583201E-03-2.40531490E-03
15  3-2.64777416E-03-4.56583201E-03-9.87855492E-02 1.20977407E-17 1.18062549E-01
15  4 4.67789730E-03 0.00000000E+00-2.78960529E-03 3.65015336E-04-2.48904727E-04
15  5 2.89392597E-04 3.65015336E-04 2.48904727E-04 2.89392597E-04 1.38826958E-03
15  6-1.45502071E-03-2.97822507E-04 1.38826958E-03 1.45502071E-03-2.97822507E-04
16  1-1.08452142E-02 6.91353089E-19-1.62677391E-02-9.01663151E-02 0.00000000E+00
16  2-9.29900387E-02-1.86462005E-03-5.70698712E-05 2.60304882E-03-1.86462005E-03
16  3 5.70698712E-05 2.60304882E-03 6.13150060E-03-4.37868798E-19 4.67789730E-03
16  4 9.70403264E-02 0.00000000E+00 9.87855492E-02 3.83118100E-04-3.81473830E-04
16  5 6.51801341E-06 3.83118100E-04 3.81473830E-04 6.51801341E-06 3.97909254E-04
16  6 1.19619894E-03 2.91675529E-04 3.97909254E-04-1.19619894E-03 2.91675529E-04
17  1 6.91353089E-19-5.19988780E-03 1.99222346E-18 0.00000000E+00-1.94539032E-02
17  2 0.00000000E+00-1.22206111E-03 3.08114925E-03-6.05406153E-03 1.22206111E-03
17  3 3.08114925E-03 6.05406153E-03-4.37868798E-19 2.55603053E-03-5.72877195E-19
17  4 0.00000000E+00 1.64516985E-02 0.00000000E+00 2.12740434E-04 2.77682880E-04
17  5 6.36405167E-04-2.12740434E-04 2.77682880E-04-6.36405167E-04-2.31720933E-03
17  6-5.35121296E-04-2.14890826E-04 2.31720933E-03-5.35121296E-04 2.14890826E-04
18  1 6.91117679E-03-8.46375053E-19 1.26077792E-02-1.02314410E-01 0.00000000E+00
18  2-1.18727032E-01 2.40531490E-03 2.64777416E-03-4.56583201E-03 2.40531490E-03
18  3-2.64777416E-03-4.56583201E-03-4.67789730E-03 5.72877195E-19-2.78960529E-03
18  4 9.87855492E-02 0.00000000E+00 1.18062549E-01-3.65015336E-04-2.48904727E-04
18  5 2.89392597E-04-3.65015336E-04 2.48904727E-04 2.89392597E-04-1.38826958E-03
18  6-1.45502071E-03-2.97822507E-04-1.38826958E-03 1.45502071E-03-2.97822507E-04
19  1 1.04196695E-03 7.57966293E-03-6.18153783E-03 1.04196695E-03-7.57966293E-03
19  2 6.18153783E-03-1.56578819E-02 0.00000000E+00 0.00000000E+00-5.83885542E-03
19  3 4.50967401E-19-1.08876019E-19 3.83118100E-04-2.12740434E-04 3.65015336E-04
19  4 3.83118100E-04 2.12740434E-04-3.65015336E-04 1.39070499E-02 7.70371978E-34
19  5 0.00000000E+00 2.33029536E-03-4.18533720E-19 6.27941092E-20 1.51681025E-03
19  6 0.00000000E+00 0.00000000E+00 8.92252191E-04-1.82830063E-19 5.02268581E-20
20  1-4.26711798E-03-3.40300839E-03 2.51266706E-03 4.26711798E-03-3.40300839E-03
20  2 2.51266706E-03-7.70371978E-34-1.35699131E-01 8.45541710E-02 4.50967401E-19
20  3-2.15642713E-03-8.89040163E-04 3.81473830E-04 2.77682880E-04-2.48904727E-04
20  4-3.81473830E-04 2.77682880E-04-2.48904727E-04-7.70371978E-34 1.40682254E-01
20  5-8.72869240E-02-4.18533720E-19-1.08729181E-03 5.12752814E-04 0.00000000E+00
20  6 5.11039629E-03-1.83515842E-03-1.82830063E-19-6.00668569E-04 4.10133421E-04
21  1-3.37837203E-03-1.51548417E-03 1.80663316E-03 3.37837203E-03-1.51548417E-03
21  2 1.80663316E-03 0.00000000E+00 7.92982973E-02-8.84308244E-02-1.85772467E-19
21  3-1.51694731E-03 3.55602750E-04-6.51801341E-06 6.36405167E-04 2.89392597E-04
21  4 6.51801341E-06 6.36405167E-04 2.89392597E-04 0.00000000E+00-8.72869240E-02
21  5 9.13987205E-02-6.27941092E-20-5.12752814E-04 1.75432602E-04 0.00000000E+00
21  6 1.22270246E-02-7.94840651E-03-5.52533161E-20-4.51177565E-04 2.64466480E-04
22  1 1.04196695E-03-7.57966293E-03-6.18153783E-03 1.04196695E-03 7.57966293E-03
22  2 6.18153783E-03-5.83885542E-03 0.00000000E+00 0.00000000E+00-1.56578819E-02
22  3-1.47008131E-17-1.03548995E-17 3.83118100E-04 2.12740434E-04 3.65015336E-04
22  4 3.83118100E-04-2.12740434E-04-3.65015336E-04 2.33029536E-03 1.20370622E-35
22  5 0.00000000E+00 1.39070499E-02 1.55254848E-17 1.06895652E-17 8.92252191E-04
22  6 0.00000000E+00 0.00000000E+00 1.51681025E-03 4.40087364E-19 2.24742089E-19
23  1 4.26711798E-03-3.40300839E-03-2.51266706E-03-4.26711798E-03-3.40300839E-03
23  2-2.51266706E-03 0.00000000E+00-2.15642713E-03 8.89040163E-04-1.47008131E-17
23  3-1.35699131E-01-8.45541710E-02-3.81473830E-04 2.77682880E-04 2.48904727E-04
23  4 3.81473830E-04 2.77682880E-04 2.48904727E-04 0.00000000E+00-1.08729181E-03
23  5-5.12752814E-04 1.55254848E-17 1.40682254E-01 8.72869240E-02 0.00000000E+00
23  6-6.00668569E-04-4.10133421E-04 4.40087364E-19 5.11039629E-03 1.83515842E-03
24  1-3.37837203E-03 1.51548417E-03 1.80663316E-03 3.37837203E-03 1.51548417E-03
24  2 1.80663316E-03 0.00000000E+00 1.51694731E-03 3.55602750E-04-9.71124060E-18
24  3-7.92982973E-02-8.84308244E-02-6.51801341E-06-6.36405167E-04 2.89392597E-04
24  4 6.51801341E-06-6.36405167E-04 2.89392597E-04 0.00000000E+00 5.12752814E-04
24  5 1.75432602E-04 1.06895652E-17 8.72869240E-02 9.13987205E-02 0.00000000E+00
24  6 4.51177565E-04 2.64466480E-04-1.49737866E-18-1.22270246E-02-7.94840651E-03
25  1-2.46433573E-05-1.07454086E-03 5.97354333E-03-2.46433573E-05 1.07454086E-03
25  2-5.97354333E-03-1.91397939E-02 0.00000000E+00 0.00000000E+00-1.60080842E-03
25  3 3.72144359E-19-2.98363567E-19 3.97909254E-04 2.31720933E-03 1.38826958E-03
25  4 3.97909254E-04-2.31720933E-03-1.38826958E-03 1.51681025E-03 0.00000000E+00
25  5 0.00000000E+00 8.92252191E-04-1.82830063E-19 5.52533161E-20 1.72115214E-02
25  6-9.62964972E-35 0.00000000E+00 3.77093516E-04-2.68925070E-20 3.01800244E-20
26  1 4.31915020E-03-1.90053080E-03-2.38903903E-03-4.31915020E-03-1.90053080E-03
26  2-2.38903903E-03 0.00000000E+00-3.84569904E-02-5.07252896E-02 3.72144359E-19
26  3 1.43798088E-03-2.43632342E-03-1.19619894E-03-5.35121296E-04-1.45502071E-03
26  4 1.19619894E-03-5.35121296E-04-1.45502071E-03 0.00000000E+00 5.11039629E-03
26  5 1.22270246E-02-1.82830063E-19-6.00668569E-04 4.51177565E-04-9.62964972E-35
26  6 3.72236379E-02 4.79164017E-02-2.68925070E-20 1.57499531E-04 2.46438601E-04
27  1 6.24145032E-04-8.68435607E-04 1.02661486E-03-6.24145032E-04-8.68435607E-04
27  2 1.02661486E-03 0.00000000E+00-4.31752459E-02-1.84755503E-01-1.04966523E-20
27  3-8.57116702E-05-1.26779469E-03-2.91675529E-04-2.14890826E-04-2.97822507E-04
27  4 2.91675529E-04-2.14890826E-04-2.97822507E-04 0.00000000E+00-1.83515842E-03
27  5-7.94840651E-03-5.02268581E-20-4.10133421E-04 2.64466480E-04 0.00000000E+00
27  6 4.79164017E-02 1.92072663E-01-3.01800244E-20-2.46438601E-04 1.66487609E-04
28  1-2.46433573E-05 1.07454086E-03 5.97354333E-03-2.46433573E-05-1.07454086E-03
28  2-5.97354333E-03-1.60080842E-03 0.00000000E+00 0.00000000E+00-1.91397939E-02
28  3-2.36567429E-18 6.21205635E-18 3.97909254E-04-2.31720933E-03 1.38826958E-03
28  4 3.97909254E-04 2.31720933E-03-1.38826958E-03 8.92252191E-04 0.00000000E+00
28  5 0.00000000E+00 1.51681025E-03 4.40087364E-19-1.49737866E-18 3.77093516E-04
28  6 0.00000000E+00 0.00000000E+00 1.72115214E-02 2.45077744E-18-5.86806680E-18
29  1-4.31915020E-03-1.90053080E-03 2.38903903E-03 4.31915020E-03-1.90053080E-03
29  2 2.38903903E-03 0.00000000E+00 1.43798088E-03 2.43632342E-03-2.36567429E-18
29  3-3.84569904E-02 5.07252896E-02 1.19619894E-03-5.35121296E-04 1.45502071E-03
29  4-1.19619894E-03-5.35121296E-04 1.45502071E-03 0.00000000E+00-6.00668569E-04
29  5-4.51177565E-04 4.40087364E-19 5.11039629E-03-1.22270246E-02 0.00000000E+00
29  6 1.57499531E-04-2.46438601E-04 2.45077744E-18 3.72236379E-02-4.79164017E-02
30  1 6.24145032E-04 8.68435607E-04 1.02661486E-03-6.24145032E-04 8.68435607E-04
30  2 1.02661486E-03 0.00000000E+00 8.57116702E-05-1.26779469E-03 5.28744266E-18
30  3 4.31752459E-02-1.84755503E-01-2.91675529E-04 2.14890826E-04-2.97822507E-04
30  4 2.91675529E-04 2.14890826E-04-2.97822507E-04 0.00000000E+00 4.10133421E-04
30  5 2.64466480E-04 2.24742089E-19 1.83515842E-03-7.94840651E-03 0.00000000E+00
30  6 2.46438601E-04 1.66487609E-04-5.86806680E-18-4.79164017E-02 1.92072663E-01
 $END
--- $DIPDR
  9.72025700E-02 0.00000000E+00-3.62295372E-01
  0.00000000E+00 7.56705019E-01 0.00000000E+00
  1.18488545E-01 0.00000000E+00 1.31209850E-01
  9.72025700E-02 0.00000000E+00 3.62295372E-01
  0.00000000E+00 7.56705019E-01 0.00000000E+00
 -1.18488545E-01 0.00000000E+00 1.31209850E-01
  2.40108295E+00 0.00000000E+00 0.00000000E+00
  0.00000000E+00 4.49793441E+00 7.55140924E-01
  0.00000000E+00 1.32819781E+00 3.21458219E+00
  2.40108295E+00 0.00000000E+00 0.00000000E+00
  0.00000000E+00 4.49793441E+00-7.55140924E-01
  0.00000000E+00-1.32819781E+00 3.21458219E+00
 -1.34892493E+00 0.00000000E+00 6.88696701E-01
  0.00000000E+00-1.20615743E+00 0.00000000E+00
  6.88743455E-01 0.00000000E+00-7.38800539E-01
 -1.34892493E+00 0.00000000E+00-6.88696701E-01
  0.00000000E+00-1.20615743E+00 0.00000000E+00
 -6.88743455E-01 0.00000000E+00-7.38800539E-01
 -3.85567091E-01 0.00000000E+00 0.00000000E+00
  0.00000000E+00-2.17654908E+00 1.28608698E-01
  0.00000000E+00-3.03672711E-02-1.08967121E+00
 -3.85567091E-01 0.00000000E+00 0.00000000E+00
  0.00000000E+00-2.17654908E+00-1.28608698E-01
  0.00000000E+00 3.03672711E-02-1.08967121E+00
 -7.64380156E-01 0.00000000E+00 0.00000000E+00
  0.00000000E+00-1.87207263E+00-6.25101627E-01
  0.00000000E+00-5.98287274E-01-1.51708555E+00
 -7.64380156E-01 0.00000000E+00 0.00000000E+00
  0.00000000E+00-1.87207263E+00 6.25101627E-01
  0.00000000E+00 5.98287274E-01-1.51708555E+00
 $END

----- MCSCF/6-31G(d) information:
 $GRAD
E=    -1159.1455448893  GMAX=   0.0000060  GRMS=   0.0000018
SI          14.    6.0042100509E-06    0.0000000000E+00    4.4509859265E-07
SI          14.   -6.0042100509E-06    0.0000000000E+00    4.4509859265E-07
SI          14.    0.0000000000E+00    9.9943477672E-07   -1.2559871005E-06
SI          14.    0.0000000000E+00   -9.9943477672E-07   -1.2559871005E-06
H            1.    1.7987703460E-06    0.0000000000E+00    2.1691062906E-06
H            1.   -1.7987703460E-06    0.0000000000E+00    2.1691062906E-06
H            1.    0.0000000000E+00    4.1893431257E-07    2.3655374326E-08
H            1.    0.0000000000E+00   -4.1893431257E-07    2.3655374326E-08
H            1.    0.0000000000E+00   -1.3286697009E-07   -1.3818773921E-06
H            1.    0.0000000000E+00    1.3286697009E-07   -1.3818773921E-06
 $END
 $HESS
ENERGY IS    -1159.1455448893 E(NUC) IS      316.5391672812
 1  1 2.01489850E-01-1.38327919E-12-1.54873257E-01-4.49783771E-02-3.83159258E-12
 1  2-1.23414434E-02-2.95509489E-02 3.28453017E-02 3.46437226E-02-2.95509489E-02
 1  3-3.28453029E-02 3.46437250E-02-9.43455027E-02-6.31926136E-12 1.01951445E-01
 1  4-3.39522268E-03 6.61718798E-12 1.63461933E-03 1.07231862E-03-3.61172915E-03
 1  5-2.93857555E-03 1.07231861E-03 3.61172560E-03-2.93857335E-03-1.04719636E-03
 1  6 2.26173920E-03 2.44274365E-04-1.04719051E-03-2.26174419E-03 2.44274329E-04
 2  1-1.38327919E-12 1.51139067E-01 7.22715676E-12-3.83159258E-12 5.43239357E-03
 2  2 1.31173458E-11 3.36936487E-02-6.23511148E-02-2.14482414E-02-3.36936487E-02
 2  3-6.23511160E-02 2.14482407E-02-1.14461092E-12-1.75023288E-02 1.66254309E-12
 2  4 1.37410219E-12-5.19164635E-03 7.04002620E-13 7.23510453E-03-2.60767821E-03
 2  5-1.43152355E-03-7.23510451E-03-2.60767812E-03 1.43152343E-03-1.85673571E-03
 2  6-1.95399924E-03-7.23220780E-04 1.85673573E-03-1.95399922E-03 7.23220844E-04
 3  1-1.54873257E-01 7.22715676E-12 1.59049670E-01 1.23414434E-02-1.31173458E-11
 3  2-2.31862253E-02 2.93312013E-02-1.98525123E-02-1.90237287E-02 2.93312014E-02
 3  3 1.98525119E-02-1.90237318E-02 9.79972491E-02-8.37061225E-12-1.10305609E-01
 3  4-8.36382130E-03 8.30611248E-12 6.92889633E-03-4.80541613E-03 2.66972200E-03
 3  5 1.73082626E-03-4.80541614E-03-2.66971965E-03 1.73083050E-03 2.03187485E-03
 3  6-2.27760187E-03 1.00691662E-03 2.03187567E-03 2.27760264E-03 1.00691628E-03
 4  1-4.49783771E-02-3.83159258E-12 1.23414434E-02 2.01489850E-01-1.38328536E-12
 4  2 1.54873257E-01-2.95509489E-02-3.28453029E-02-3.46437250E-02-2.95509489E-02
 4  3 3.28453017E-02-3.46437226E-02-3.39522268E-03 6.61718794E-12-1.63461933E-03
 4  4-9.43455027E-02-6.31925195E-12-1.01951445E-01 1.07231861E-03 3.61172560E-03
 4  5 2.93857335E-03 1.07231862E-03-3.61172915E-03 2.93857555E-03-1.04719051E-03
 4  6-2.26174419E-03-2.44274329E-04-1.04719636E-03 2.26173920E-03-2.44274365E-04
 5  1-3.83159258E-12 5.43239357E-03-1.31173458E-11-1.38328536E-12 1.51139067E-01
 5  2-7.22717572E-12-3.36936487E-02-6.23511160E-02-2.14482407E-02 3.36936487E-02
 5  3-6.23511148E-02 2.14482414E-02 1.37410215E-12-5.19164635E-03-7.04002661E-13
 5  4-1.14460151E-12-1.75023288E-02-1.66253060E-12-7.23510451E-03-2.60767812E-03
 5  5-1.43152343E-03 7.23510453E-03-2.60767821E-03 1.43152355E-03 1.85673573E-03
 5  6-1.95399922E-03-7.23220844E-04-1.85673571E-03-1.95399924E-03 7.23220780E-04
 6  1-1.23414434E-02 1.31173458E-11-2.31862253E-02 1.54873257E-01-7.22717572E-12
 6  2 1.59049670E-01-2.93312014E-02-1.98525119E-02-1.90237318E-02-2.93312013E-02
 6  3 1.98525123E-02-1.90237287E-02 8.36382130E-03-8.30611248E-12 6.92889633E-03
 6  4-9.79972491E-02 8.37062425E-12-1.10305609E-01 4.80541614E-03 2.66971965E-03
 6  5 1.73083050E-03 4.80541613E-03-2.66972200E-03 1.73082626E-03-2.03187567E-03
 6  6-2.27760264E-03 1.00691628E-03-2.03187485E-03 2.27760187E-03 1.00691662E-03
 7  1-2.95509489E-02 3.36936487E-02 2.93312013E-02-2.95509489E-02-3.36936487E-02
 7  2-2.93312014E-02 9.50172252E-02-1.14485852E-11 7.61745193E-12 9.82929119E-03
 7  3 1.01044124E-11-1.66861766E-12-3.99461004E-03 1.46765476E-03-3.60242199E-03
 7  4-3.99461004E-03-1.46765476E-03 3.60242199E-03-1.39298260E-02-1.20201834E-11
 7  5 8.12079403E-13-5.51896241E-03 1.31135476E-11 1.89667725E-12-1.75642856E-02
 7  6 9.58044502E-12 5.07597413E-12-7.20175142E-04-5.62166881E-12 5.76665794E-12
 8  1 3.28453017E-02-6.23511148E-02-1.98525123E-02-3.28453029E-02-6.23511160E-02
 8  2-1.98525119E-02-1.14485852E-11 3.03671069E-01 6.12879810E-03 1.01044124E-11
 8  3-9.59166484E-03-8.96593734E-03-4.81970715E-04 2.86296528E-03 2.03992552E-03
 8  4 4.81972806E-04 2.86296549E-03 2.03992551E-03 3.90809842E-12-1.37339055E-01
 8  5 7.92763581E-02-4.49012517E-12-1.97953145E-03 1.54343244E-03-2.35402285E-09
 8  6-3.77078951E-02-4.23297323E-02 2.34952208E-09 1.94569773E-03-1.88004270E-04
 9  1 3.46437226E-02-2.14482414E-02-1.90237287E-02-3.46437250E-02-2.14482407E-02
 9  2-1.90237318E-02 7.61745193E-12 6.12879810E-03 3.19054059E-01 1.66861766E-12
 9  3 8.96593734E-03-8.65260047E-04-2.04305977E-03-4.94956619E-03-3.53910749E-03
 9  4 2.04306004E-03-4.94956616E-03-3.53910823E-03-3.94294740E-12 8.48411319E-02
 9  5-8.73590560E-02 2.95507200E-12 1.46902594E-03 8.92094460E-05 1.13509600E-09
 9  6-5.06858204E-02-1.84557272E-01-1.14014279E-09 1.92893110E-03-1.24174855E-03
10  1-2.95509489E-02-3.36936487E-02 2.93312014E-02-2.95509489E-02 3.36936487E-02
10  2-2.93312013E-02 9.82929119E-03 1.01044124E-11 1.66861766E-12 9.50172252E-02
10  3-1.14485597E-11-7.61745268E-12-3.99461004E-03-1.46765476E-03-3.60242199E-03
10  4-3.99461004E-03 1.46765476E-03 3.60242199E-03-5.51896241E-03 1.31135476E-11
10  5-1.89667725E-12-1.39298260E-02-1.20201985E-11-8.12089111E-13-7.20175142E-04
10  6-5.62166882E-12-5.76665795E-12-1.75642856E-02 9.58044255E-12-5.07596894E-12
11  1-3.28453029E-02-6.23511160E-02 1.98525119E-02 3.28453017E-02-6.23511148E-02
11  2 1.98525123E-02 1.01044124E-11-9.59166484E-03 8.96593734E-03-1.14485597E-11
11  3 3.03671069E-01-6.12879810E-03 4.81972806E-04 2.86296549E-03-2.03992551E-03
11  4-4.81970715E-04 2.86296528E-03-2.03992552E-03-4.49012518E-12-1.97953145E-03
11  5-1.54343244E-03 3.90808330E-12-1.37339055E-01-7.92763581E-02 2.34952208E-09
11  6 1.94569773E-03 1.88004270E-04-2.35402285E-09-3.77078951E-02 4.23297323E-02
12  1 3.46437250E-02 2.14482407E-02-1.90237318E-02-3.46437226E-02 2.14482414E-02
12  2-1.90237287E-02-1.66861766E-12-8.96593734E-03-8.65260047E-04-7.61745268E-12
12  3-6.12879810E-03 3.19054059E-01-2.04306004E-03 4.94956616E-03-3.53910823E-03
12  4 2.04305977E-03 4.94956619E-03-3.53910749E-03-2.95507200E-12-1.46902594E-03
12  5 8.92094460E-05 3.94293701E-12-8.48411319E-02-8.73590560E-02 1.14014279E-09
12  6-1.92893110E-03-1.24174855E-03-1.13509599E-09 5.06858204E-02-1.84557272E-01
13  1-9.43455027E-02-1.14461092E-12 9.79972491E-02-3.39522268E-03 1.37410215E-12
13  2 8.36382130E-03-3.99461004E-03-4.81970715E-04-2.04305977E-03-3.99461004E-03
13  3 4.81972806E-04-2.04306004E-03 1.00208097E-01-6.27522267E-13-9.93943917E-02
13  4 2.39592716E-03-1.89949535E-13-1.99514451E-03-4.73125246E-05 3.43733576E-04
13  5-4.39789089E-05-4.73125286E-05-3.43735247E-04-4.39772159E-05 1.57077865E-03
13  6-6.72212917E-04-2.28096116E-04 1.57077633E-03 6.72213323E-04-2.28095983E-04
14  1-6.31926136E-12-1.75023288E-02-8.37061225E-12 6.61718794E-12-5.19164635E-03
14  2-8.30611248E-12 1.46765476E-03 2.86296528E-03-4.94956619E-03-1.46765476E-03
14  3 2.86296549E-03 4.94956616E-03-6.27522267E-13 1.48061681E-02-1.60790845E-12
14  4-1.89949535E-13 2.46035594E-03-6.76861426E-13-2.76719002E-04 2.10162174E-04
14  5 5.83090783E-04 2.76719003E-04 2.10162151E-04-5.83090806E-04 1.97782790E-03
14  6-2.97129939E-04-1.51727765E-04-1.97782790E-03-2.97129974E-04 1.51727775E-04
15  1 1.01951445E-01 1.66254309E-12-1.10305609E-01-1.63461933E-03-7.04002661E-13
15  2 6.92889633E-03-3.60242199E-03 2.03992552E-03-3.53910749E-03-3.60242199E-03
15  3-2.03992551E-03-3.53910823E-03-9.93943917E-02-1.60790845E-12 1.11401816E-01
15  4 1.99514451E-03 6.76861432E-13-7.01904503E-04 1.40596758E-04-3.17570637E-04
15  5 2.48297316E-04 1.40596735E-04 3.17572271E-04 2.48295116E-04 2.02480918E-03
15  6-1.02484276E-03-2.67955200E-04 2.02480933E-03 1.02484240E-03-2.67955013E-04
16  1-3.39522268E-03 1.37410219E-12-8.36382130E-03-9.43455027E-02-1.14460151E-12
16  2-9.79972491E-02-3.99461004E-03 4.81972806E-04 2.04306004E-03-3.99461004E-03
16  3-4.81970715E-04 2.04305977E-03 2.39592716E-03-1.89949535E-13 1.99514451E-03
16  4 1.00208097E-01-6.27532726E-13 9.93943917E-02-4.73125286E-05-3.43735247E-04
16  5 4.39772159E-05-4.73125246E-05 3.43733576E-04 4.39789089E-05 1.57077633E-03
16  6 6.72213323E-04 2.28095983E-04 1.57077865E-03-6.72212917E-04 2.28096116E-04
17  1 6.61718798E-12-5.19164635E-03 8.30611248E-12-6.31925195E-12-1.75023288E-02
17  2 8.37062425E-12-1.46765476E-03 2.86296549E-03-4.94956616E-03 1.46765476E-03
17  3 2.86296528E-03 4.94956619E-03-1.89949535E-13 2.46035594E-03 6.76861432E-13
17  4-6.27532726E-13 1.48061681E-02 1.60789628E-12 2.76719003E-04 2.10162151E-04
17  5 5.83090806E-04-2.76719002E-04 2.10162174E-04-5.83090783E-04-1.97782790E-03
17  6-2.97129974E-04-1.51727775E-04 1.97782790E-03-2.97129939E-04 1.51727765E-04
18  1 1.63461933E-03 7.04002620E-13 6.92889633E-03-1.01951445E-01-1.66253060E-12
18  2-1.10305609E-01 3.60242199E-03 2.03992551E-03-3.53910823E-03 3.60242199E-03
18  3-2.03992552E-03-3.53910749E-03-1.99514451E-03-6.76861426E-13-7.01904503E-04
18  4 9.93943917E-02 1.60789628E-12 1.11401816E-01-1.40596735E-04-3.17572271E-04
18  5 2.48295116E-04-1.40596758E-04 3.17570637E-04 2.48297316E-04-2.02480933E-03
18  6-1.02484240E-03-2.67955013E-04-2.02480918E-03 1.02484276E-03-2.67955200E-04
19  1 1.07231862E-03 7.23510453E-03-4.80541613E-03 1.07231861E-03-7.23510451E-03
19  2 4.80541614E-03-1.39298260E-02 3.90809842E-12-3.94294740E-12-5.51896241E-03
19  3-4.49012518E-12-2.95507200E-12-4.73125246E-05-2.76719002E-04 1.40596758E-04
19  4-4.73125286E-05 2.76719003E-04-1.40596735E-04 1.26616439E-02 7.69999663E-13
19  5 1.73971336E-12 2.25174502E-03 1.43823656E-13 1.46064389E-12 1.67087793E-03
19  6-1.26043453E-12-3.18604983E-12 1.00145557E-03 1.42999863E-12 4.55013181E-13
20  1-3.61172915E-03-2.60767821E-03 2.66972200E-03 3.61172560E-03-2.60767812E-03
20  2 2.66971965E-03-1.20201834E-11-1.37339055E-01 8.48411319E-02 1.31135476E-11
20  3-1.97953145E-03-1.46902594E-03 3.43733576E-04 2.10162174E-04-3.17570637E-04
20  4-3.43735247E-04 2.10162151E-04-3.17572271E-04 7.69999663E-13 1.40273375E-01
20  5-8.72300982E-02 1.43823656E-13-1.25384583E-03 5.55047014E-04-1.54939789E-10
20  6 5.47015578E-03-1.86751699E-03 1.45434486E-10-4.28930361E-04 4.13957090E-04