!   see the 'long' input file for more description of this PES
!
!     FINAL MCSCF E= -1159.1457579035, 2 iters, E(MP2)= -1159.4174391687
!
!   This run takes 16 seconds on 2.66 GHz Cloverton (27 Apr 2015)
!
 $contrl scftyp=mcscf runtyp=energy mplevl=2 molplt=.t. nzvar=24 $end
 $system mwords=5 $end
 $basis  gbasis=n31 ngauss=6 ndfunc=1 $end
 $zmat   izmat(1)=1,1,2,  1,1,4,  1,1,3,  1,2,4,  1,2,3,  3,3,2,1,4,
            1,1,5, 2,5,1,2, 3,5,1,2,4,
            1,6,2, 2,6,2,1, 3,6,2,1,3,
            1,3,7, 1,3,9,  2,7,3,9,  6,7,9,3,1,2,  2,7,3,1, 2,7,3,2,
            1,4,8, 1,4,10, 2,8,4,10, 6,8,10,4,1,2, 2,8,4,1, 2,8,4,2 $end
 $guess  guess=moread norb=88 $end
--- $scf    nco=30 npair=1 $end
 $mcscf  cistep=aldet focas=.true. $end
 $det    stsym=A1 ncore=26 nact=10 nels=10 $end
 $mrmp   mrpt=detmrpt $end
 $statpt opttol=1d-5 nstep=100 $end
 $force  nvib=2 $end
 $data
short bond isomer of tetrasilabicylo[1.0.0]butane
Cnv 2

SI         14.0   1.2236209517   0.0000000000   0.1958213257
SI         14.0   0.0000000000   1.7690449786  -0.7541860885
H           1.0   2.3761383251   0.0000000000   1.1217688927
H           1.0   0.0000000000   2.9931903073   0.0765846536
H           1.0   0.0000000000   2.1233005908  -2.1916880280
 $end

====== these are the RHF geometry:
SI         14.0   1.1882702570   0.0000000000   0.1939973024
SI         14.0   0.0000000000   1.7401980029  -0.7523838344
H           1.0   2.3236412895   0.0000000000   1.1382126457
H           1.0   0.0000000000   2.9745481160   0.0629720323
H           1.0   0.0000000000   2.0747742635  -2.1939148539

====== these are the TCSCF geometry:
SI         14.0   1.2095422752  -0.0000000000   0.2043654589
SI         14.0   0.0000000000   1.7252950882  -0.7570620630
H           1.0   2.4420942152  -0.0000000000   1.0207914014
H           1.0  -0.0000000000   2.9764198044   0.0330936220
H           1.0  -0.0000000000   2.0368955828  -2.2045659485

====== these are the MCSCF geometry:
SI         14.0   1.2236209517   0.0000000000   0.1958213257
SI         14.0   0.0000000000   1.7690449786  -0.7541860885
H           1.0   2.3761383251   0.0000000000   1.1217688927
H           1.0   0.0000000000   2.9931903073   0.0765846536
H           1.0   0.0000000000   2.1233005908  -2.1916880280

!   note that short B3LYP optimizes to a long bond isomer,
====== these are the B3LYP geometry:
SI         14.0   1.4341331864  -0.0000000000   0.0135362943
SI         14.0   0.0000000000   1.7449299307  -0.5957195460
H           1.0   1.5167909501  -0.0000000000   1.5175805528
H           1.0   0.0000000000   3.0028012283   0.2036192837
H           1.0   0.0000000000   2.0439132149  -2.0533399684

--- OPTIMIZED MCSCF MO-S --- GENERATED AT Mon Sep  9 09:47:31 2002
E(MCSCF)=    -1159.1457579030, E(NUC)=      317.0136087311
 $VEC   
 1  1 0.00000000E+00 0.00000000E+00 0.00000000E+00-1.45462522E-06 0.00000000E+00
 1  2 0.00000000E+00 0.00000000E+00-1.41686771E-04 0.00000000E+00 0.00000000E+00
 1  3 0.00000000E+00 3.88280000E-04 0.00000000E+00 0.00000000E+00 0.00000000E+00
 1  4 0.00000000E+00 2.79296876E-05 0.00000000E+00-1.97895689E-05 0.00000000E+00
 1  5 0.00000000E+00 0.00000000E+00-1.45462522E-06 0.00000000E+00 0.00000000E+00
 1  6 0.00000000E+00-1.41686771E-04 0.00000000E+00 0.00000000E+00 0.00000000E+00
 1  7 3.88280000E-04 0.00000000E+00 0.00000000E+00 0.00000000E+00 0.00000000E+00
 1  8-2.79296876E-05 0.00000000E+00-1.97895689E-05 7.04887308E-01 8.78481008E-03
 1  9 0.00000000E+00 8.19044000E-06 1.76310696E-06-1.20455857E-02 0.00000000E+00
 1 10-4.12410151E-05-1.49396054E-05 2.20944964E-03 0.00000000E+00 4.06547571E-04
 1 11 1.91257958E-04 4.16481694E-03 4.16144857E-03 4.15247992E-03 0.00000000E+00
 1 12 0.00000000E+00 7.07590426E-06-7.04887308E-01-8.78481008E-03 0.00000000E+00
 1 13 8.19044000E-06-1.76310696E-06 1.20455857E-02 0.00000000E+00-4.12410151E-05
 1 14 1.49396054E-05-2.20944964E-03 0.00000000E+00 4.06547571E-04-1.91257958E-04
 1 15-4.16481694E-03-4.16144857E-03-4.15247992E-03 0.00000000E+00 0.00000000E+00
 1 16 7.07590426E-06 0.00000000E+00 0.00000000E+00 0.00000000E+00 0.00000000E+00
 1 17-3.73517562E-05 5.72701396E-05 3.73517562E-05-5.72701396E-05-3.83416287E-05
 1 18 6.30525582E-05 3.83416287E-05-6.30525582E-05
 2  1-1.44579484E-04-1.33578002E-05 6.10076489E-06 0.00000000E+00 8.21873309E-07
 2  2 2.48656681E-04 5.81231077E-05 0.00000000E+00-7.45337305E-05-3.94668592E-04
 2  3 1.18918260E-04 0.00000000E+00-1.37157217E-04-7.96766142E-05-5.53947756E-05
 2  4-6.10450073E-05 0.00000000E+00 7.04733804E-06 0.00000000E+00-1.44579484E-04
 2  5-1.33578002E-05-6.10076489E-06 0.00000000E+00 8.21873309E-07 2.48656681E-04
 2  6-5.81231077E-05 0.00000000E+00-7.45337305E-05-3.94668592E-04-1.18918260E-04
 2  7 0.00000000E+00-1.37157217E-04-7.96766142E-05-5.53947756E-05-6.10450073E-05
 2  8 0.00000000E+00-7.04733804E-06 0.00000000E+00 7.04889029E-01 8.79215133E-03
 2  9 0.00000000E+00 9.98408638E-06 4.90281051E-06-1.19434892E-02 0.00000000E+00
 2 10-8.76448691E-05-3.55608058E-05 1.53333218E-03 0.00000000E+00 1.02504080E-04
 2 11 2.71545334E-04 4.16196500E-03 4.14201705E-03 4.12909207E-03 0.00000000E+00
 2 12 0.00000000E+00-1.10038378E-05 7.04889029E-01 8.79215133E-03 0.00000000E+00
 2 13-9.98408638E-06 4.90281051E-06-1.19434892E-02 0.00000000E+00 8.76448691E-05
 2 14-3.55608058E-05 1.53333218E-03 0.00000000E+00-1.02504080E-04 2.71545334E-04
 2 15 4.16196500E-03 4.14201705E-03 4.12909207E-03 0.00000000E+00 0.00000000E+00
 2 16 1.10038378E-05-1.73014126E-05 1.68759424E-04-1.73014126E-05 1.68759424E-04
 2 17-1.99734858E-05-1.93295475E-05-1.99734858E-05-1.93295475E-05-4.24633368E-05
 2 18 1.79388729E-04-4.24633368E-05 1.79388729E-04
 3  1 7.04885615E-01 8.77485598E-03 2.17364746E-06 0.00000000E+00 8.34570208E-06
 3  2-1.21641663E-02-1.18763555E-04 0.00000000E+00 3.28426631E-06 2.65284661E-03
 3  3 6.33438430E-04 0.00000000E+00-2.06717792E-04 4.15147848E-03 4.17041763E-03
 3  4 4.14869349E-03 0.00000000E+00 3.42953781E-06 0.00000000E+00-7.04885615E-01
 3  5-8.77485598E-03 2.17364746E-06 0.00000000E+00-8.34570208E-06 1.21641663E-02
 3  6-1.18763555E-04 0.00000000E+00-3.28426631E-06-2.65284661E-03 6.33438430E-04
 3  7 0.00000000E+00 2.06717792E-04-4.15147848E-03-4.17041763E-03-4.14869349E-03
 3  8 0.00000000E+00 3.42953781E-06 0.00000000E+00 0.00000000E+00 0.00000000E+00
 3  9 5.96030801E-07 0.00000000E+00 0.00000000E+00 0.00000000E+00-9.43813819E-05
 3 10 0.00000000E+00 0.00000000E+00 0.00000000E+00 2.35852417E-04 0.00000000E+00
 3 11 0.00000000E+00 0.00000000E+00 0.00000000E+00 0.00000000E+00 2.31425153E-05
 3 12-1.06908416E-06 0.00000000E+00 0.00000000E+00 0.00000000E+00 5.96030801E-07
 3 13 0.00000000E+00 0.00000000E+00 0.00000000E+00-9.43813819E-05 0.00000000E+00
 3 14 0.00000000E+00 0.00000000E+00 2.35852417E-04 0.00000000E+00 0.00000000E+00
 3 15 0.00000000E+00 0.00000000E+00 0.00000000E+00-2.31425153E-05-1.06908416E-06
 3 16 0.00000000E+00-5.95913202E-05 1.52523880E-04 5.95913202E-05-1.52523880E-04
 3 17 0.00000000E+00 0.00000000E+00 0.00000000E+00 0.00000000E+00 0.00000000E+00
 3 18 0.00000000E+00 0.00000000E+00 0.00000000E+00
 4  1 7.04889464E-01 8.76493128E-03 5.87139590E-06 0.00000000E+00 6.39861599E-06
 4  2-1.19766986E-02 4.93881358E-06 0.00000000E+00 2.05690487E-05 2.01728997E-03
 4  3 4.58304770E-04 0.00000000E+00-4.85302816E-04 4.10646174E-03 4.13138837E-03
 4  4 4.11263651E-03 0.00000000E+00 1.47975166E-05 0.00000000E+00 7.04889464E-01
 4  5 8.76493128E-03-5.87139590E-06 0.00000000E+00 6.39861599E-06-1.19766986E-02
 4  6-4.93881358E-06 0.00000000E+00 2.05690487E-05 2.01728997E-03-4.58304770E-04
 4  7 0.00000000E+00-4.85302816E-04 4.10646174E-03 4.13138837E-03 4.11263651E-03
 4  8 0.00000000E+00-1.47975166E-05 0.00000000E+00 1.55045771E-04 1.33105175E-06
 4  9 0.00000000E+00 1.09516974E-05 3.36715050E-06 2.99881078E-04 0.00000000E+00
 4 10 5.75624517E-05 5.30134666E-05-8.72976925E-04 0.00000000E+00-3.73526229E-04
 4 11 8.12012134E-05-4.90382326E-05-7.64093615E-05-6.01714147E-05 0.00000000E+00
 4 12 0.00000000E+00-3.32651443E-05 1.55045771E-04 1.33105175E-06 0.00000000E+00
 4 13-1.09516974E-05 3.36715050E-06 2.99881078E-04 0.00000000E+00-5.75624517E-05
 4 14 5.30134666E-05-8.72976925E-04 0.00000000E+00 3.73526229E-04 8.12012134E-05
 4 15-4.90382326E-05-7.64093615E-05-6.01714147E-05 0.00000000E+00 0.00000000E+00
 4 16 3.32651443E-05-6.75985062E-05 3.33958103E-04-6.75985062E-05 3.33958103E-04
 4 17-2.05140016E-06-1.31499797E-04-2.05140016E-06-1.31499797E-04-1.30376063E-05
 4 18 9.96222525E-05-1.30376063E-05 9.96222525E-05
 5  1 0.00000000E+00 0.00000000E+00 0.00000000E+00 4.79153439E-04 0.00000000E+00
 5  2 0.00000000E+00 0.00000000E+00-1.02300659E-03 0.00000000E+00 0.00000000E+00
 5  3 0.00000000E+00-1.04542896E-03 0.00000000E+00 0.00000000E+00 0.00000000E+00
 5  4 0.00000000E+00-8.22626303E-05 0.00000000E+00 8.77579523E-05 0.00000000E+00
 5  5 0.00000000E+00 0.00000000E+00 4.79153439E-04 0.00000000E+00 0.00000000E+00
 5  6 0.00000000E+00-1.02300659E-03 0.00000000E+00 0.00000000E+00 0.00000000E+00
 5  7-1.04542896E-03 0.00000000E+00 0.00000000E+00 0.00000000E+00 0.00000000E+00
 5  8 8.22626303E-05 0.00000000E+00 8.77579523E-05-1.89554940E-01 7.28299834E-01
 5  9 0.00000000E+00-3.16641779E-04-3.53109013E-04 6.39993340E-03 0.00000000E+00
 5 10 1.22464944E-03 5.67701943E-04-3.17056108E-03 0.00000000E+00-6.04904270E-04
 5 11-4.56344795E-04 1.26767492E-03 1.30666437E-03 1.20478357E-03 0.00000000E+00
 5 12 0.00000000E+00 2.06941490E-04 1.89554940E-01-7.28299834E-01 0.00000000E+00
 5 13-3.16641779E-04 3.53109013E-04-6.39993340E-03 0.00000000E+00 1.22464944E-03
 5 14-5.67701943E-04 3.17056108E-03 0.00000000E+00-6.04904270E-04 4.56344795E-04
 5 15-1.26767492E-03-1.30666437E-03-1.20478357E-03 0.00000000E+00 0.00000000E+00
 5 16 2.06941490E-04 0.00000000E+00 0.00000000E+00 0.00000000E+00 0.00000000E+00
 5 17 7.35427993E-05-2.37550918E-04-7.35427993E-05 2.37550918E-04 1.36623820E-04
 5 18-2.16430320E-04-1.36623820E-04 2.16430320E-04
 6  1-1.00035896E-04 3.00044184E-04-2.34910743E-04 0.00000000E+00 2.63027137E-04
 6  2 1.45309755E-03 3.61901289E-04 0.00000000E+00-6.19703483E-04 8.55895622E-04
 6  3-4.43755839E-04 0.00000000E+00 9.87247725E-05 6.87500611E-07-3.48418558E-05
 6  4 1.57429170E-05 0.00000000E+00 1.64412932E-05 0.00000000E+00-1.00035896E-04
 6  5 3.00044184E-04 2.34910743E-04 0.00000000E+00 2.63027137E-04 1.45309755E-03
 6  6-3.61901289E-04 0.00000000E+00-6.19703483E-04 8.55895622E-04 4.43755839E-04
 6  7 0.00000000E+00 9.87247725E-05 6.87500611E-07-3.48418558E-05 1.57429170E-05
 6  8 0.00000000E+00-1.64412932E-05 0.00000000E+00-1.89578007E-01 7.28358574E-01
 6  9 0.00000000E+00-2.93035361E-04-3.15058787E-04 5.84720327E-03 0.00000000E+00
 6 10 1.13169044E-03 4.19144047E-04-1.69965974E-03 0.00000000E+00-4.44781719E-05
 6 11-5.18631742E-04 1.19915503E-03 1.47678987E-03 1.15214150E-03 0.00000000E+00
 6 12 0.00000000E+00 1.27326797E-04-1.89578007E-01 7.28358574E-01 0.00000000E+00
 6 13 2.93035361E-04-3.15058787E-04 5.84720327E-03 0.00000000E+00-1.13169044E-03
 6 14 4.19144047E-04-1.69965974E-03 0.00000000E+00 4.44781719E-05-5.18631742E-04
 6 15 1.19915503E-03 1.47678987E-03 1.15214150E-03 0.00000000E+00 0.00000000E+00
 6 16-1.27326797E-04-3.23027033E-05-5.65552223E-04-3.23027033E-05-5.65552223E-04
 6 17 1.39076735E-04 8.94774084E-05 1.39076735E-04 8.94774084E-05 1.20408932E-04
 6 18-5.20038460E-04 1.20408932E-04-5.20038460E-04
 7  1-1.89541749E-01 7.28196568E-01-8.88190022E-04 0.00000000E+00 1.13282763E-03
 7  2 6.47484354E-03 5.68694009E-04 0.00000000E+00-7.75088989E-04-2.64107815E-03
 7  3-7.37354498E-04 0.00000000E+00-5.10646585E-05 1.45968213E-03 1.32316081E-03
 7  4 1.17466806E-03 0.00000000E+00-1.48980170E-04 0.00000000E+00 1.89541749E-01
 7  5-7.28196568E-01-8.88190022E-04 0.00000000E+00-1.13282763E-03-6.47484354E-03
 7  6 5.68694009E-04 0.00000000E+00 7.75088989E-04 2.64107815E-03-7.37354498E-04
 7  7 0.00000000E+00 5.10646585E-05-1.45968213E-03-1.32316081E-03-1.17466806E-03
 7  8 0.00000000E+00-1.48980170E-04 0.00000000E+00 0.00000000E+00 0.00000000E+00
 7  9 3.64193881E-04 0.00000000E+00 0.00000000E+00 0.00000000E+00-8.76208208E-04
 7 10 0.00000000E+00 0.00000000E+00 0.00000000E+00-6.34245786E-04 0.00000000E+00
 7 11 0.00000000E+00 0.00000000E+00 0.00000000E+00 0.00000000E+00-1.12818563E-04
 7 12-1.31912405E-05 0.00000000E+00 0.00000000E+00 0.00000000E+00 3.64193881E-04
 7 13 0.00000000E+00 0.00000000E+00 0.00000000E+00-8.76208208E-04 0.00000000E+00
 7 14 0.00000000E+00 0.00000000E+00-6.34245786E-04 0.00000000E+00 0.00000000E+00
 7 15 0.00000000E+00 0.00000000E+00 0.00000000E+00 1.12818563E-04-1.31912405E-05
 7 16 0.00000000E+00 4.19538649E-05-4.98297081E-04-4.19538649E-05 4.98297081E-04
 7 17 0.00000000E+00 0.00000000E+00 0.00000000E+00 0.00000000E+00 0.00000000E+00
 7 18 0.00000000E+00 0.00000000E+00 0.00000000E+00
 8  1-1.89436624E-01 7.27749561E-01-1.42996819E-03 0.00000000E+00 9.54036802E-04
 8  2 7.71957654E-03 1.59784797E-03 0.00000000E+00-2.35406184E-04-2.30550216E-03
 8  3-7.23155530E-04 0.00000000E+00 1.05294974E-03 1.39035513E-03 1.16827527E-03
 8  4 1.06644913E-03 0.00000000E+00-7.07777245E-05 0.00000000E+00-1.89436624E-01
 8  5 7.27749561E-01 1.42996819E-03 0.00000000E+00 9.54036802E-04 7.71957654E-03
 8  6-1.59784797E-03 0.00000000E+00-2.35406184E-04-2.30550216E-03 7.23155530E-04
 8  7 0.00000000E+00 1.05294974E-03 1.39035513E-03 1.16827527E-03 1.06644913E-03
 8  8 0.00000000E+00 7.07777245E-05 0.00000000E+00 3.47083363E-04-1.41725978E-03
 8  9 0.00000000E+00-4.65457403E-04-2.20389116E-04 9.30396364E-04 0.00000000E+00
 8 10 9.73046268E-04 4.28198468E-04 1.63565157E-03 0.00000000E+00 7.09111801E-04
 8 11-2.43592291E-04 2.42371944E-05 8.28051987E-06-3.96822786E-05 0.00000000E+00
 8 12 0.00000000E+00 1.11969357E-04 3.47083363E-04-1.41725978E-03 0.00000000E+00
 8 13 4.65457403E-04-2.20389116E-04 9.30396364E-04 0.00000000E+00-9.73046268E-04
 8 14 4.28198468E-04 1.63565157E-03 0.00000000E+00-7.09111801E-04-2.43592291E-04
 8 15 2.42371944E-05 8.28051987E-06-3.96822786E-05 0.00000000E+00 0.00000000E+00
 8 16-1.11969357E-04 1.34924820E-04-9.60421014E-04 1.34924820E-04-9.60421014E-04
 8 17-1.95252994E-04-1.14639172E-05-1.95252994E-04-1.14639172E-05-1.19656728E-04
 8 18-4.52648996E-04-1.19656728E-04-4.52648996E-04
 9  1 2.14395094E-04-9.13229686E-04 9.09692181E-03 0.00000000E+00-1.00751451E-02
 9  2 2.33720028E-03 2.98145665E-04 0.00000000E+00-5.95379178E-04 2.71876767E-04
 9  3-1.28544012E-03 0.00000000E+00 6.37648713E-04-1.19205427E-04-7.31031141E-05
 9  4-1.46552936E-04 0.00000000E+00 3.35004811E-04 0.00000000E+00 2.14395094E-04
 9  5-9.13229686E-04-9.09692181E-03 0.00000000E+00-1.00751451E-02 2.33720028E-03
 9  6-2.98145665E-04 0.00000000E+00-5.95379178E-04 2.71876767E-04 1.28544012E-03
 9  7 0.00000000E+00 6.37648713E-04-1.19205427E-04-7.31031141E-05-1.46552936E-04
 9  8 0.00000000E+00-3.35004811E-04 0.00000000E+00 1.50086375E-04-6.11675837E-04
 9  9 0.00000000E+00 6.93864329E-01-1.11826849E-01 1.29056413E-03 0.00000000E+00
 9 10 1.54706574E-02-1.43078870E-03 5.46421381E-04 0.00000000E+00-2.40978710E-03
 9 11-2.63382174E-04 4.18654125E-04 6.05221846E-04-2.15461404E-04 0.00000000E+00
 9 12 0.00000000E+00 6.96226242E-04 1.50086375E-04-6.11675837E-04 0.00000000E+00
 9 13-6.93864329E-01-1.11826849E-01 1.29056413E-03 0.00000000E+00-1.54706574E-02
 9 14-1.43078870E-03 5.46421381E-04 0.00000000E+00 2.40978710E-03-2.63382174E-04
 9 15 4.18654125E-04 6.05221846E-04-2.15461404E-04 0.00000000E+00 0.00000000E+00
 9 16-6.96226242E-04 7.66549310E-05-1.15524505E-03 7.66549310E-05-1.15524505E-03
 9 17-7.65870133E-04 9.48663825E-04-7.65870133E-04 9.48663825E-04-2.75020915E-04
 9 18-4.90339046E-04-2.75020915E-04-4.90339046E-04
10  1 0.00000000E+00 0.00000000E+00 0.00000000E+00-6.18323036E-03 0.00000000E+00
10  2 0.00000000E+00 0.00000000E+00-1.14996505E-03 0.00000000E+00 0.00000000E+00
10  3 0.00000000E+00-1.62144827E-04 0.00000000E+00 0.00000000E+00 0.00000000E+00
10  4 0.00000000E+00 6.75117639E-05 0.00000000E+00-8.93425016E-05 0.00000000E+00
10  5 0.00000000E+00 0.00000000E+00-6.18323036E-03 0.00000000E+00 0.00000000E+00
10  6 0.00000000E+00-1.14996505E-03 0.00000000E+00 0.00000000E+00 0.00000000E+00
10  7-1.62144827E-04 0.00000000E+00 0.00000000E+00 0.00000000E+00 0.00000000E+00
10  8-6.75117639E-05 0.00000000E+00-8.93425016E-05 1.86254156E-04-8.38946003E-04
10  9 0.00000000E+00 6.98993109E-01-7.38844419E-02 1.91715980E-03 0.00000000E+00
10 10 1.53424752E-02-4.85656459E-04-2.26819675E-04 0.00000000E+00-3.11597740E-03
10 11 6.10449589E-04 3.02065640E-04 1.16493249E-04-4.11465896E-04 0.00000000E+00
10 12 0.00000000E+00 8.42520265E-04-1.86254156E-04 8.38946003E-04 0.00000000E+00
10 13 6.98993109E-01 7.38844419E-02-1.91715980E-03 0.00000000E+00 1.53424752E-02
10 14 4.85656459E-04 2.26819675E-04 0.00000000E+00-3.11597740E-03-6.10449589E-04
10 15-3.02065640E-04-1.16493249E-04 4.11465896E-04 0.00000000E+00 0.00000000E+00
10 16 8.42520265E-04 0.00000000E+00 0.00000000E+00 0.00000000E+00 0.00000000E+00
10 17-8.03823019E-04-7.59397066E-05 8.03823019E-04 7.59397066E-05-2.27325778E-04
10 18-8.29330097E-05 2.27325778E-04 8.29330097E-05
11  1-1.99674369E-04 9.17460979E-04-3.94299563E-03 0.00000000E+00 5.49647193E-03
11  2-1.78447087E-03-2.50074621E-04 0.00000000E+00 9.10776064E-04-7.42329418E-04
11  3 1.96636057E-03 0.00000000E+00 3.71088845E-04-7.33335947E-05 2.90326617E-06
11  4-2.13943503E-04 0.00000000E+00-2.98162794E-05 0.00000000E+00 1.99674369E-04
11  5-9.17460979E-04-3.94299563E-03 0.00000000E+00-5.49647193E-03 1.78447087E-03
11  6-2.50074621E-04 0.00000000E+00-9.10776064E-04 7.42329418E-04 1.96636057E-03
11  7 0.00000000E+00-3.71088845E-04 7.33335947E-05-2.90326617E-06 2.13943503E-04
11  8 0.00000000E+00-2.98162794E-05 0.00000000E+00 0.00000000E+00 0.00000000E+00
11  9 7.03025260E-01 0.00000000E+00 0.00000000E+00 0.00000000E+00 1.49785190E-02
11 10 0.00000000E+00 0.00000000E+00 0.00000000E+00-3.45812094E-03 0.00000000E+00
11 11 0.00000000E+00 0.00000000E+00 0.00000000E+00 0.00000000E+00 6.19747925E-04
11 12 2.17542628E-04 0.00000000E+00 0.00000000E+00 0.00000000E+00 7.03025260E-01
11 13 0.00000000E+00 0.00000000E+00 0.00000000E+00 1.49785190E-02 0.00000000E+00
11 14 0.00000000E+00 0.00000000E+00-3.45812094E-03 0.00000000E+00 0.00000000E+00
11 15 0.00000000E+00 0.00000000E+00 0.00000000E+00-6.19747925E-04 2.17542628E-04
11 16 0.00000000E+00 2.80999006E-04 1.29239122E-03-2.80999006E-04-1.29239122E-03
11 17 0.00000000E+00 0.00000000E+00 0.00000000E+00 0.00000000E+00 0.00000000E+00
11 18 0.00000000E+00 0.00000000E+00 0.00000000E+00
12  1 0.00000000E+00 0.00000000E+00 0.00000000E+00 3.36137526E-03 0.00000000E+00
12  2 0.00000000E+00 0.00000000E+00 1.52788571E-03 0.00000000E+00 0.00000000E+00
12  3 0.00000000E+00 2.17707617E-03 0.00000000E+00 0.00000000E+00 0.00000000E+00
12  4 0.00000000E+00-1.43165286E-05 0.00000000E+00-7.53360680E-05 0.00000000E+00
12  5 0.00000000E+00 0.00000000E+00-3.36137526E-03 0.00000000E+00 0.00000000E+00
12  6 0.00000000E+00-1.52788571E-03 0.00000000E+00 0.00000000E+00 0.00000000E+00
12  7-2.17707617E-03 0.00000000E+00 0.00000000E+00 0.00000000E+00 0.00000000E+00
12  8-1.43165286E-05 0.00000000E+00 7.53360680E-05 0.00000000E+00 0.00000000E+00
12  9 7.02811408E-01 0.00000000E+00 0.00000000E+00 0.00000000E+00 1.55794062E-02
12 10 0.00000000E+00 0.00000000E+00 0.00000000E+00-3.49738338E-03 0.00000000E+00
12 11 0.00000000E+00 0.00000000E+00 0.00000000E+00 0.00000000E+00 5.24402356E-04
12 12 2.90619191E-04 0.00000000E+00 0.00000000E+00 0.00000000E+00-7.02811408E-01
12 13 0.00000000E+00 0.00000000E+00 0.00000000E+00-1.55794062E-02 0.00000000E+00
12 14 0.00000000E+00 0.00000000E+00 3.49738338E-03 0.00000000E+00 0.00000000E+00
12 15 0.00000000E+00 0.00000000E+00 0.00000000E+00 5.24402356E-04-2.90619191E-04
12 16 0.00000000E+00 0.00000000E+00 0.00000000E+00 0.00000000E+00 0.00000000E+00
12 17 0.00000000E+00 0.00000000E+00 0.00000000E+00 0.00000000E+00 0.00000000E+00
12 18 0.00000000E+00 0.00000000E+00 0.00000000E+00
13  1 0.00000000E+00 0.00000000E+00 0.00000000E+00-7.68359626E-03 0.00000000E+00
13  2 0.00000000E+00 0.00000000E+00-4.71771517E-04 0.00000000E+00 0.00000000E+00
13  3 0.00000000E+00-4.01332658E-04 0.00000000E+00 0.00000000E+00 0.00000000E+00
13  4 0.00000000E+00 1.93616529E-04 0.00000000E+00 1.28048011E-04 0.00000000E+00
13  5 0.00000000E+00 0.00000000E+00-7.68359626E-03 0.00000000E+00 0.00000000E+00
13  6 0.00000000E+00-4.71771517E-04 0.00000000E+00 0.00000000E+00 0.00000000E+00
13  7-4.01332658E-04 0.00000000E+00 0.00000000E+00 0.00000000E+00 0.00000000E+00
13  8-1.93616529E-04 0.00000000E+00 1.28048011E-04 5.61158439E-05-3.15532274E-04
13  9 0.00000000E+00 7.30569757E-02 6.99421710E-01 8.30213158E-04 0.00000000E+00
13 10 2.68014545E-03 1.41637641E-02 2.11521485E-04 0.00000000E+00-7.45306751E-05
13 11-2.96699183E-03 2.83906515E-04 5.86053969E-04-4.57398904E-04 0.00000000E+00
13 12 0.00000000E+00 1.07371634E-04-5.61158439E-05 3.15532274E-04 0.00000000E+00
13 13 7.30569757E-02-6.99421710E-01-8.30213158E-04 0.00000000E+00 2.68014545E-03
13 14-1.41637641E-02-2.11521485E-04 0.00000000E+00-7.45306751E-05 2.96699183E-03
13 15-2.83906515E-04-5.86053969E-04 4.57398904E-04 0.00000000E+00 0.00000000E+00
13 16 1.07371634E-04 0.00000000E+00 0.00000000E+00 0.00000000E+00 0.00000000E+00
13 17 1.88361660E-04-5.85861860E-04-1.88361660E-04 5.85861860E-04-7.99266478E-04
13 18 5.15823764E-04 7.99266478E-04-5.15823764E-04
14  1 1.61147609E-04-7.78392275E-04 7.88906637E-03 0.00000000E+00-2.41259332E-03
14  2 1.36614629E-03 1.52613543E-04 0.00000000E+00-6.71668579E-04 2.59493013E-04
14  3-2.25202460E-04 0.00000000E+00 1.53091279E-04-1.10365794E-04-4.22940896E-04
14  4 1.50378193E-04 0.00000000E+00-2.33159480E-05 0.00000000E+00 1.61147609E-04
14  5-7.78392275E-04-7.88906637E-03 0.00000000E+00-2.41259332E-03 1.36614629E-03
14  6-1.52613543E-04 0.00000000E+00-6.71668579E-04 2.59493013E-04 2.25202460E-04
14  7 0.00000000E+00 1.53091279E-04-1.10365794E-04-4.22940896E-04 1.50378193E-04
14  8 0.00000000E+00 2.33159480E-05 0.00000000E+00 5.16328122E-05-2.80184764E-04
14  9 0.00000000E+00 1.11011718E-01 6.94406456E-01 7.91211295E-04 0.00000000E+00
14 10 3.41767579E-03 1.39419719E-02 4.46017372E-04 0.00000000E+00-2.98005563E-04
14 11-2.76818284E-03 2.94576856E-04 6.96743277E-04-5.61824557E-04 0.00000000E+00
14 12 0.00000000E+00 8.98114246E-05 5.16328122E-05-2.80184764E-04 0.00000000E+00
14 13-1.11011718E-01 6.94406456E-01 7.91211295E-04 0.00000000E+00-3.41767579E-03
14 14 1.39419719E-02 4.46017372E-04 0.00000000E+00 2.98005563E-04-2.76818284E-03
14 15 2.94576856E-04 6.96743277E-04-5.61824557E-04 0.00000000E+00 0.00000000E+00
14 16-8.98114246E-05-1.59786789E-04-2.43176828E-05-1.59786789E-04-2.43176828E-05
14 17 2.66730820E-04-4.97392901E-04 2.66730820E-04-4.97392901E-04-8.25084812E-04
14 18 3.39795923E-04-8.25084812E-04 3.39795923E-04
15  1 8.50223688E-05-7.59561279E-04 7.00035914E-01 0.00000000E+00-5.30412063E-02
15  2 2.02112098E-03 1.64559298E-02 0.00000000E+00-9.64542917E-04 3.43282456E-03
15  3-1.43110826E-03 0.00000000E+00-4.74416709E-04 2.41236972E-05 6.11874913E-04
15  4-2.55428137E-04 0.00000000E+00 3.03911023E-04 0.00000000E+00 8.50223688E-05
15  5-7.59561279E-04-7.00035914E-01 0.00000000E+00-5.30412063E-02 2.02112098E-03
15  6-1.64559298E-02 0.00000000E+00-9.64542917E-04 3.43282456E-03 1.43110826E-03
15  7 0.00000000E+00-4.74416709E-04 2.41236972E-05 6.11874913E-04-2.55428137E-04
15  8 0.00000000E+00-3.03911023E-04 0.00000000E+00 1.39551772E-04-6.41016557E-04
15  9 0.00000000E+00-1.19921347E-02-6.97321723E-03 1.24274486E-03 0.00000000E+00
15 10-3.28936932E-05 1.54457592E-04-3.01640035E-03 0.00000000E+00-7.84179441E-04
15 11 2.69605711E-04 2.67034180E-05-5.19043101E-04-1.22690080E-04 0.00000000E+00
15 12 0.00000000E+00 5.90503576E-05 1.39551772E-04-6.41016557E-04 0.00000000E+00
15 13 1.19921347E-02-6.97321723E-03 1.24274486E-03 0.00000000E+00 3.28936932E-05
15 14 1.54457592E-04-3.01640035E-03 0.00000000E+00 7.84179441E-04 2.69605711E-04
15 15 2.67034180E-05-5.19043101E-04-1.22690080E-04 0.00000000E+00 0.00000000E+00
15 16-5.90503576E-05-8.94671084E-04 4.63071636E-04-8.94671084E-04 4.63071636E-04
15 17-2.12121679E-04-8.40698321E-05-2.12121679E-04-8.40698321E-05-1.20695517E-04
15 18 9.31707658E-04-1.20695517E-04 9.31707658E-04
16  1-1.15207469E-04 2.30582437E-04 7.03078299E-01 0.00000000E+00 1.50800635E-02
16  2-1.25992513E-04 1.56815445E-02 0.00000000E+00-8.04040040E-04 2.99015995E-03
16  3-1.51751795E-03 0.00000000E+00-1.86009054E-03 1.13168997E-03 6.47974625E-04
16  4-1.32182608E-04 0.00000000E+00 2.19567700E-04 0.00000000E+00 1.15207469E-04
16  5-2.30582437E-04 7.03078299E-01 0.00000000E+00-1.50800635E-02 1.25992513E-04
16  6 1.56815445E-02 0.00000000E+00 8.04040040E-04-2.99015995E-03-1.51751795E-03
16  7 0.00000000E+00 1.86009054E-03-1.13168997E-03-6.47974625E-04 1.32182608E-04
16  8 0.00000000E+00 2.19567700E-04 0.00000000E+00 0.00000000E+00 0.00000000E+00
16  9 4.35244534E-03 0.00000000E+00 0.00000000E+00 0.00000000E+00-2.91755688E-04
16 10 0.00000000E+00 0.00000000E+00 0.00000000E+00 6.42987499E-04 0.00000000E+00
16 11 0.00000000E+00 0.00000000E+00 0.00000000E+00 0.00000000E+00 1.81938473E-04
16 12 1.14651867E-05 0.00000000E+00 0.00000000E+00 0.00000000E+00 4.35244534E-03
16 13 0.00000000E+00 0.00000000E+00 0.00000000E+00-2.91755688E-04 0.00000000E+00
16 14 0.00000000E+00 0.00000000E+00 6.42987499E-04 0.00000000E+00 0.00000000E+00
16 15 0.00000000E+00 0.00000000E+00 0.00000000E+00-1.81938473E-04 1.14651867E-05
16 16 0.00000000E+00-7.64732828E-04 1.09108274E-03 7.64732828E-04-1.09108274E-03
16 17 0.00000000E+00 0.00000000E+00 0.00000000E+00 0.00000000E+00 0.00000000E+00
16 18 0.00000000E+00 0.00000000E+00 0.00000000E+00
17  1 1.47689028E-04-4.47349360E-04-1.44545767E-02 0.00000000E+00 7.03110316E-01
17  2-4.65241312E-05-1.07517430E-03 0.00000000E+00 1.43897309E-02-1.76850680E-03
17  3-1.27223658E-03 0.00000000E+00-3.53576412E-03-3.19152584E-04-6.73118334E-04
17  4-1.64830866E-04 0.00000000E+00-2.69861116E-05 0.00000000E+00-1.47689028E-04
17  5 4.47349360E-04-1.44545767E-02 0.00000000E+00-7.03110316E-01 4.65241312E-05
17  6-1.07517430E-03 0.00000000E+00-1.43897309E-02 1.76850680E-03-1.27223658E-03
17  7 0.00000000E+00 3.53576412E-03 3.19152584E-04 6.73118334E-04 1.64830866E-04
17  8 0.00000000E+00-2.69861116E-05 0.00000000E+00 0.00000000E+00 0.00000000E+00
17  9-6.40658647E-03 0.00000000E+00 0.00000000E+00 0.00000000E+00 2.60525738E-04
17 10 0.00000000E+00 0.00000000E+00 0.00000000E+00 7.57037547E-04 0.00000000E+00
17 11 0.00000000E+00 0.00000000E+00 0.00000000E+00 0.00000000E+00-1.17158962E-04
17 12 4.76464937E-05 0.00000000E+00 0.00000000E+00 0.00000000E+00-6.40658647E-03
17 13 0.00000000E+00 0.00000000E+00 0.00000000E+00 2.60525738E-04 0.00000000E+00
17 14 0.00000000E+00 0.00000000E+00 7.57037547E-04 0.00000000E+00 0.00000000E+00
17 15 0.00000000E+00 0.00000000E+00 0.00000000E+00 1.17158962E-04 4.76464937E-05
17 16 0.00000000E+00 6.72002885E-04-2.08119729E-04-6.72002885E-04 2.08119729E-04
17 17 0.00000000E+00 0.00000000E+00 0.00000000E+00 0.00000000E+00 0.00000000E+00
17 18 0.00000000E+00 0.00000000E+00 0.00000000E+00
18  1 2.15094391E-04-7.88565579E-04 5.29110654E-02 0.00000000E+00 7.00965615E-01
18  2 6.26061283E-04 1.75344800E-03 0.00000000E+00 1.49007918E-02-1.77065331E-06
18  3-5.85465886E-04 0.00000000E+00-2.04629174E-03 1.33933216E-04-5.33941721E-04
18  4-4.05602728E-05 0.00000000E+00-5.46803482E-05 0.00000000E+00 2.15094391E-04
18  5-7.88565579E-04-5.29110654E-02 0.00000000E+00 7.00965615E-01 6.26061283E-04
18  6-1.75344800E-03 0.00000000E+00 1.49007918E-02-1.77065331E-06 5.85465886E-04
18  7 0.00000000E+00-2.04629174E-03 1.33933216E-04-5.33941721E-04-4.05602728E-05
18  8 0.00000000E+00 5.46803482E-05 0.00000000E+00-7.37766824E-05 3.82987468E-04
18  9 0.00000000E+00 1.01905381E-02 6.14513091E-04-3.56382992E-04 0.00000000E+00
18 10 2.36938229E-04-3.77886935E-06-4.94999282E-04 0.00000000E+00-4.42334560E-05
18 11 5.20322922E-04-1.09042435E-04 2.79725150E-04-2.39823025E-05 0.00000000E+00
18 12 0.00000000E+00 8.40907238E-05-7.37766824E-05 3.82987468E-04 0.00000000E+00
18 13-1.01905381E-02 6.14513091E-04-3.56382992E-04 0.00000000E+00-2.36938229E-04
18 14-3.77886935E-06-4.94999282E-04 0.00000000E+00 4.42334560E-05 5.20322922E-04
18 15-1.09042435E-04 2.79725150E-04-2.39823025E-05 0.00000000E+00 0.00000000E+00
18 16-8.40907238E-05 3.48732178E-04-1.10557379E-03 3.48732178E-04-1.10557379E-03
18 17-6.46362357E-05 1.71799420E-04-6.46362357E-05 1.71799420E-04 2.96195994E-04
18 18 5.22898046E-04 2.96195994E-04 5.22898046E-04
19  1 0.00000000E+00 0.00000000E+00 0.00000000E+00 7.02396935E-01 0.00000000E+00
19  2 0.00000000E+00 0.00000000E+00 1.70420337E-02 0.00000000E+00 0.00000000E+00
19  3 0.00000000E+00-4.10110294E-03 0.00000000E+00 0.00000000E+00 0.00000000E+00
19  4 0.00000000E+00 5.43816265E-04 0.00000000E+00-5.85384313E-04 0.00000000E+00
19  5 0.00000000E+00 0.00000000E+00-7.02396935E-01 0.00000000E+00 0.00000000E+00
19  6 0.00000000E+00-1.70420337E-02 0.00000000E+00 0.00000000E+00 0.00000000E+00
19  7 4.10110294E-03 0.00000000E+00 0.00000000E+00 0.00000000E+00 0.00000000E+00
19  8 5.43816265E-04 0.00000000E+00 5.85384313E-04 0.00000000E+00 0.00000000E+00
19  9-5.35380821E-03 0.00000000E+00 0.00000000E+00 0.00000000E+00 2.05144026E-03
19 10 0.00000000E+00 0.00000000E+00 0.00000000E+00 2.65713095E-03 0.00000000E+00
19 11 0.00000000E+00 0.00000000E+00 0.00000000E+00 0.00000000E+00 4.81669743E-05
19 12-5.06830719E-06 0.00000000E+00 0.00000000E+00 0.00000000E+00 5.35380821E-03
19 13 0.00000000E+00 0.00000000E+00 0.00000000E+00-2.05144026E-03 0.00000000E+00
19 14 0.00000000E+00 0.00000000E+00-2.65713095E-03 0.00000000E+00 0.00000000E+00
19 15 0.00000000E+00 0.00000000E+00 0.00000000E+00 4.81669743E-05 5.06830719E-06
19 16 0.00000000E+00 0.00000000E+00 0.00000000E+00 0.00000000E+00 0.00000000E+00
19 17 0.00000000E+00 0.00000000E+00 0.00000000E+00 0.00000000E+00 0.00000000E+00
19 18 0.00000000E+00 0.00000000E+00 0.00000000E+00