!  benzene... test case from Haruyuki Nakano, January 2008
!  tests GMC-PT for the RAS-SCF solution with wavefunction analysis
!
!  FINAL E= -230.8074841505 after 34 iterations
!     E(0)= -230.807484151  before selection
!     E(0)= -230.807471668  after selection (2055 of 39235 walks)
!   E(MP2)= -231.5081064075 reference= 80.089%
!
!  This run takes 187 seconds on 2.66 GHz Cloverton (27 Apr 2015)
!  The results have not changed since 2008
!
 $CONTRL SCFTYP=MCSCF RUNTYP=ENERGY ISPHER=1 MULT=1 MPLEVL=2 $END
 $SYSTEM MWORDS=50 MEMDDI=0 $END
 $MCSCF  CISTEP=GMCCI soscf=.true. FORS=.FALSE. $END
 $MRMP   MRPT=GMCPT $END
 $GMCPT  NMOCOR=18 NMOACT=12 REFTYP=RAS MSTART(1)=19,19,25 NEXCIT=2 IWGT=1
         $END

 $GUESS  GUESS=MOREAD NORDER=0 NORB=30 $END
 $DATA
C6H6
DNH      2

C            6.        1.3970000000        0.                  0.
 S   9
  1        6665.000000         0.6920000000E-03
  2        1000.000000         0.5329000000E-02
  3        228.0000000         0.2707700000E-01
  4        64.71000000         0.1017180000    
  5        21.06000000         0.2747400000    
  6        7.495000000         0.4485640000    
  7        2.797000000         0.2850740000    
  8       0.5215000000         0.1520400000E-01
  9       0.1596000000        -0.3191000000E-02
 S   9
  1        6665.000000        -0.1460000000E-03
  2        1000.000000        -0.1154000000E-02
  3        228.0000000        -0.5725000000E-02
  4        64.71000000        -0.2331200000E-01
  5        21.06000000        -0.6395500000E-01
  6        7.495000000        -0.1499810000    
  7        2.797000000        -0.1272620000    
  8       0.5215000000         0.5445290000    
  9       0.1596000000         0.5804960000    
 S   1
  1       0.1596000000          1.000000000    
 P   4
  1        9.439000000         0.3810900000E-01
  2        2.002000000         0.2094800000    
  3       0.5456000000         0.5085570000    
  4       0.1517000000         0.4688420000    
 P   1
  1       0.1517000000          1.000000000    
 D   1
  1       0.5500000000          1.000000000    

C            6.        0.6985000000        1.209837            0.
 S   9
  1        6665.000000         0.6920000000E-03
  2        1000.000000         0.5329000000E-02
  3        228.0000000         0.2707700000E-01
  4        64.71000000         0.1017180000    
  5        21.06000000         0.2747400000    
  6        7.495000000         0.4485640000    
  7        2.797000000         0.2850740000    
  8       0.5215000000         0.1520400000E-01
  9       0.1596000000        -0.3191000000E-02
 S   9
  1        6665.000000        -0.1460000000E-03
  2        1000.000000        -0.1154000000E-02
  3        228.0000000        -0.5725000000E-02
  4        64.71000000        -0.2331200000E-01
  5        21.06000000        -0.6395500000E-01
  6        7.495000000        -0.1499810000    
  7        2.797000000        -0.1272620000    
  8       0.5215000000         0.5445290000    
  9       0.1596000000         0.5804960000    
 S   1
  1       0.1596000000          1.000000000    
 P   4
  1        9.439000000         0.3810900000E-01
  2        2.002000000         0.2094800000    
  3       0.5456000000         0.5085570000    
  4       0.1517000000         0.4688420000    
 P   1
  1       0.1517000000          1.000000000    
 D   1
  1       0.5500000000          1.000000000    

H            1.        2.4810000000         .0000000000         .0000000000
 S   4
  1        13.01000000         0.1968500000E-01
  2        1.962000000         0.1379770000    
  3       0.4446000000         0.4781480000    
  4       0.1220000000         0.5012400000    
 S   1
  1       0.1220000000          1.000000000    
 P   1
  1       0.7270000000          1.000000000    

H            1.        1.2405000000        2.1486090000        0.0000000000
 S   4
  1        13.01000000         0.1968500000E-01
  2        1.962000000         0.1379770000    
  3       0.4446000000         0.4781480000    
  4       0.1220000000         0.5012400000    
 S   1
  1       0.1220000000          1.000000000    
 P   1
  1       0.7270000000          1.000000000    

 $END
--- OPTIMIZED MCSCF MO-S --- GENERATED AT Tue Oct 16 02:35:44 2007
C6H6                                                                            
E(MCSCF)=     -230.8074840848, E(NUC)=      203.2243748100
 $VEC   
 1  1 2.58444470E-01 1.56197806E-03-3.08719272E-04-1.21345778E-04 0.00000000E+00
 1  2 0.00000000E+00 6.59977410E-04 0.00000000E+00 0.00000000E+00 3.65843842E-05
 1  3-1.01267876E-04 6.46834921E-05 0.00000000E+00 0.00000000E+00 0.00000000E+00
 1  4 2.58444470E-01 1.56197806E-03-3.08719272E-04 1.21345778E-04 0.00000000E+00
 1  5 0.00000000E+00-6.59977410E-04 0.00000000E+00 0.00000000E+00 3.65843842E-05
 1  6-1.01267876E-04 6.46834921E-05 0.00000000E+00 0.00000000E+00 0.00000000E+00
 1  7 4.65878801E-01 3.57993563E-03-3.20617066E-03-8.68867699E-05-1.16272585E-04
 1  8 0.00000000E+00 1.87370020E-04 1.15317822E-05 0.00000000E+00-1.00144674E-05
 1  9 1.23420278E-04-1.13405810E-04 7.21143648E-05 0.00000000E+00 0.00000000E+00
 1 10 4.65878801E-01 3.57993563E-03-3.20617066E-03 8.68867699E-05-1.16272585E-04
 1 11 0.00000000E+00-1.87370020E-04 1.15317822E-05 0.00000000E+00-1.00144674E-05
 1 12 1.23420278E-04-1.13405810E-04-7.21143648E-05 0.00000000E+00 0.00000000E+00
 1 13 4.65878801E-01 3.57993563E-03-3.20617066E-03-8.68867699E-05 1.16272585E-04
 1 14 0.00000000E+00 1.87370020E-04-1.15317822E-05 0.00000000E+00-1.00144674E-05
 1 15 1.23420278E-04-1.13405810E-04-7.21143648E-05 0.00000000E+00 0.00000000E+00
 1 16 4.65878801E-01 3.57993563E-03-3.20617066E-03 8.68867699E-05 1.16272585E-04
 1 17 0.00000000E+00-1.87370020E-04-1.15317822E-05 0.00000000E+00-1.00144674E-05
 1 18 1.23420278E-04-1.13405810E-04 7.21143648E-05 0.00000000E+00 0.00000000E+00
 1 19-9.39117285E-05 6.68825344E-04-4.22680295E-05 0.00000000E+00 0.00000000E+00
 1 20-9.39117285E-05 6.68825344E-04 4.22680295E-05 0.00000000E+00 0.00000000E+00
 1 21-3.16712317E-04 8.69897077E-04-9.55639845E-05-1.59918681E-04 0.00000000E+00
 1 22-3.16712317E-04 8.69897077E-04 9.55639845E-05-1.59918681E-04 0.00000000E+00
 1 23-3.16712317E-04 8.69897077E-04-9.55639845E-05 1.59918681E-04 0.00000000E+00
 1 24-3.16712317E-04 8.69897077E-04 9.55639845E-05 1.59918681E-04 0.00000000E+00
 2  1 0.00000000E+00 0.00000000E+00 0.00000000E+00 0.00000000E+00 7.64125831E-05
 2  2 0.00000000E+00 0.00000000E+00-1.56897555E-03 0.00000000E+00 0.00000000E+00
 2  3 0.00000000E+00 0.00000000E+00 2.83835640E-05 0.00000000E+00 0.00000000E+00
 2  4 0.00000000E+00 0.00000000E+00 0.00000000E+00 0.00000000E+00 7.64125831E-05
 2  5 0.00000000E+00 0.00000000E+00-1.56897555E-03 0.00000000E+00 0.00000000E+00
 2  6 0.00000000E+00 0.00000000E+00-2.83835640E-05 0.00000000E+00 0.00000000E+00
 2  7 5.00694138E-01 4.45436554E-03-5.04844118E-03-6.11532028E-05-3.41906839E-05
 2  8 0.00000000E+00 5.19959605E-04-6.64545427E-04 0.00000000E+00-1.51110716E-05
 2  9 6.71807309E-05-5.20696592E-05 5.34337192E-05 0.00000000E+00 0.00000000E+00
 2 10 5.00694138E-01 4.45436554E-03-5.04844118E-03 6.11532028E-05-3.41906839E-05
 2 11 0.00000000E+00-5.19959605E-04-6.64545427E-04 0.00000000E+00-1.51110716E-05
 2 12 6.71807309E-05-5.20696592E-05-5.34337192E-05 0.00000000E+00 0.00000000E+00
 2 13-5.00694138E-01-4.45436554E-03 5.04844118E-03 6.11532028E-05-3.41906839E-05
 2 14 0.00000000E+00-5.19959605E-04-6.64545427E-04 0.00000000E+00 1.51110716E-05
 2 15-6.71807309E-05 5.20696592E-05 5.34337192E-05 0.00000000E+00 0.00000000E+00
 2 16-5.00694138E-01-4.45436554E-03 5.04844118E-03-6.11532028E-05-3.41906839E-05
 2 17 0.00000000E+00 5.19959605E-04-6.64545427E-04 0.00000000E+00 1.51110716E-05
 2 18-6.71807309E-05 5.20696592E-05-5.34337192E-05 0.00000000E+00 0.00000000E+00
 2 19 0.00000000E+00 0.00000000E+00 0.00000000E+00 1.20153631E-05 0.00000000E+00
 2 20 0.00000000E+00 0.00000000E+00 0.00000000E+00 1.20153631E-05 0.00000000E+00
 2 21-2.60073569E-04 6.62053309E-04-1.12956721E-04-1.83724832E-04 0.00000000E+00
 2 22-2.60073569E-04 6.62053309E-04 1.12956721E-04-1.83724832E-04 0.00000000E+00
 2 23 2.60073569E-04-6.62053309E-04 1.12956721E-04-1.83724832E-04 0.00000000E+00
 2 24 2.60073569E-04-6.62053309E-04-1.12956721E-04-1.83724832E-04 0.00000000E+00
 3  1 4.07546631E-01 3.37550439E-03-2.45534801E-03-5.93253753E-05 0.00000000E+00
 3  2 0.00000000E+00 5.77291701E-04 0.00000000E+00 0.00000000E+00-2.65667844E-05
 3  3-1.02446950E-04 1.29013734E-04 0.00000000E+00 0.00000000E+00 0.00000000E+00
 3  4-4.07546631E-01-3.37550439E-03 2.45534801E-03-5.93253753E-05 0.00000000E+00
 3  5 0.00000000E+00 5.77291701E-04 0.00000000E+00 0.00000000E+00 2.65667844E-05
 3  6 1.02446950E-04-1.29013734E-04 0.00000000E+00 0.00000000E+00 0.00000000E+00
 3  7 4.09510187E-01 3.90225218E-03-5.78853098E-03 3.99798886E-05-6.38910197E-05
 3  8 0.00000000E+00-1.65668250E-03-3.05863161E-04 0.00000000E+00 9.51821234E-05
 3  9 1.18330639E-04-2.13512763E-04 7.28539394E-05 0.00000000E+00 0.00000000E+00
 3 10-4.09510187E-01-3.90225218E-03 5.78853098E-03 3.99798886E-05 6.38910197E-05
 3 11 0.00000000E+00-1.65668250E-03 3.05863161E-04 0.00000000E+00-9.51821234E-05
 3 12-1.18330639E-04 2.13512763E-04 7.28539394E-05 0.00000000E+00 0.00000000E+00
 3 13 4.09510187E-01 3.90225218E-03-5.78853098E-03 3.99798886E-05 6.38910197E-05
 3 14 0.00000000E+00-1.65668250E-03 3.05863161E-04 0.00000000E+00 9.51821234E-05
 3 15 1.18330639E-04-2.13512763E-04-7.28539394E-05 0.00000000E+00 0.00000000E+00
 3 16-4.09510187E-01-3.90225218E-03 5.78853098E-03 3.99798886E-05-6.38910197E-05
 3 17 0.00000000E+00-1.65668250E-03-3.05863161E-04 0.00000000E+00-9.51821234E-05
 3 18-1.18330639E-04 2.13512763E-04-7.28539394E-05 0.00000000E+00 0.00000000E+00
 3 19-6.51565647E-05 6.74860969E-04-1.21570675E-04 0.00000000E+00 0.00000000E+00
 3 20 6.51565647E-05-6.74860969E-04-1.21570675E-04 0.00000000E+00 0.00000000E+00
 3 21-3.58303752E-04 4.05407092E-04-1.06385726E-04-2.04217881E-04 0.00000000E+00
 3 22 3.58303752E-04-4.05407092E-04-1.06385726E-04 2.04217881E-04 0.00000000E+00
 3 23-3.58303752E-04 4.05407092E-04-1.06385726E-04 2.04217881E-04 0.00000000E+00
 3 24 3.58303752E-04-4.05407092E-04-1.06385726E-04-2.04217881E-04 0.00000000E+00
 4  1 0.00000000E+00 0.00000000E+00 0.00000000E+00 0.00000000E+00 9.77960372E-05
 4  2 0.00000000E+00 0.00000000E+00-7.62247591E-04 0.00000000E+00 0.00000000E+00
 4  3 0.00000000E+00 0.00000000E+00 1.48146682E-04 0.00000000E+00 0.00000000E+00
 4  4 0.00000000E+00 0.00000000E+00 0.00000000E+00 0.00000000E+00-9.77960372E-05
 4  5 0.00000000E+00 0.00000000E+00 7.62247591E-04 0.00000000E+00 0.00000000E+00
 4  6 0.00000000E+00 0.00000000E+00 1.48146682E-04 0.00000000E+00 0.00000000E+00
 4  7 5.00941508E-01 4.88277103E-03-6.98591035E-03 2.13965666E-05-6.96600727E-05
 4  8 0.00000000E+00-9.98762138E-04-9.62194427E-04 0.00000000E+00 2.51378858E-04
 4  9 1.79604341E-04-4.30983199E-04 7.94593831E-05 0.00000000E+00 0.00000000E+00
 4 10-5.00941508E-01-4.88277103E-03 6.98591035E-03 2.13965666E-05 6.96600727E-05
 4 11 0.00000000E+00-9.98762138E-04 9.62194427E-04 0.00000000E+00-2.51378858E-04
 4 12-1.79604341E-04 4.30983199E-04 7.94593831E-05 0.00000000E+00 0.00000000E+00
 4 13-5.00941508E-01-4.88277103E-03 6.98591035E-03-2.13965666E-05-6.96600727E-05
 4 14 0.00000000E+00 9.98762138E-04-9.62194427E-04 0.00000000E+00-2.51378858E-04
 4 15-1.79604341E-04 4.30983199E-04 7.94593831E-05 0.00000000E+00 0.00000000E+00
 4 16 5.00941508E-01 4.88277103E-03-6.98591035E-03-2.13965666E-05 6.96600727E-05
 4 17 0.00000000E+00 9.98762138E-04 9.62194427E-04 0.00000000E+00 2.51378858E-04
 4 18 1.79604341E-04-4.30983199E-04 7.94593831E-05 0.00000000E+00 0.00000000E+00
 4 19 0.00000000E+00 0.00000000E+00 0.00000000E+00 1.29333960E-05 0.00000000E+00
 4 20 0.00000000E+00 0.00000000E+00 0.00000000E+00-1.29333960E-05 0.00000000E+00
 4 21-5.34484679E-04 4.87508761E-04-1.67875999E-04-3.04278361E-04 0.00000000E+00
 4 22 5.34484679E-04-4.87508761E-04-1.67875999E-04 3.04278361E-04 0.00000000E+00
 4 23 5.34484679E-04-4.87508761E-04 1.67875999E-04-3.04278361E-04 0.00000000E+00
 4 24-5.34484679E-04 4.87508761E-04 1.67875999E-04 3.04278361E-04 0.00000000E+00
 5  1 6.59347142E-01 6.20259225E-03-8.40163883E-03-8.60147400E-05 0.00000000E+00
 5  2 0.00000000E+00-1.43161257E-03 0.00000000E+00 0.00000000E+00 3.13902028E-04
 5  3 1.79878927E-04-4.93780955E-04 0.00000000E+00 0.00000000E+00 0.00000000E+00
 5  4 6.59347142E-01 6.20259225E-03-8.40163883E-03 8.60147400E-05 0.00000000E+00
 5  5 0.00000000E+00 1.43161257E-03 0.00000000E+00 0.00000000E+00 3.13902028E-04
 5  6 1.79878927E-04-4.93780955E-04 0.00000000E+00 0.00000000E+00 0.00000000E+00
 5  7-1.83150374E-01-2.02309069E-03 3.37043011E-03 6.77151859E-05-4.61890255E-05
 5  8 0.00000000E+00-1.44594874E-04 1.03244477E-03 0.00000000E+00-1.78996460E-05
 5  9-2.10116801E-04 2.28016447E-04 5.95153762E-05 0.00000000E+00 0.00000000E+00
 5 10-1.83150374E-01-2.02309069E-03 3.37043011E-03-6.77151859E-05-4.61890255E-05
 5 11 0.00000000E+00 1.44594874E-04 1.03244477E-03 0.00000000E+00-1.78996460E-05
 5 12-2.10116801E-04 2.28016447E-04-5.95153762E-05 0.00000000E+00 0.00000000E+00
 5 13-1.83150374E-01-2.02309069E-03 3.37043011E-03 6.77151859E-05 4.61890255E-05
 5 14 0.00000000E+00-1.44594874E-04-1.03244477E-03 0.00000000E+00-1.78996460E-05
 5 15-2.10116801E-04 2.28016447E-04-5.95153762E-05 0.00000000E+00 0.00000000E+00
 5 16-1.83150374E-01-2.02309069E-03 3.37043011E-03-6.77151859E-05 4.61890255E-05
 5 17 0.00000000E+00 1.44594874E-04-1.03244477E-03 0.00000000E+00-1.78996460E-05
 5 18-2.10116801E-04 2.28016447E-04 5.95153762E-05 0.00000000E+00 0.00000000E+00
 5 19-6.58926765E-04 7.42559153E-04-4.23205435E-04 0.00000000E+00 0.00000000E+00
 5 20-6.58926765E-04 7.42559153E-04 4.23205435E-04 0.00000000E+00 0.00000000E+00
 5 21 2.40181146E-04-7.47660297E-05 9.00723318E-05 1.33520050E-04 0.00000000E+00
 5 22 2.40181146E-04-7.47660297E-05-9.00723318E-05 1.33520050E-04 0.00000000E+00
 5 23 2.40181146E-04-7.47660297E-05 9.00723318E-05-1.33520050E-04 0.00000000E+00
 5 24 2.40181146E-04-7.47660297E-05-9.00723318E-05-1.33520050E-04 0.00000000E+00
 6  1 5.79307630E-01 5.89168028E-03-1.05201288E-02-2.82461547E-05 0.00000000E+00
 6  2 0.00000000E+00-2.72005327E-03 0.00000000E+00 0.00000000E+00 3.69159614E-04
 6  3 1.68933781E-04-5.38093396E-04 0.00000000E+00 0.00000000E+00 0.00000000E+00
 6  4-5.79307630E-01-5.89168028E-03 1.05201288E-02-2.82461547E-05 0.00000000E+00
 6  5 0.00000000E+00-2.72005327E-03 0.00000000E+00 0.00000000E+00-3.69159614E-04
 6  6-1.68933781E-04 5.38093396E-04 0.00000000E+00 0.00000000E+00 0.00000000E+00
 6  7-2.88609402E-01-3.29469360E-03 7.58060173E-03 1.61509072E-05-1.33954460E-05
 6  8 0.00000000E+00 8.72711096E-04 2.42104890E-03 0.00000000E+00-2.16341601E-04
 6  9-2.93940585E-04 5.10282186E-04-6.03740455E-05 0.00000000E+00 0.00000000E+00
 6 10 2.88609402E-01 3.29469360E-03-7.58060173E-03 1.61509072E-05 1.33954460E-05
 6 11 0.00000000E+00 8.72711096E-04-2.42104890E-03 0.00000000E+00 2.16341601E-04
 6 12 2.93940585E-04-5.10282186E-04-6.03740455E-05 0.00000000E+00 0.00000000E+00
 6 13-2.88609402E-01-3.29469360E-03 7.58060173E-03 1.61509072E-05 1.33954460E-05
 6 14 0.00000000E+00 8.72711096E-04-2.42104890E-03 0.00000000E+00-2.16341601E-04
 6 15-2.93940585E-04 5.10282186E-04 6.03740455E-05 0.00000000E+00 0.00000000E+00
 6 16 2.88609402E-01 3.29469360E-03-7.58060173E-03 1.61509072E-05-1.33954460E-05
 6 17 0.00000000E+00 8.72711096E-04 2.42104890E-03 0.00000000E+00 2.16341601E-04
 6 18 2.93940585E-04-5.10282186E-04 6.03740455E-05 0.00000000E+00 0.00000000E+00
 6 19-7.09673229E-04 3.81581487E-04-3.99912289E-04 0.00000000E+00 0.00000000E+00
 6 20 7.09673229E-04-3.81581487E-04-3.99912289E-04 0.00000000E+00 0.00000000E+00
 6 21 5.58882973E-04 2.09891988E-06 1.40656133E-04 2.36352309E-04 0.00000000E+00
 6 22-5.58882973E-04-2.09891988E-06 1.40656133E-04-2.36352309E-04 0.00000000E+00
 6 23 5.58882973E-04 2.09891988E-06 1.40656133E-04-2.36352309E-04 0.00000000E+00
 6 24-5.58882973E-04-2.09891988E-06 1.40656133E-04 2.36352309E-04 0.00000000E+00
 7  1-1.19767148E-02 3.59746688E-01-1.08871629E-01 9.64566504E-02 0.00000000E+00
 7  2 0.00000000E+00-3.29392887E-02 0.00000000E+00 0.00000000E+00-2.67638330E-04
 7  3 9.34134694E-03-9.07370861E-03 0.00000000E+00 0.00000000E+00 0.00000000E+00
 7  4-1.19767148E-02 3.59746688E-01-1.08871629E-01-9.64566504E-02 0.00000000E+00
 7  5 0.00000000E+00 3.29392887E-02 0.00000000E+00 0.00000000E+00-2.67638330E-04
 7  6 9.34134694E-03-9.07370861E-03 0.00000000E+00 0.00000000E+00 0.00000000E+00
 7  7-1.19428828E-02 3.60535189E-01-1.09096934E-01 4.84136401E-02 8.34621676E-02
 7  8 0.00000000E+00-1.65094619E-02-2.84757468E-02 0.00000000E+00 6.96801084E-03
 7  9 2.12652251E-03-9.09453335E-03-4.80951382E-03 0.00000000E+00 0.00000000E+00
 7 10-1.19428828E-02 3.60535189E-01-1.09096934E-01-4.84136401E-02 8.34621676E-02
 7 11 0.00000000E+00 1.65094619E-02-2.84757468E-02 0.00000000E+00 6.96801084E-03
 7 12 2.12652251E-03-9.09453335E-03 4.80951382E-03 0.00000000E+00 0.00000000E+00
 7 13-1.19428828E-02 3.60535189E-01-1.09096934E-01 4.84136401E-02-8.34621676E-02
 7 14 0.00000000E+00-1.65094619E-02 2.84757468E-02 0.00000000E+00 6.96801084E-03
 7 15 2.12652251E-03-9.09453335E-03 4.80951382E-03 0.00000000E+00 0.00000000E+00
 7 16-1.19428828E-02 3.60535189E-01-1.09096934E-01-4.84136401E-02-8.34621676E-02
 7 17 0.00000000E+00 1.65094619E-02 2.84757468E-02 0.00000000E+00 6.96801084E-03
 7 18 2.12652251E-03-9.09453335E-03-4.80951382E-03 0.00000000E+00 0.00000000E+00
 7 19 8.06114885E-02-3.94928027E-02 8.32933239E-03 0.00000000E+00 0.00000000E+00
 7 20 8.06114885E-02-3.94928027E-02-8.32933239E-03 0.00000000E+00 0.00000000E+00
 7 21 8.08842687E-02-3.96243019E-02 4.17992899E-03 7.23253785E-03 0.00000000E+00
 7 22 8.08842687E-02-3.96243019E-02-4.17992899E-03 7.23253785E-03 0.00000000E+00
 7 23 8.08842687E-02-3.96243019E-02 4.17992899E-03-7.23253785E-03 0.00000000E+00
 7 24 8.08842687E-02-3.96243019E-02-4.17992899E-03-7.23253785E-03 0.00000000E+00
 8  1 0.00000000E+00 0.00000000E+00 0.00000000E+00 0.00000000E+00-1.72905104E-01
 8  2 0.00000000E+00 0.00000000E+00 3.75782259E-02 0.00000000E+00 0.00000000E+00
 8  3 0.00000000E+00 0.00000000E+00-1.89329440E-02 0.00000000E+00 0.00000000E+00
 8  4 0.00000000E+00 0.00000000E+00 0.00000000E+00 0.00000000E+00-1.72905104E-01
 8  5 0.00000000E+00 0.00000000E+00 3.75782259E-02 0.00000000E+00 0.00000000E+00
 8  6 0.00000000E+00 0.00000000E+00 1.89329440E-02 0.00000000E+00 0.00000000E+00
 8  7-1.55671413E-02 4.29438638E-01-1.20246139E-01 9.55162601E-02-8.22949826E-03
 8  8 0.00000000E+00-1.64196988E-02 9.32981207E-03 0.00000000E+00 1.50936714E-02
 8  9-6.46687869E-03-8.62679272E-03-2.59767577E-03 0.00000000E+00 0.00000000E+00
 8 10-1.55671413E-02 4.29438638E-01-1.20246139E-01-9.55162601E-02-8.22949826E-03
 8 11 0.00000000E+00 1.64196988E-02 9.32981207E-03 0.00000000E+00 1.50936714E-02
 8 12-6.46687869E-03-8.62679272E-03 2.59767577E-03 0.00000000E+00 0.00000000E+00
 8 13 1.55671413E-02-4.29438638E-01 1.20246139E-01-9.55162601E-02-8.22949826E-03
 8 14 0.00000000E+00 1.64196988E-02 9.32981207E-03 0.00000000E+00-1.50936714E-02
 8 15 6.46687869E-03 8.62679272E-03-2.59767577E-03 0.00000000E+00 0.00000000E+00
 8 16 1.55671413E-02-4.29438638E-01 1.20246139E-01 9.55162601E-02-8.22949826E-03
 8 17 0.00000000E+00-1.64196988E-02 9.32981207E-03 0.00000000E+00-1.50936714E-02
 8 18 6.46687869E-03 8.62679272E-03 2.59767577E-03 0.00000000E+00 0.00000000E+00
 8 19 0.00000000E+00 0.00000000E+00 0.00000000E+00-3.00592058E-03 0.00000000E+00
 8 20 0.00000000E+00 0.00000000E+00 0.00000000E+00-3.00592058E-03 0.00000000E+00
 8 21 1.56570671E-01-6.68023152E-02 8.00223121E-03 1.08449212E-02 0.00000000E+00
 8 22 1.56570671E-01-6.68023152E-02-8.00223121E-03 1.08449212E-02 0.00000000E+00
 8 23-1.56570671E-01 6.68023152E-02-8.00223121E-03 1.08449212E-02 0.00000000E+00
 8 24-1.56570671E-01 6.68023152E-02 8.00223121E-03 1.08449212E-02 0.00000000E+00
 9  1-1.80485788E-02 4.95314225E-01-1.38711192E-01 4.70042259E-02 0.00000000E+00
 9  2 0.00000000E+00-1.99833536E-04 0.00000000E+00 0.00000000E+00-3.50005404E-03
 9  3 1.34456232E-02-9.94556919E-03 0.00000000E+00 0.00000000E+00 0.00000000E+00
 9  4 1.80485788E-02-4.95314225E-01 1.38711192E-01 4.70042259E-02 0.00000000E+00
 9  5 0.00000000E+00-1.99833536E-04 0.00000000E+00 0.00000000E+00 3.50005404E-03
 9  6-1.34456232E-02 9.94556919E-03 0.00000000E+00 0.00000000E+00 0.00000000E+00
 9  7-8.99858623E-03 2.48080769E-01-6.92567128E-02-1.18287096E-01 9.53202471E-02
 9  8 0.00000000E+00 2.82928266E-02-1.62799409E-02 0.00000000E+00-7.70672340E-03
 9  9 1.26880739E-02-4.98135053E-03-1.24228785E-02 0.00000000E+00 0.00000000E+00
 9 10 8.99858623E-03-2.48080769E-01 6.92567128E-02-1.18287096E-01-9.53202471E-02
 9 11 0.00000000E+00 2.82928266E-02 1.62799409E-02 0.00000000E+00 7.70672340E-03
 9 12-1.26880739E-02 4.98135053E-03-1.24228785E-02 0.00000000E+00 0.00000000E+00
 9 13-8.99858623E-03 2.48080769E-01-6.92567128E-02-1.18287096E-01-9.53202471E-02
 9 14 0.00000000E+00 2.82928266E-02 1.62799409E-02 0.00000000E+00-7.70672340E-03
 9 15 1.26880739E-02-4.98135053E-03 1.24228785E-02 0.00000000E+00 0.00000000E+00
 9 16 8.99858623E-03-2.48080769E-01 6.92567128E-02-1.18287096E-01 9.53202471E-02
 9 17 0.00000000E+00 2.82928266E-02-1.62799409E-02 0.00000000E+00 7.70672340E-03
 9 18-1.26880739E-02 4.98135053E-03 1.24228785E-02 0.00000000E+00 0.00000000E+00
 9 19 1.80591318E-01-7.70079649E-02 1.54489824E-02 0.00000000E+00 0.00000000E+00
 9 20-1.80591318E-01 7.70079649E-02 1.54489824E-02 0.00000000E+00 0.00000000E+00
 9 21 9.05316750E-02-3.85842857E-02 1.61164484E-03 8.00273882E-03 0.00000000E+00
 9 22-9.05316750E-02 3.85842857E-02 1.61164484E-03-8.00273882E-03 0.00000000E+00
 9 23 9.05316750E-02-3.85842857E-02 1.61164484E-03-8.00273882E-03 0.00000000E+00
 9 24-9.05316750E-02 3.85842857E-02 1.61164484E-03 8.00273882E-03 0.00000000E+00
10  1 0.00000000E+00 0.00000000E+00 0.00000000E+00 0.00000000E+00-3.05051552E-01
10  2 0.00000000E+00 0.00000000E+00 8.24724460E-02 0.00000000E+00 0.00000000E+00
10  3 0.00000000E+00 0.00000000E+00-1.52181479E-02 0.00000000E+00 0.00000000E+00
10  4 0.00000000E+00 0.00000000E+00 0.00000000E+00 0.00000000E+00 3.05051552E-01
10  5 0.00000000E+00 0.00000000E+00-8.24724460E-02 0.00000000E+00 0.00000000E+00
10  6 0.00000000E+00 0.00000000E+00-1.52181479E-02 0.00000000E+00 0.00000000E+00
10  7-9.37291902E-03 3.46662668E-01-5.71174184E-02-1.70983755E-01 9.23151384E-03
10  8 0.00000000E+00 5.70246855E-02 1.61667408E-02 0.00000000E+00-3.21642426E-03
10  9 6.45549741E-03-3.23907314E-03-5.55420209E-03 0.00000000E+00 0.00000000E+00
10 10 9.37291902E-03-3.46662668E-01 5.71174184E-02-1.70983755E-01-9.23151384E-03
10 11 0.00000000E+00 5.70246855E-02-1.61667408E-02 0.00000000E+00 3.21642426E-03
10 12-6.45549741E-03 3.23907314E-03-5.55420209E-03 0.00000000E+00 0.00000000E+00
10 13 9.37291902E-03-3.46662668E-01 5.71174184E-02 1.70983755E-01 9.23151384E-03
10 14 0.00000000E+00-5.70246855E-02 1.61667408E-02 0.00000000E+00 3.21642426E-03
10 15-6.45549741E-03 3.23907314E-03-5.55420209E-03 0.00000000E+00 0.00000000E+00
10 16-9.37291902E-03 3.46662668E-01-5.71174184E-02 1.70983755E-01-9.23151384E-03
10 17 0.00000000E+00-5.70246855E-02-1.61667408E-02 0.00000000E+00-3.21642426E-03
10 18 6.45549741E-03-3.23907314E-03-5.55420209E-03 0.00000000E+00 0.00000000E+00
10 19 0.00000000E+00 0.00000000E+00 0.00000000E+00-3.76772519E-03 0.00000000E+00
10 20 0.00000000E+00 0.00000000E+00 0.00000000E+00 3.76772519E-03 0.00000000E+00
10 21 2.31537535E-01-8.58705762E-02 6.07197163E-03 1.42857290E-02 0.00000000E+00
10 22-2.31537535E-01 8.58705762E-02 6.07197163E-03-1.42857290E-02 0.00000000E+00
10 23-2.31537535E-01 8.58705762E-02-6.07197163E-03 1.42857290E-02 0.00000000E+00
10 24 2.31537535E-01-8.58705762E-02-6.07197163E-03-1.42857290E-02 0.00000000E+00
11  1-1.08919547E-02 4.00087303E-01-6.60815750E-02-8.85241543E-02 0.00000000E+00
11  2 0.00000000E+00 4.88517983E-02 0.00000000E+00 0.00000000E+00-1.92348377E-04
11  3 3.93913148E-03-3.74678310E-03 0.00000000E+00 0.00000000E+00 0.00000000E+00
11  4-1.08919547E-02 4.00087303E-01-6.60815750E-02 8.85241543E-02 0.00000000E+00
11  5 0.00000000E+00-4.88517983E-02 0.00000000E+00 0.00000000E+00-1.92348377E-04
11  6 3.93913148E-03-3.74678310E-03 0.00000000E+00 0.00000000E+00 0.00000000E+00
11  7 5.40627123E-03-1.99837067E-01 3.29880562E-02-2.06821469E-01 1.71518023E-01
11  8 0.00000000E+00 4.96322421E-02-5.70990837E-02 0.00000000E+00-1.13553688E-02
11  9 9.48477519E-03 1.87059364E-03-5.55203823E-03 0.00000000E+00 0.00000000E+00
11 10 5.40627123E-03-1.99837067E-01 3.29880562E-02 2.06821469E-01 1.71518023E-01
11 11 0.00000000E+00-4.96322421E-02-5.70990837E-02 0.00000000E+00-1.13553688E-02
11 12 9.48477519E-03 1.87059364E-03 5.55203823E-03 0.00000000E+00 0.00000000E+00
11 13 5.40627123E-03-1.99837067E-01 3.29880562E-02-2.06821469E-01-1.71518023E-01
11 14 0.00000000E+00 4.96322421E-02 5.70990837E-02 0.00000000E+00-1.13553688E-02
11 15 9.48477519E-03 1.87059364E-03 5.55203823E-03 0.00000000E+00 0.00000000E+00
11 16 5.40627123E-03-1.99837067E-01 3.29880562E-02 2.06821469E-01-1.71518023E-01
11 17 0.00000000E+00-4.96322421E-02 5.70990837E-02 0.00000000E+00-1.13553688E-02
11 18 9.48477519E-03 1.87059364E-03-5.55203823E-03 0.00000000E+00 0.00000000E+00
11 19 2.66537819E-01-9.88041095E-02 1.77546000E-02 0.00000000E+00 0.00000000E+00
11 20 2.66537819E-01-9.88041095E-02-1.77546000E-02 0.00000000E+00 0.00000000E+00
11 21-1.33814616E-01 4.96479137E-02-7.28835929E-03-6.07366992E-03 0.00000000E+00
11 22-1.33814616E-01 4.96479137E-02 7.28835929E-03-6.07366992E-03 0.00000000E+00
11 23-1.33814616E-01 4.96479137E-02-7.28835929E-03 6.07366992E-03 0.00000000E+00
11 24-1.33814616E-01 4.96479137E-02 7.28835929E-03 6.07366992E-03 0.00000000E+00
12  1 3.64940630E-03-2.27693738E-02-1.56353432E-02 2.81499686E-01 0.00000000E+00
12  2 0.00000000E+00-6.85326932E-02 0.00000000E+00 0.00000000E+00 5.08355733E-03
12  3-3.54922267E-03-1.53433466E-03 0.00000000E+00 0.00000000E+00 0.00000000E+00
12  4 3.64940630E-03-2.27693738E-02-1.56353432E-02-2.81499686E-01 0.00000000E+00
12  5 0.00000000E+00 6.85326932E-02 0.00000000E+00 0.00000000E+00 5.08355733E-03
12  6-3.54922267E-03-1.53433466E-03 0.00000000E+00 0.00000000E+00 0.00000000E+00
12  7 3.62450915E-03-2.16306923E-02-1.56047375E-02 1.41718546E-01 2.43887896E-01
12  8 0.00000000E+00-3.44559004E-02-5.91904293E-02 0.00000000E+00-1.31704170E-03
12  9 2.85771942E-03-1.54067772E-03 4.29147669E-03 0.00000000E+00 0.00000000E+00
12 10 3.62450915E-03-2.16306923E-02-1.56047375E-02-1.41718546E-01 2.43887896E-01
12 11 0.00000000E+00 3.44559004E-02-5.91904293E-02 0.00000000E+00-1.31704170E-03
12 12 2.85771942E-03-1.54067772E-03-4.29147669E-03 0.00000000E+00 0.00000000E+00
12 13 3.62450915E-03-2.16306923E-02-1.56047375E-02 1.41718546E-01-2.43887896E-01
12 14 0.00000000E+00-3.44559004E-02 5.91904293E-02 0.00000000E+00-1.31704170E-03
12 15 2.85771942E-03-1.54067772E-03-4.29147669E-03 0.00000000E+00 0.00000000E+00
12 16 3.62450915E-03-2.16306923E-02-1.56047375E-02-1.41718546E-01-2.43887896E-01
12 17 0.00000000E+00 3.44559004E-02 5.91904293E-02 0.00000000E+00-1.31704170E-03
12 18 2.85771942E-03-1.54067772E-03 4.29147669E-03 0.00000000E+00 0.00000000E+00
12 19-2.55763799E-01 9.06068252E-02-1.30838348E-02 0.00000000E+00 0.00000000E+00
12 20-2.55763799E-01 9.06068252E-02 1.30838348E-02 0.00000000E+00 0.00000000E+00
12 21-2.55697821E-01 9.06300568E-02-6.52223935E-03-1.13185789E-02 0.00000000E+00
12 22-2.55697821E-01 9.06300568E-02 6.52223935E-03-1.13185789E-02 0.00000000E+00
12 23-2.55697821E-01 9.06300568E-02-6.52223935E-03 1.13185789E-02 0.00000000E+00
12 24-2.55697821E-01 9.06300568E-02 6.52223935E-03 1.13185789E-02 0.00000000E+00
13  1 6.87372633E-03-2.23453409E-01-2.45138533E-02 1.87597326E-01 0.00000000E+00
13  2 0.00000000E+00-7.58245710E-02 0.00000000E+00 0.00000000E+00-2.02757255E-02
13  3 2.14911743E-02-1.21544878E-03 0.00000000E+00 0.00000000E+00 0.00000000E+00
13  4-6.87372633E-03 2.23453409E-01 2.45138533E-02 1.87597326E-01 0.00000000E+00
13  5 0.00000000E+00-7.58245710E-02 0.00000000E+00 0.00000000E+00 2.02757255E-02
13  6-2.14911743E-02 1.21544878E-03 0.00000000E+00 0.00000000E+00 0.00000000E+00
13  7-6.82376057E-03 2.22627875E-01 2.47450983E-02-9.48309019E-02-1.65534485E-01
13  8 0.00000000E+00 3.81705698E-02 6.62625146E-02 0.00000000E+00-1.10364004E-02
13  9 9.81020329E-03 1.22619707E-03 2.10063372E-02 0.00000000E+00 0.00000000E+00
13 10 6.82376057E-03-2.22627875E-01-2.47450983E-02-9.48309019E-02 1.65534485E-01
13 11 0.00000000E+00 3.81705698E-02-6.62625146E-02 0.00000000E+00 1.10364004E-02
13 12-9.81020329E-03-1.22619707E-03 2.10063372E-02 0.00000000E+00 0.00000000E+00
13 13-6.82376057E-03 2.22627875E-01 2.47450983E-02-9.48309019E-02 1.65534485E-01
13 14 0.00000000E+00 3.81705698E-02-6.62625146E-02 0.00000000E+00-1.10364004E-02
13 15 9.81020329E-03 1.22619707E-03-2.10063372E-02 0.00000000E+00 0.00000000E+00
13 16 6.82376057E-03-2.22627875E-01-2.47450983E-02-9.48309019E-02-1.65534485E-01
13 17 0.00000000E+00 3.81705698E-02 6.62625146E-02 0.00000000E+00 1.10364004E-02
13 18-9.81020329E-03-1.22619707E-03-2.10063372E-02 0.00000000E+00 0.00000000E+00
13 19-3.12392574E-01 8.40541303E-02-1.31328542E-02 0.00000000E+00 0.00000000E+00
13 20 3.12392574E-01-8.40541303E-02-1.31328542E-02 0.00000000E+00 0.00000000E+00
13 21 3.14949389E-01-8.49117754E-02 6.63359175E-03 1.14448098E-02 0.00000000E+00
13 22-3.14949389E-01 8.49117754E-02 6.63359175E-03-1.14448098E-02 0.00000000E+00
13 23 3.14949389E-01-8.49117754E-02 6.63359175E-03-1.14448098E-02 0.00000000E+00
13 24-3.14949389E-01 8.49117754E-02 6.63359175E-03 1.14448098E-02 0.00000000E+00
14  1 0.00000000E+00 0.00000000E+00 0.00000000E+00 0.00000000E+00 4.11771804E-01
14  2 0.00000000E+00 0.00000000E+00-9.55177222E-02 0.00000000E+00 0.00000000E+00
14  3 0.00000000E+00 0.00000000E+00 1.02328666E-02 0.00000000E+00 0.00000000E+00
14  4 0.00000000E+00 0.00000000E+00 0.00000000E+00 0.00000000E+00 4.11771804E-01