!  SiCCC test case from Haruyuki Nakano, January 2008
!  GMC-PT for SRSD space (spanned by triplet HOMO-LUMO det. plus SD)
!  does not test MCSCF step, just a PT run
!
!  E(0)      = -402.503466411  after "selection according to CI coef"
!  E(GMC-PT2)= -402.7627658742 with reference weight 89.838%
! 
!  This run takes 130 seconds on 2.66 GHz Cloverton (27 Apr 2015)
!  results more or less unchanged since 2008
!
 $GMCPT  NMOCOR=8 NMOACT=16 ISTSYM=2 IWGT=1
         REFTYP=MRX NPDET=1 NEXCIT=2 KFORB=.T. $END
 $MCSCF  FORS=.F. CISTEP=GMCCI soscf=.true. $END
 $MRMP   RDVECS=.T. MRPT=GMCPT $END
 $PDET
   2222222++0000000
 $END

 $CONTRL SCFTYP=MCSCF RUNTYP=ENERGY ISPHER=1 MULT=3 ICHARG=0 NOSYM=0
         MPLEVL=2 $END
!  the memories were 100 and 200 to start with.
 $SYSTEM MWORDS=10 MEMDDI=20 $END
 $GUESS  GUESS=MOREAD NORDER=0 NORB=96 $END
 $DATA
SICCC
CNV      2

SI         14.0       .0000000000       .0000000000       .0000000000
   S      11
     1          78860.0000000000   .00027044
     2          11820.0000000000   .00209717
     3           2692.0000000000   .01085060
     4            763.4000000000   .04367540
     5            249.6000000000   .13765300
     6             90.2800000000   .31664400
     7             35.2900000000   .41858100
     8             14.5100000000   .21021200
     9              4.0530000000   .01449520
    10              1.4820000000  -.00203590
    11               .2517000000   .00062419
   S      11
     1          78860.0000000000  -.00007232
     2          11820.0000000000  -.00055512
     3           2692.0000000000  -.00293805
     4            763.4000000000  -.01176870
     5            249.6000000000  -.04029070
     6             90.2800000000  -.10060900
     7             35.2900000000  -.19652800
     8             14.5100000000  -.10238200
     9              4.0530000000   .52719000
    10              1.4820000000   .59325100
    11               .2517000000   .03326520
   S      11
     1          78860.0000000000   .00001851
     2          11820.0000000000   .00014224
     3           2692.0000000000   .00075219
     4            763.4000000000   .00302279
     5            249.6000000000   .01036770
     6             90.2800000000   .02625630
     7             35.2900000000   .05239890
     8             14.5100000000   .02909590
     9              4.0530000000  -.17800300
    10              1.4820000000  -.34687400
    11               .2517000000   .62302000
   S       1
     1               .0924300000  1.00000000
   P       7
     1            315.9000000000   .00392656
     2             74.4200000000   .02988110
     3             23.4800000000   .12721200
     4              8.4880000000   .32094300
     5              3.2170000000   .45542900
     6              1.2290000000   .26856300
     7               .2964000000   .01883360
   P       7
     1            315.9000000000  -.00085830
     2             74.4200000000  -.00630328
     3             23.4800000000  -.02882550
     4              8.4880000000  -.06945600
     5              3.2170000000  -.11949300
     6              1.2290000000  -.01995810
     7               .2964000000   .51026800
   P       1
     1               .0876800000  1.00000000
   D       1
     1               .2750000000  1.00000000
   S   1
    1       0.332000000E-01      1.00000000    
   P   1
    1       0.250000000E-01      1.00000000    
   D   1
    1       0.823000000E-01      1.00000000    
          
C           6.0       .0000000000       .0000000000      1.7249000000
   S       8
     1           6665.0000000000   .00069200
     2           1000.0000000000   .00532900
     3            228.0000000000   .02707700
     4             64.7100000000   .10171800
     5             21.0600000000   .27474000
     6              7.4950000000   .44856400
     7              2.7970000000   .28507400
     8               .5215000000   .01520400
   S       8
     1           6665.0000000000  -.00014600
     2           1000.0000000000  -.00115400
     3            228.0000000000  -.00572500
     4             64.7100000000  -.02331200
     5             21.0600000000  -.06395500
     6              7.4950000000  -.14998100
     7              2.7970000000  -.12726200
     8               .5215000000   .54452900
   S       1
     1               .1596000000  1.00000000
   P       3
     1              9.4390000000   .03810900
     2              2.0020000000   .20948000
     3               .5456000000   .50855700
   P       1
     1               .1517000000  1.00000000
   D       1
     1               .5500000000  1.00000000   
   S   1
    1       0.469000000E-01      1.00000000    
   P   1
    1       0.404100000E-01      1.00000000    
   D   1
    1       0.151000000          1.00000000    
       
C           6.0       .0000000000       .0000000000      3.0148000000
   S       8
     1           6665.0000000000   .00069200
     2           1000.0000000000   .00532900
     3            228.0000000000   .02707700
     4             64.7100000000   .10171800
     5             21.0600000000   .27474000
     6              7.4950000000   .44856400
     7              2.7970000000   .28507400
     8               .5215000000   .01520400
   S       8
     1           6665.0000000000  -.00014600
     2           1000.0000000000  -.00115400
     3            228.0000000000  -.00572500
     4             64.7100000000  -.02331200
     5             21.0600000000  -.06395500
     6              7.4950000000  -.14998100
     7              2.7970000000  -.12726200
     8               .5215000000   .54452900
   S       1
     1               .1596000000  1.00000000
   P       3
     1              9.4390000000   .03810900
     2              2.0020000000   .20948000
     3               .5456000000   .50855700
   P       1
     1               .1517000000  1.00000000
   D       1
     1               .5500000000  1.00000000
 S   1
  1       0.469000000E-01      1.00000000    
 P   1
  1       0.404100000E-01      1.00000000    
 D   1
  1       0.151000000          1.00000000    
        
C           6.0       .0000000000       .0000000000      4.3210000000
   S       8
     1           6665.0000000000   .00069200
     2           1000.0000000000   .00532900
     3            228.0000000000   .02707700
     4             64.7100000000   .10171800
     5             21.0600000000   .27474000
     6              7.4950000000   .44856400
     7              2.7970000000   .28507400
     8               .5215000000   .01520400
   S       8
     1           6665.0000000000  -.00014600
     2           1000.0000000000  -.00115400
     3            228.0000000000  -.00572500
     4             64.7100000000  -.02331200
     5             21.0600000000  -.06395500
     6              7.4950000000  -.14998100
     7              2.7970000000  -.12726200
     8               .5215000000   .54452900
   S       1
     1               .1596000000  1.00000000
   P       3
     1              9.4390000000   .03810900
     2              2.0020000000   .20948000
     3               .5456000000   .50855700
   P       1
     1               .1517000000  1.00000000
   D       1
     1               .5500000000  1.00000000
 S   1
  1       0.469000000E-01      1.00000000    
 P   1
  1       0.404100000E-01      1.00000000    
 D   1
  1       0.151000000          1.00000000    
        
 $END      
--- OPTIMIZED MCSCF MO-S --- GENERATED AT Sun Dec  8 01:55:23 2002
SICCC                                                                           
E(MCSCF)=     -402.5034665887, E(NUC)=       87.4930670792
 $VEC   
 1  1 1.00005929E+00 3.98835823E-04 7.47881383E-04-6.90696429E-04 0.00000000E+00
 1  2 0.00000000E+00 1.23745148E-04 0.00000000E+00 0.00000000E+00 1.27945597E-04
 1  3 0.00000000E+00 0.00000000E+00-3.01335722E-04-1.67087694E-05-1.67087694E-05
 1  4 3.34175388E-05 0.00000000E+00 0.00000000E+00 0.00000000E+00-1.47368248E-04
 1  5 0.00000000E+00 0.00000000E+00-1.90478792E-05 4.70154556E-05 4.70154556E-05
 1  6-9.40309112E-05 0.00000000E+00 0.00000000E+00 0.00000000E+00 5.48376124E-05
 1  7 9.25846214E-05-4.64845844E-04 0.00000000E+00 0.00000000E+00 6.44224025E-06
 1  8 0.00000000E+00 0.00000000E+00-7.81588796E-05 3.85621943E-05 3.85621943E-05
 1  9-7.71243887E-05 0.00000000E+00 0.00000000E+00 0.00000000E+00 9.20438508E-04
 1 10 0.00000000E+00 0.00000000E+00-4.43794219E-04 1.99179875E-04 1.99179875E-04
 1 11-3.98359749E-04 0.00000000E+00 0.00000000E+00 0.00000000E+00-2.75380817E-07
 1 12 8.34097578E-06 1.63010201E-03 0.00000000E+00 0.00000000E+00-5.51783475E-05
 1 13 0.00000000E+00 0.00000000E+00 5.86709467E-04-1.50835287E-05-1.50835287E-05
 1 14 3.01670573E-05 0.00000000E+00 0.00000000E+00 0.00000000E+00 7.79812168E-04
 1 15 0.00000000E+00 0.00000000E+00 8.95049702E-04-9.69512233E-05-9.69512233E-05
 1 16 1.93902447E-04 0.00000000E+00 0.00000000E+00 0.00000000E+00 1.81329493E-05
 1 17 3.06957116E-05-1.13740840E-03 0.00000000E+00 0.00000000E+00 3.37794601E-05
 1 18 0.00000000E+00 0.00000000E+00 5.93171784E-04 6.67878960E-06 6.67878960E-06
 1 19-1.33575792E-05 0.00000000E+00 0.00000000E+00 0.00000000E+00-1.27173983E-03
 1 20 0.00000000E+00 0.00000000E+00 7.86272539E-05 5.24340977E-05 5.24340977E-05
 1 21-1.04868195E-04 0.00000000E+00 0.00000000E+00 0.00000000E+00
 2  1 1.52828428E-04 1.23845042E-03 4.40175935E-04-5.67758522E-04 0.00000000E+00
 2  2 0.00000000E+00 2.74346127E-04 0.00000000E+00 0.00000000E+00-2.27139167E-03
 2  3 0.00000000E+00 0.00000000E+00-2.92634252E-03 5.89010897E-04 5.89010897E-04
 2  4-1.17802179E-03 0.00000000E+00 0.00000000E+00 0.00000000E+00 2.14193189E-03
 2  5 0.00000000E+00 0.00000000E+00 6.00498531E-04 3.73258896E-04 3.73258896E-04
 2  6-7.46517791E-04 0.00000000E+00 0.00000000E+00 0.00000000E+00 1.00311239E+00
 2  7 4.21775801E-03-4.09471280E-02 0.00000000E+00 0.00000000E+00 2.90112522E-03
 2  8 0.00000000E+00 0.00000000E+00-2.26166925E-02-5.08260005E-04-5.08260005E-04
 2  9 1.01652001E-03 0.00000000E+00 0.00000000E+00 0.00000000E+00-1.18679818E-02
 2 10 0.00000000E+00 0.00000000E+00 1.55998227E-03 3.76528053E-03 3.76528053E-03
 2 11-7.53056106E-03 0.00000000E+00 0.00000000E+00 0.00000000E+00 4.33041941E-02
 2 12-2.19846112E-04 2.67768990E-02 0.00000000E+00 0.00000000E+00 1.15120255E-03
 2 13 0.00000000E+00 0.00000000E+00-2.58501437E-02 2.52331371E-04 2.52331371E-04
 2 14-5.04662742E-04 0.00000000E+00 0.00000000E+00 0.00000000E+00-5.48420832E-03
 2 15 0.00000000E+00 0.00000000E+00-6.37182518E-03 5.98005371E-04 5.98005371E-04
 2 16-1.19601074E-03 0.00000000E+00 0.00000000E+00 0.00000000E+00-4.95822866E-03
 2 17-8.59651896E-05 1.47293389E-02 0.00000000E+00 0.00000000E+00-6.46550302E-04
 2 18 0.00000000E+00 0.00000000E+00-6.07033471E-03-3.12845880E-05-3.12845880E-05
 2 19 6.25691760E-05 0.00000000E+00 0.00000000E+00 0.00000000E+00 1.16674112E-02
 2 20 0.00000000E+00 0.00000000E+00-1.45000350E-03-1.53836171E-04-1.53836171E-04
 2 21 3.07672341E-04 0.00000000E+00 0.00000000E+00 0.00000000E+00
 3  1 8.17020579E-06 1.88891227E-05-1.67807332E-04 3.06921909E-03 0.00000000E+00
 3  2 0.00000000E+00 3.75938999E-05 0.00000000E+00 0.00000000E+00 4.10201166E-04
 3  3 0.00000000E+00 0.00000000E+00 2.51227864E-03 7.76289815E-05 7.76289815E-05
 3  4-1.55257963E-04 0.00000000E+00 0.00000000E+00 0.00000000E+00 4.38270670E-03
 3  5 0.00000000E+00 0.00000000E+00 6.55630849E-04-3.77360495E-04-3.77360495E-04
 3  6 7.54720990E-04 0.00000000E+00 0.00000000E+00 0.00000000E+00 7.15240825E-04
 3  7-4.56146656E-04 3.17982961E-02 0.00000000E+00 0.00000000E+00 2.80141535E-04
 3  8 0.00000000E+00 0.00000000E+00 1.71264780E-02-2.52068998E-04-2.52068998E-04
 3  9 5.04137996E-04 0.00000000E+00 0.00000000E+00 0.00000000E+00 1.84862123E-02
 3 10 0.00000000E+00 0.00000000E+00 7.92654845E-03-9.51705679E-04-9.51705679E-04
 3 11 1.90341136E-03 0.00000000E+00 0.00000000E+00 0.00000000E+00 9.06279396E-02
 3 12 1.95853666E-03-2.30068355E-03 0.00000000E+00 0.00000000E+00-8.82925954E-05
 3 13 0.00000000E+00 0.00000000E+00 3.31369331E-02 8.62698776E-04 8.62698776E-04
 3 14-1.72539755E-03 0.00000000E+00 0.00000000E+00 0.00000000E+00-2.15413898E-02
 3 15 0.00000000E+00 0.00000000E+00 5.26958319E-03 2.23756703E-03 2.23756703E-03
 3 16-4.47513405E-03 0.00000000E+00 0.00000000E+00 0.00000000E+00 9.99261289E-01
 3 17-4.84551457E-03-4.41498150E-02 0.00000000E+00 0.00000000E+00-1.10399507E-02
 3 18 0.00000000E+00 0.00000000E+00 1.27603030E-02-8.64698300E-04-8.64698300E-04
 3 19 1.72939660E-03 0.00000000E+00 0.00000000E+00 0.00000000E+00-7.09909034E-03
 3 20 0.00000000E+00 0.00000000E+00 4.27054193E-04 2.26164284E-03 2.26164284E-03
 3 21-4.52328569E-03 0.00000000E+00 0.00000000E+00 0.00000000E+00
 4  1 5.55264924E-05 4.06972254E-04 3.33482503E-04 8.73933663E-04 0.00000000E+00
 4  2 0.00000000E+00 1.69490602E-04 0.00000000E+00 0.00000000E+00 1.21648454E-03
 4  3 0.00000000E+00 0.00000000E+00 8.05372578E-04-1.80654956E-04-1.80654956E-04
 4  4 3.61309911E-04 0.00000000E+00 0.00000000E+00 0.00000000E+00 3.78269819E-03
 4  5 0.00000000E+00 0.00000000E+00 4.68930169E-04 4.80773724E-05 4.80773724E-05
 4  6-9.61547448E-05 0.00000000E+00 0.00000000E+00 0.00000000E+00-4.44300645E-02
 4  7-1.18430975E-03 1.70013792E-02 0.00000000E+00 0.00000000E+00-2.23497135E-03
 4  8 0.00000000E+00 0.00000000E+00 6.85206718E-03 5.06117954E-04 5.06117954E-04
 4  9-1.01223591E-03 0.00000000E+00 0.00000000E+00 0.00000000E+00 1.76558809E-02
 4 10 0.00000000E+00 0.00000000E+00 8.22736368E-03 2.00695693E-05 2.00695693E-05
 4 11-4.01391386E-05 0.00000000E+00 0.00000000E+00 0.00000000E+00 9.99158617E-01
 4 12 6.13869171E-03-3.13747385E-02 0.00000000E+00 0.00000000E+00-4.71726802E-04
 4 13 0.00000000E+00 0.00000000E+00 2.58330593E-03-1.15845831E-03-1.15845831E-03
 4 14 2.31691661E-03 0.00000000E+00 0.00000000E+00 0.00000000E+00-3.68166851E-02
 4 15 0.00000000E+00 0.00000000E+00 1.72531775E-03 3.81065192E-03 3.81065192E-03
 4 16-7.62130384E-03 0.00000000E+00 0.00000000E+00 0.00000000E+00-9.05220482E-02
 4 17 2.56357975E-04 1.68983945E-02 0.00000000E+00 0.00000000E+00 2.95809377E-03
 4 18 0.00000000E+00 0.00000000E+00-4.06161362E-03 3.91172259E-04 3.91172259E-04
 4 19-7.82344518E-04 0.00000000E+00 0.00000000E+00 0.00000000E+00 1.14398031E-02
 4 20 0.00000000E+00 0.00000000E+00-2.61401496E-03-2.63672682E-04-2.63672682E-04
 4 21 5.27345364E-04 0.00000000E+00 0.00000000E+00 0.00000000E+00
 5  1 1.09557020E-03 1.01120790E+00 7.02319211E-03-3.11906916E-02 0.00000000E+00
 5  2 0.00000000E+00 6.30814208E-03 0.00000000E+00 0.00000000E+00 7.72309015E-03
 5  3 0.00000000E+00 0.00000000E+00-1.62948980E-03-5.28381965E-04-5.28381965E-04
 5  4 1.05676393E-03 0.00000000E+00 0.00000000E+00 0.00000000E+00-5.89781889E-03
 5  5 0.00000000E+00 0.00000000E+00-4.89148795E-04 3.04438762E-04 3.04438762E-04
 5  6-6.08877523E-04 0.00000000E+00 0.00000000E+00 0.00000000E+00 1.62627502E-05
 5  7 1.93715532E-03 1.13450731E-02 0.00000000E+00 0.00000000E+00-5.74500530E-04
 5  8 0.00000000E+00 0.00000000E+00 1.14251172E-02-9.08936036E-05-9.08936036E-05
 5  9 1.81787207E-04 0.00000000E+00 0.00000000E+00 0.00000000E+00 2.90103018E-02
 5 10 0.00000000E+00 0.00000000E+00-1.55751603E-02 2.61179947E-03 2.61179947E-03
 5 11-5.22359894E-03 0.00000000E+00 0.00000000E+00 0.00000000E+00-2.04259275E-04
 5 12-2.71966091E-04 1.05544594E-02 0.00000000E+00 0.00000000E+00-1.79171415E-04
 5 13 0.00000000E+00 0.00000000E+00 2.32601470E-02 8.38933354E-05 8.38933354E-05
 5 14-1.67786671E-04 0.00000000E+00 0.00000000E+00 0.00000000E+00 1.98199112E-02
 5 15 0.00000000E+00 0.00000000E+00 2.54517967E-02-1.73019016E-03-1.73019016E-03
 5 16 3.46038033E-03 0.00000000E+00 0.00000000E+00 0.00000000E+00 3.64972531E-04
 5 17 6.21191913E-04-2.44491593E-02 0.00000000E+00 0.00000000E+00 1.62592292E-04
 5 18 0.00000000E+00 0.00000000E+00 1.13556867E-02 8.92089175E-06 8.92089175E-06
 5 19-1.78417835E-05 0.00000000E+00 0.00000000E+00 0.00000000E+00-3.25549194E-02
 5 20 0.00000000E+00 0.00000000E+00 1.44082425E-03 7.28116115E-04 7.28116115E-04
 5 21-1.45623223E-03 0.00000000E+00 0.00000000E+00 0.00000000E+00
 6  1 5.00850329E-05-4.31473322E-03 8.02562481E-04 5.62292934E-03 0.00000000E+00
 6  2 0.00000000E+00 1.00021257E+00 0.00000000E+00 0.00000000E+00 3.04513918E-03
 6  3 0.00000000E+00 0.00000000E+00 3.18284580E-03-8.48193338E-04-8.48193338E-04
 6  4 1.69638668E-03 0.00000000E+00 0.00000000E+00 0.00000000E+00 1.88492027E-04
 6  5 0.00000000E+00 0.00000000E+00 6.56035589E-05-3.31920023E-04-3.31920023E-04
 6  6 6.63840046E-04 0.00000000E+00 0.00000000E+00 0.00000000E+00-1.42109166E-03
 6  7 2.89207423E-03 2.25623309E-02 0.00000000E+00 0.00000000E+00-2.89348949E-03
 6  8 0.00000000E+00 0.00000000E+00 2.01502427E-02-1.25673539E-03-1.25673539E-03
 6  9 2.51347079E-03 0.00000000E+00 0.00000000E+00 0.00000000E+00 2.96127916E-03
 6 10 0.00000000E+00 0.00000000E+00 3.10488116E-03-9.37994169E-04-9.37994169E-04
 6 11 1.87598834E-03 0.00000000E+00 0.00000000E+00 0.00000000E+00-3.13713985E-04
 6 12-1.55200723E-04-2.50795836E-02 0.00000000E+00 0.00000000E+00 5.98019865E-04
 6 13 0.00000000E+00 0.00000000E+00 1.54280353E-02 4.02189457E-04 4.02189457E-04
 6 14-8.04378915E-04 0.00000000E+00 0.00000000E+00 0.00000000E+00-8.88703971E-03
 6 15 0.00000000E+00 0.00000000E+00-1.48129195E-03 1.47356039E-04 1.47356039E-04
 6 16-2.94712078E-04 0.00000000E+00 0.00000000E+00 0.00000000E+00 2.23608881E-05
 6 17 1.18092843E-04-3.77811629E-03 0.00000000E+00 0.00000000E+00-4.33696822E-04
 6 18 0.00000000E+00 0.00000000E+00 8.01054692E-06-1.75366449E-04-1.75366449E-04
 6 19 3.50732898E-04 0.00000000E+00 0.00000000E+00 0.00000000E+00 4.11800192E-03
 6 20 0.00000000E+00 0.00000000E+00-5.69771156E-04-2.38536982E-04-2.38536982E-04
 6 21 4.77073964E-04 0.00000000E+00 0.00000000E+00 0.00000000E+00
 7  1 0.00000000E+00 0.00000000E+00 0.00000000E+00 0.00000000E+00 1.00112490E+00
 7  2 0.00000000E+00 0.00000000E+00 3.16991389E-03 0.00000000E+00 0.00000000E+00
 7  3-1.06676158E-03 0.00000000E+00 0.00000000E+00 0.00000000E+00 0.00000000E+00
 7  4 0.00000000E+00 0.00000000E+00 2.22847907E-03 0.00000000E+00 0.00000000E+00
 7  5-1.35639531E-04 0.00000000E+00 0.00000000E+00 0.00000000E+00 0.00000000E+00
 7  6 0.00000000E+00 0.00000000E+00 5.55816336E-04 0.00000000E+00 0.00000000E+00
 7  7 0.00000000E+00 0.00000000E+00 3.76645542E-04 0.00000000E+00 0.00000000E+00
 7  8 1.74208073E-02 0.00000000E+00 0.00000000E+00 0.00000000E+00 0.00000000E+00
 7  9 0.00000000E+00 0.00000000E+00-2.16323917E-04 0.00000000E+00 0.00000000E+00
 7 10 3.45131106E-03 0.00000000E+00 0.00000000E+00 0.00000000E+00 0.00000000E+00
 7 11 0.00000000E+00 0.00000000E+00 1.45733421E-02 0.00000000E+00 0.00000000E+00
 7 12 0.00000000E+00 0.00000000E+00 7.50707070E-04 0.00000000E+00 0.00000000E+00
 7 13-1.20738226E-02 0.00000000E+00 0.00000000E+00 0.00000000E+00 0.00000000E+00
 7 14 0.00000000E+00 0.00000000E+00-1.37454577E-04 0.00000000E+00 0.00000000E+00
 7 15-3.59006308E-03 0.00000000E+00 0.00000000E+00 0.00000000E+00 0.00000000E+00
 7 16 0.00000000E+00 0.00000000E+00 1.65699856E-02 0.00000000E+00 0.00000000E+00
 7 17 0.00000000E+00 0.00000000E+00 2.38022189E-04 0.00000000E+00 0.00000000E+00
 7 18-9.29614722E-03 0.00000000E+00 0.00000000E+00 0.00000000E+00 0.00000000E+00
 7 19 0.00000000E+00 0.00000000E+00 1.23592684E-04 0.00000000E+00 0.00000000E+00
 7 20 1.17519017E-03 0.00000000E+00 0.00000000E+00 0.00000000E+00 0.00000000E+00
 7 21 0.00000000E+00 0.00000000E+00 3.27471803E-03 0.00000000E+00
 8  1 0.00000000E+00 0.00000000E+00 0.00000000E+00 0.00000000E+00 0.00000000E+00
 8  2 1.00112490E+00 0.00000000E+00 0.00000000E+00 3.16991389E-03 0.00000000E+00
 8  3 0.00000000E+00-1.06676158E-03 0.00000000E+00 0.00000000E+00 0.00000000E+00
 8  4 0.00000000E+00 0.00000000E+00 0.00000000E+00 2.22847907E-03 0.00000000E+00
 8  5 0.00000000E+00-1.35639531E-04 0.00000000E+00 0.00000000E+00 0.00000000E+00
 8  6 0.00000000E+00 0.00000000E+00 0.00000000E+00 5.55816336E-04 0.00000000E+00
 8  7 0.00000000E+00 0.00000000E+00 0.00000000E+00 3.76645542E-04 0.00000000E+00
 8  8 0.00000000E+00 1.74208073E-02 0.00000000E+00 0.00000000E+00 0.00000000E+00
 8  9 0.00000000E+00 0.00000000E+00 0.00000000E+00-2.16323917E-04 0.00000000E+00
 8 10 0.00000000E+00 3.45131106E-03 0.00000000E+00 0.00000000E+00 0.00000000E+00
 8 11 0.00000000E+00 0.00000000E+00 0.00000000E+00 1.45733421E-02 0.00000000E+00
 8 12 0.00000000E+00 0.00000000E+00 0.00000000E+00 7.50707070E-04 0.00000000E+00
 8 13 0.00000000E+00-1.20738226E-02 0.00000000E+00 0.00000000E+00 0.00000000E+00
 8 14 0.00000000E+00 0.00000000E+00 0.00000000E+00-1.37454577E-04 0.00000000E+00
 8 15 0.00000000E+00-3.59006308E-03 0.00000000E+00 0.00000000E+00 0.00000000E+00
 8 16 0.00000000E+00 0.00000000E+00 0.00000000E+00 1.65699856E-02 0.00000000E+00
 8 17 0.00000000E+00 0.00000000E+00 0.00000000E+00 2.38022189E-04 0.00000000E+00
 8 18 0.00000000E+00-9.29614722E-03 0.00000000E+00 0.00000000E+00 0.00000000E+00
 8 19 0.00000000E+00 0.00000000E+00 0.00000000E+00 1.23592684E-04 0.00000000E+00
 8 20 0.00000000E+00 1.17519017E-03 0.00000000E+00 0.00000000E+00 0.00000000E+00
 8 21 0.00000000E+00 0.00000000E+00 0.00000000E+00 3.27471803E-03
 9  1 9.53495329E-04 1.06202591E-02-3.97832643E-02 2.14442984E-02 0.00000000E+00
 9  2 0.00000000E+00 1.41059029E-02 0.00000000E+00 0.00000000E+00-2.17348642E-02
 9  3 0.00000000E+00 0.00000000E+00 4.22825790E-02 4.50775835E-03 4.50775835E-03
 9  4-9.01551670E-03 0.00000000E+00 0.00000000E+00 0.00000000E+00-2.68890375E-02
 9  5 0.00000000E+00 0.00000000E+00 3.25636008E-03-9.83835368E-03-9.83835368E-03
 9  6 1.96767074E-02 0.00000000E+00 0.00000000E+00 0.00000000E+00 1.73452938E-02
 9  7-2.56807891E-01-1.98917551E-01 0.00000000E+00 0.00000000E+00-1.43276303E-01
 9  8 0.00000000E+00 0.00000000E+00 2.55519529E-02 1.38894589E-02 1.38894589E-02
 9  9-2.77789178E-02 0.00000000E+00 0.00000000E+00 0.00000000E+00-2.58888092E-01
 9 10 0.00000000E+00 0.00000000E+00-1.22256411E-01 3.21685102E-03 3.21685102E-03
 9 11-6.43370203E-03 0.00000000E+00 0.00000000E+00 0.00000000E+00 2.48605171E-02
 9 12-3.38373776E-01-2.32790908E-01 0.00000000E+00 0.00000000E+00 5.68031858E-02
 9 13 0.00000000E+00 0.00000000E+00 4.50589758E-02 1.39714295E-02 1.39714295E-02
 9 14-2.79428590E-02 0.00000000E+00 0.00000000E+00 0.00000000E+00 4.14887673E-01
 9 15 0.00000000E+00 0.00000000E+00-1.08584080E-02 8.85973052E-04 8.85973052E-04
 9 16-1.77194610E-03 0.00000000E+00 0.00000000E+00 0.00000000E+00 5.73967848E-03
 9 17-1.66400286E-01-1.48982175E-01 0.00000000E+00 0.00000000E+00 1.12495216E-01
 9 18 0.00000000E+00 0.00000000E+00 3.54826508E-02 9.77181397E-03 9.77181397E-03
 9 19-1.95436279E-02 0.00000000E+00 0.00000000E+00 0.00000000E+00-1.13128653E-01
 9 20 0.00000000E+00 0.00000000E+00 2.34715923E-02 1.11996277E-03 1.11996277E-03
 9 21-2.23992554E-03 0.00000000E+00 0.00000000E+00 0.00000000E+00
10  1-8.86944905E-04-3.14120465E-03-1.19819812E-01-1.06563472E-01 0.00000000E+00
10  2 0.00000000E+00 1.08635235E-02 0.00000000E+00 0.00000000E+00-6.96904407E-02
10  3 0.00000000E+00 0.00000000E+00-2.63135947E-02 1.21592339E-02 1.21592339E-02
10  4-2.43184677E-02 0.00000000E+00 0.00000000E+00 0.00000000E+00-3.51714450E-02
10  5 0.00000000E+00 0.00000000E+00-3.54018574E-03-3.86579125E-03-3.86579125E-03
10  6 7.73158250E-03 0.00000000E+00 0.00000000E+00 0.00000000E+00 1.04717831E-02
10  7-2.58082196E-01-4.46673507E-01 0.00000000E+00 0.00000000E+00-3.66448010E-02
10  8 0.00000000E+00 0.00000000E+00-1.40554677E-01 1.02826272E-02 1.02826272E-02
10  9-2.05652544E-02 0.00000000E+00 0.00000000E+00 0.00000000E+00 1.06328573E-01
10 10 0.00000000E+00 0.00000000E+00-3.21610456E-02-3.35137211E-03-3.35137211E-03
10 11 6.70274422E-03 0.00000000E+00 0.00000000E+00 0.00000000E+00-4.70285904E-03
10 12 8.44108252E-02 8.14067501E-02 0.00000000E+00 0.00000000E+00 3.45795901E-01
10 13 0.00000000E+00 0.00000000E+00-2.25669956E-01-3.84805428E-03-3.84805428E-03
10 14 7.69610856E-03 0.00000000E+00 0.00000000E+00 0.00000000E+00-8.92970365E-02
10 15 0.00000000E+00 0.00000000E+00 1.17332342E-02 8.74675456E-04 8.74675456E-04
10 16-1.74935091E-03 0.00000000E+00 0.00000000E+00 0.00000000E+00-4.18861962E-03
10 17 2.93329754E-01 4.53109125E-01 0.00000000E+00 0.00000000E+00-1.56907880E-01
10 18 0.00000000E+00 0.00000000E+00-1.28250777E-01-9.91618067E-03-9.91618067E-03
10 19 1.98323613E-02 0.00000000E+00 0.00000000E+00 0.00000000E+00 6.39151936E-02
10 20 0.00000000E+00 0.00000000E+00-1.11996316E-02-6.26347183E-03-6.26347183E-03
10 21 1.25269437E-02 0.00000000E+00 0.00000000E+00 0.00000000E+00
11  1 6.96012050E-04 6.96894732E-03-3.49717300E-01-3.68752800E-01 0.00000000E+00
11  2 0.00000000E+00 1.54365522E-02 0.00000000E+00 0.00000000E+00-1.45088288E-01
11  3 0.00000000E+00 0.00000000E+00-1.16118596E-01 2.87328939E-02 2.87328939E-02
11  4-5.74657877E-02 0.00000000E+00 0.00000000E+00 0.00000000E+00-5.33550655E-02
11  5 0.00000000E+00 0.00000000E+00-5.45939081E-03 8.64962615E-03 8.64962615E-03
11  6-1.72992523E-02 0.00000000E+00 0.00000000E+00 0.00000000E+00 6.49848553E-03
11  7-8.11567958E-02-3.07126158E-01 0.00000000E+00 0.00000000E+00 3.87869948E-01
11  8 0.00000000E+00 0.00000000E+00-1.41726260E-01 4.31433737E-03 4.31433737E-03
11  9-8.62867474E-03 0.00000000E+00 0.00000000E+00 0.00000000E+00 2.57098818E-01
11 10 0.00000000E+00 0.00000000E+00-1.23527033E-02 1.64413577E-02 1.64413577E-02
11 11-3.28827154E-02 0.00000000E+00 0.00000000E+00 0.00000000E+00-3.47443462E-03
11 12 1.14482494E-01 4.10739860E-01 0.00000000E+00 0.00000000E+00-2.28187280E-01
11 13 0.00000000E+00 0.00000000E+00-2.03466065E-01-4.76495802E-03-4.76495802E-03
11 14 9.52991604E-03 0.00000000E+00 0.00000000E+00 0.00000000E+00-2.09381785E-01
11 15 0.00000000E+00 0.00000000E+00 5.15215263E-02-1.17013695E-03-1.17013695E-03
11 16 2.34027389E-03 0.00000000E+00 0.00000000E+00 0.00000000E+00-2.73996727E-03
11 17-1.18516455E-01-8.33017958E-02 0.00000000E+00 0.00000000E+00 2.54401029E-02
11 18 0.00000000E+00 0.00000000E+00 4.66515502E-03 1.88942928E-03 1.88942928E-03
11 19-3.77885856E-03 0.00000000E+00 0.00000000E+00 0.00000000E+00 4.43311236E-02
11 20 0.00000000E+00 0.00000000E+00-2.47373539E-02 4.14797224E-03 4.14797224E-03
11 21-8.29594449E-03 0.00000000E+00 0.00000000E+00 0.00000000E+00
12  1 0.00000000E+00 0.00000000E+00 0.00000000E+00 0.00000000E+00-6.26833288E-03
12  2 0.00000000E+00 0.00000000E+00 1.13463385E-01 0.00000000E+00 0.00000000E+00
12  3 5.24255273E-02 0.00000000E+00 0.00000000E+00 0.00000000E+00 0.00000000E+00
12  4 0.00000000E+00 0.00000000E+00 4.08309572E-02 0.00000000E+00 0.00000000E+00
12  5-9.84677682E-03 0.00000000E+00 0.00000000E+00 0.00000000E+00 0.00000000E+00
12  6 0.00000000E+00 0.00000000E+00-1.38817038E-02 0.00000000E+00 0.00000000E+00
12  7 0.00000000E+00 0.00000000E+00 3.49068587E-01 0.00000000E+00 0.00000000E+00
12  8 2.10173175E-01 0.00000000E+00 0.00000000E+00 0.00000000E+00 0.00000000E+00
12  9 0.00000000E+00 0.00000000E+00 1.87194711E-02 0.00000000E+00 0.00000000E+00
12 10 4.79527243E-02 0.00000000E+00 0.00000000E+00 0.00000000E+00 0.00000000E+00
12 11 0.00000000E+00 0.00000000E+00-1.72863881E-02 0.00000000E+00 0.00000000E+00
12 12 0.00000000E+00 0.00000000E+00 3.95388071E-01 0.00000000E+00 0.00000000E+00
12 13 2.21382036E-01 0.00000000E+00 0.00000000E+00 0.00000000E+00 0.00000000E+00
12 14 0.00000000E+00 0.00000000E+00-1.38864809E-02 0.00000000E+00 0.00000000E+00
12 15-2.18286394E-02 0.00000000E+00 0.00000000E+00 0.00000000E+00 0.00000000E+00
12 16 0.00000000E+00 0.00000000E+00 1.65501002E-03 0.00000000E+00 0.00000000E+00
12 17 0.00000000E+00 0.00000000E+00 1.97092639E-01 0.00000000E+00 0.00000000E+00
12 18 9.18943011E-02 0.00000000E+00 0.00000000E+00 0.00000000E+00 0.00000000E+00
12 19 0.00000000E+00 0.00000000E+00-3.32177242E-02 0.00000000E+00 0.00000000E+00
12 20 9.71669046E-03 0.00000000E+00 0.00000000E+00 0.00000000E+00 0.00000000E+00
12 21 0.00000000E+00 0.00000000E+00-1.66211017E-03 0.00000000E+00
13  1 0.00000000E+00 0.00000000E+00 0.00000000E+00 0.00000000E+00 0.00000000E+00
13  2-6.26833288E-03 0.00000000E+00 0.00000000E+00 1.13463385E-01 0.00000000E+00
13  3 0.00000000E+00 5.24255273E-02 0.00000000E+00 0.00000000E+00 0.00000000E+00
13  4 0.00000000E+00 0.00000000E+00 0.00000000E+00 4.08309572E-02 0.00000000E+00
13  5 0.00000000E+00-9.84677682E-03 0.00000000E+00 0.00000000E+00 0.00000000E+00
13  6 0.00000000E+00 0.00000000E+00 0.00000000E+00-1.38817038E-02 0.00000000E+00
13  7 0.00000000E+00 0.00000000E+00 0.00000000E+00 3.49068587E-01 0.00000000E+00
13  8 0.00000000E+00 2.10173175E-01 0.00000000E+00 0.00000000E+00 0.00000000E+00
13  9 0.00000000E+00 0.00000000E+00 0.00000000E+00 1.87194711E-02 0.00000000E+00
13 10 0.00000000E+00 4.79527243E-02 0.00000000E+00 0.00000000E+00 0.00000000E+00
13 11 0.00000000E+00 0.00000000E+00 0.00000000E+00-1.72863881E-02 0.00000000E+00
13 12 0.00000000E+00 0.00000000E+00 0.00000000E+00 3.95388071E-01 0.00000000E+00
13 13 0.00000000E+00 2.21382036E-01 0.00000000E+00 0.00000000E+00 0.00000000E+00
13 14 0.00000000E+00 0.00000000E+00 0.00000000E+00-1.38864809E-02 0.00000000E+00
13 15 0.00000000E+00-2.18286394E-02 0.00000000E+00 0.00000000E+00 0.00000000E+00
13 16 0.00000000E+00 0.00000000E+00 0.00000000E+00 1.65501002E-03 0.00000000E+00
13 17 0.00000000E+00 0.00000000E+00 0.00000000E+00 1.97092639E-01 0.00000000E+00
13 18 0.00000000E+00 9.18943011E-02 0.00000000E+00 0.00000000E+00 0.00000000E+00
13 19 0.00000000E+00 0.00000000E+00 0.00000000E+00-3.32177242E-02 0.00000000E+00
13 20 0.00000000E+00 9.71669046E-03 0.00000000E+00 0.00000000E+00 0.00000000E+00
13 21 0.00000000E+00 0.00000000E+00 0.00000000E+00-1.66211017E-03
14  1 5.61791317E-04-1.49273283E-03-1.38841121E-01-1.40752757E-01 0.00000000E+00
14  2 0.00000000E+00-2.11022713E-03 0.00000000E+00 0.00000000E+00 9.51067011E-02
14  3 0.00000000E+00 0.00000000E+00 7.74345060E-02-9.69954916E-03-9.69954916E-03
14  4 1.93990983E-02 0.00000000E+00 0.00000000E+00 0.00000000E+00-1.38657155E-02
14  5 0.00000000E+00 0.00000000E+00 2.29267006E-03-1.76391444E-03-1.76391444E-03