!   TiCH2 3-B2 state MCQDPT2 divergence problem, from Sergej Varganov
!   This is near a so-called "intruder state" singularity, to be
!   precise there is a small denominator, so EDSHFT should be used.
!   
!   Care is taken to use the exact same MCSCF wavefunction to pass
!   the identical orbitals into the three MR-PT programs,
!                 FINAL E=  -887.4043513553, 3 iters
!   Running with energy denominator shift of 1d-4 in all codes,
!    DETPT: E(ref)   = -887.404351355   E(MP2)    = -887.5709111967
!     MRMP: E(MCSCF) = -887.4043513541  E(MP2)    = -887.5709112116  <-this job
!    GMCPT: E(REF-CI)= -887.4043513475  E(GMC-PT2)= -887.5709118752
!        The latter program reports the reference is 87.891 %
!
!   This test takes 27 seconds on 2.66 GHz Cloverton (27 Apr 2015)
!   DETPT/MRMP/GMCPT took 80/73/77 secs on 1.2 GHz Power4+ in 2010
!
!   -----------------------------------------------------------------------
!   Data collected by Luke in December 2010, using CSFs for the MCSCF
!   step in the MRMP, shows how the denominator damping kicks in:
!       EDSHFT         E(MP2-MRMP)        E(MP2-DETPT)    diff(DETPT-MRMP)
!       4.0d-2       -887.5661953111    -887.5661953332    -0.0000000221
!       2.0d-2       -887.5676474917    -887.5676475150    -0.0000000233
!       1.0d-2       -887.5685960075    -887.5685960317    -0.0000000242
!       5.0d-3       -887.5692612024    -887.5692612268    -0.0000000244
!       1.0d-3       -887.5703184715    -887.5703184918    -0.0000000203
!       1.0d-4       -887.5709112566    -887.5709111967     0.0000000599
!       1.0d-5       -887.5703645220    -887.5703635883     0.0000009337
!       1.0d-6       -887.5645870551    -887.5645778063     0.0000092488
!       1.0d-7       -887.5157090249    -887.5156518980     0.0000571269
!       1.0d-8       -887.3400069216    -887.3401098448    -0.0001029232
!       1.0d-9       -887.2324412667    -887.2328979483    -0.0004566816
!        zero        -887.2139685721    -887.2145055000     0.0005369279
!
 $CONTRL SCFTYP=MCSCF RUNTYP=ENERGY MPLEVL=2 MULT=3 $END
 $SYSTEM parall=.t. mwords=25 memddi=0 $END
 $GUESS  GUESS=MOREAD NORB=94 $END
!
!    put the identical determinant based MCSCF into each PT
!    calculation so that they have identical reference orbitals.
 $MCSCF  CISTEP=aldet fullnr=.true. acurcy=1d-6 $END
 $det    stsym=b2 ncore=12 nact=8 nels=6 cvgtol=1d-7 $end

!    using determinants in Joe's program
--- $mrmp   mrpt=detmrpt $end
--- $detpt  edshft=1e-4 $end

!    using the MRMP/MCQDPT GUGA-based CSF program,
 $mrmp   mrpt=mcqdpt $end
 $MCQDPT STSYM=b2 REFWGT=.false. edshft=1d-4 thrcon=1d-7 thrgen=1d-12 $END

!    using determinants in the GMCPT program
--- $mrmp   MRPT=gmcpt $end
--- $gmcpt  nmofzc=10 nmodoc=2 nmoact=8 nelact=6 mult=3 stsym=b2
---         reftyp=ormas nspace=1 mstart(1)=13 mine(1)=6 maxe(1)=6
---         thrwgt=-1.0 krot=.false. kszdoe=.false.
---         thrde=-1.0 edshft=1d-4 thrgen=1d-12 thrhde=1d+10 $end

!    how to run the MCSCF over CSFs, would work with GMCPT or MRMP codes...
!       N.B. using CSFs gave E= -887.4116187717, 13 iters, for MCSCF!
!            which is a rather different result than determinants.
xxx $mcscf  cistep=guga $end
xxx $DRT    FORS=.T. GROUP=C2v NMCC=12 NDOC=2 NALP=2 NVAL=4 $END
xxx $gugdia cvgtol=1d-7 $end

 $DATA
TiCH2 3-B2 
Cnv 2

Ti         22.0     0.0000000000   0.0000000000  -0.6558246416
   TZV
   F 1 ; 1  0.59  1.0

C           6.0     0.0000000000   0.0000000000   1.4849748609
   TZV
   D 1 ; 1  0.75  1.0

H           1.0     0.0000000000  -0.8816312706   2.1214500236
   TZV
   P 1 ; 1  1.00  1.0

 $END

--- OPTIMIZED MCSCF MO-S --- GENERATED AT Mon Sep 13 22:50:33 1999
E(MCSCF)=     -887.4043513556,  0 ITERS, E(NUC)=   46.7593860515
 $VEC   
 1  1 1.66953584E-01 2.99763449E-01 4.18410985E-01 2.35710578E-01 2.16865170E-02
 1  2-4.26552359E-03 1.68895914E-03-1.91687518E-02 1.15254472E-02 1.56724313E-04
 1  3 0.00000000E+00 0.00000000E+00-6.84105558E-06 0.00000000E+00 0.00000000E+00
 1  4 7.36153478E-06 0.00000000E+00 0.00000000E+00-2.50788983E-06 0.00000000E+00
 1  5 0.00000000E+00-1.25615797E-06 0.00000000E+00 0.00000000E+00 3.70941626E-05
 1  6 0.00000000E+00 0.00000000E+00-1.02190296E-04 0.00000000E+00 0.00000000E+00
 1  7 1.27859184E-05 0.00000000E+00 0.00000000E+00-1.70904842E-06 4.85346852E-03
 1  8 4.85343585E-03 4.85232465E-03 0.00000000E+00 0.00000000E+00 0.00000000E+00
 1  9-2.46765416E-03-2.46758274E-03-2.46713176E-03 0.00000000E+00 0.00000000E+00
 1 10 0.00000000E+00-3.09448328E-05-3.14802424E-05-3.03108023E-05 0.00000000E+00
 1 11 0.00000000E+00 0.00000000E+00 0.00000000E+00 0.00000000E+00 4.63066712E-05
 1 12 0.00000000E+00 2.06223021E-05 0.00000000E+00 2.02930274E-05 0.00000000E+00
 1 13 0.00000000E+00 0.00000000E+00 3.03229281E-07-9.15451752E-07-3.73611583E-06
 1 14 1.56857237E-05-1.57036037E-05 0.00000000E+00 0.00000000E+00-2.27562951E-06
 1 15 0.00000000E+00 0.00000000E+00-1.58258308E-06 0.00000000E+00 0.00000000E+00
 1 16 3.90910495E-06-2.73510628E-06 2.10032148E-07-3.23044430E-06 0.00000000E+00
 1 17 0.00000000E+00 0.00000000E+00-8.68150234E-08-2.91832426E-06 5.88327252E-06
 1 18 0.00000000E+00 2.68215667E-07 2.52130264E-06-8.68150234E-08-2.91832426E-06
 1 19 5.88327252E-06 0.00000000E+00-2.68215667E-07 2.52130264E-06
 2  1-5.16495225E-02-1.09814214E-01-2.06195105E-01-1.41069410E-01 5.23636477E-01
 2  2 6.13774247E-01 4.42169812E-02-3.34824195E-01 1.40291322E-01-8.87653980E-03
 2  3 0.00000000E+00 0.00000000E+00 2.57239085E-04 0.00000000E+00 0.00000000E+00
 2  4 3.23434074E-04 0.00000000E+00 0.00000000E+00 3.88687005E-04 0.00000000E+00
 2  5 0.00000000E+00 1.39654423E-04 0.00000000E+00 0.00000000E+00-7.32443034E-04
 2  6 0.00000000E+00 0.00000000E+00 1.99102616E-03 0.00000000E+00 0.00000000E+00
 2  7-2.28262628E-04 0.00000000E+00 0.00000000E+00-5.62655177E-05 1.07639003E-01
 2  8 1.07627002E-01 1.07336341E-01 0.00000000E+00 0.00000000E+00 0.00000000E+00
 2  9-2.42278116E-02-2.42199113E-02-2.41445125E-02 0.00000000E+00 0.00000000E+00
 2 10 0.00000000E+00 9.38071921E-04 9.46130126E-04 8.43078184E-04 0.00000000E+00
 2 11 0.00000000E+00 0.00000000E+00 0.00000000E+00 0.00000000E+00-9.02077464E-04
 2 12 0.00000000E+00-3.97959159E-04 0.00000000E+00-3.86852386E-04 0.00000000E+00
 2 13 0.00000000E+00 0.00000000E+00 1.49665040E-05 7.32827062E-05 2.02125298E-04
 2 14-7.75667468E-04 2.65306269E-04 0.00000000E+00 0.00000000E+00 1.64222204E-04
 2 15 0.00000000E+00 0.00000000E+00 1.77339761E-04 0.00000000E+00 0.00000000E+00
 2 16-5.44860716E-05 1.43865240E-04 1.03235092E-04 1.20948548E-04 0.00000000E+00
 2 17 0.00000000E+00 0.00000000E+00 7.73237644E-06 7.35840691E-05-7.38503454E-05
 2 18 0.00000000E+00-1.72755861E-06-3.58981661E-05 7.73237644E-06 7.35840691E-05
 2 19-7.38503454E-05 0.00000000E+00 1.72755861E-06-3.58981661E-05
 3  1 0.00000000E+00 0.00000000E+00 0.00000000E+00 0.00000000E+00 0.00000000E+00
 3  2 0.00000000E+00 0.00000000E+00 0.00000000E+00 0.00000000E+00 0.00000000E+00
 3  3 3.14836946E-01 0.00000000E+00 0.00000000E+00 4.26377730E-01 0.00000000E+00
 3  4 0.00000000E+00 3.57014514E-01 0.00000000E+00 0.00000000E+00 7.34914133E-02
 3  5 0.00000000E+00 0.00000000E+00-2.35706643E-03 0.00000000E+00 0.00000000E+00
 3  6-2.74172678E-03 0.00000000E+00 0.00000000E+00-6.64264981E-04 0.00000000E+00
 3  7 0.00000000E+00 2.82629068E-04 0.00000000E+00 0.00000000E+00 0.00000000E+00
 3  8 0.00000000E+00 0.00000000E+00 0.00000000E+00 8.57091088E-05 0.00000000E+00
 3  9 0.00000000E+00 0.00000000E+00 0.00000000E+00 0.00000000E+00-6.43881404E-05
 3 10 0.00000000E+00 0.00000000E+00 0.00000000E+00 0.00000000E+00 0.00000000E+00
 3 11 3.29578645E-05 0.00000000E+00 2.44324271E-03 0.00000000E+00 0.00000000E+00
 3 12 0.00000000E+00 0.00000000E+00 1.09273597E-03 0.00000000E+00 1.25263434E-03
 3 13 0.00000000E+00 0.00000000E+00 0.00000000E+00 0.00000000E+00 0.00000000E+00
 3 14 0.00000000E+00 0.00000000E+00-1.06225616E-05 0.00000000E+00 0.00000000E+00
 3 15 2.82727893E-05 0.00000000E+00 0.00000000E+00-6.81975887E-05 0.00000000E+00
 3 16 0.00000000E+00 0.00000000E+00 0.00000000E+00 0.00000000E+00 0.00000000E+00
 3 17-7.37432096E-06 0.00000000E+00 0.00000000E+00 0.00000000E+00 0.00000000E+00
 3 18-3.88054444E-06 0.00000000E+00 0.00000000E+00 0.00000000E+00 0.00000000E+00
 3 19 0.00000000E+00-3.88054444E-06 0.00000000E+00 0.00000000E+00
 4  1 0.00000000E+00 0.00000000E+00 0.00000000E+00 0.00000000E+00 0.00000000E+00
 4  2 0.00000000E+00 0.00000000E+00 0.00000000E+00 0.00000000E+00 0.00000000E+00
 4  3 0.00000000E+00 3.14837806E-01 0.00000000E+00 0.00000000E+00 4.26379685E-01
 4  4 0.00000000E+00 0.00000000E+00 3.57003072E-01 0.00000000E+00 0.00000000E+00
 4  5 7.35041654E-02 0.00000000E+00 0.00000000E+00-2.41174578E-03 0.00000000E+00
 4  6 0.00000000E+00-2.56601376E-03 0.00000000E+00 0.00000000E+00-6.93178950E-04
 4  7 0.00000000E+00 0.00000000E+00 2.53952062E-04 0.00000000E+00 0.00000000E+00
 4  8 0.00000000E+00 0.00000000E+00 0.00000000E+00 0.00000000E+00 8.41520125E-05
 4  9 0.00000000E+00 0.00000000E+00 0.00000000E+00 0.00000000E+00 0.00000000E+00
 4 10-5.73547930E-05 0.00000000E+00 0.00000000E+00 0.00000000E+00 0.00000000E+00
 4 11 0.00000000E+00-5.81339834E-07 0.00000000E+00 2.36742979E-03 0.00000000E+00
 4 12 1.05842961E-03 0.00000000E+00 0.00000000E+00 0.00000000E+00 0.00000000E+00
 4 13 1.21928995E-03 0.00000000E+00 0.00000000E+00 0.00000000E+00 0.00000000E+00
 4 14 0.00000000E+00 0.00000000E+00 0.00000000E+00 4.76070767E-06 0.00000000E+00
 4 15 0.00000000E+00 7.77701620E-06 0.00000000E+00 0.00000000E+00 1.11021871E-04
 4 16 0.00000000E+00 0.00000000E+00 0.00000000E+00 0.00000000E+00 0.00000000E+00
 4 17 0.00000000E+00 3.32391548E-06-5.99486629E-06 6.13017129E-06-1.27119680E-04
 4 18 0.00000000E+00 1.09560030E-06 4.08963352E-06 5.99486629E-06-6.13017129E-06
 4 19 1.27119680E-04 0.00000000E+00 1.09560030E-06-4.08963352E-06
 5  1 4.31199513E-05 9.11904590E-05 1.73672057E-04 1.13365226E-04-4.65945320E-04
 5  2-3.65011516E-04-2.82011731E-04 3.75971104E-04-2.92659581E-05-6.66766643E-04
 5  3 0.00000000E+00 0.00000000E+00 3.14937329E-01 0.00000000E+00 0.00000000E+00
 5  4 4.26534094E-01 0.00000000E+00 0.00000000E+00 3.56849429E-01 0.00000000E+00
 5  5 0.00000000E+00 7.34469509E-02 0.00000000E+00 0.00000000E+00-3.49771984E-03
 5  6 0.00000000E+00 0.00000000E+00 1.91595470E-04 0.00000000E+00 0.00000000E+00
 5  7-1.22241882E-03 0.00000000E+00 0.00000000E+00 2.51875240E-04-2.61346114E-04
 5  8-2.36034985E-04 1.06559900E-04 0.00000000E+00 0.00000000E+00 0.00000000E+00
 5  9 1.50600476E-04 1.30063624E-04 6.47291668E-05 0.00000000E+00 0.00000000E+00
 5 10 0.00000000E+00 7.40723056E-05 6.76813806E-05-4.13280219E-05 0.00000000E+00
 5 11 0.00000000E+00 0.00000000E+00 0.00000000E+00 0.00000000E+00 1.07073053E-03
 5 12 0.00000000E+00 7.26139682E-04 0.00000000E+00 7.26180890E-04 0.00000000E+00
 5 13 0.00000000E+00 0.00000000E+00-3.95160279E-05-7.99646075E-05 1.24090467E-04
 5 14-6.18818727E-06 7.15733852E-04 0.00000000E+00 0.00000000E+00-2.43505850E-04
 5 15 0.00000000E+00 0.00000000E+00-2.55459295E-04 0.00000000E+00 0.00000000E+00
 5 16-3.59076808E-04 4.13400014E-05 7.08333728E-05 2.77561007E-05 0.00000000E+00
 5 17 0.00000000E+00 0.00000000E+00-1.78357060E-05-1.16327960E-04 1.53469554E-05
 5 18 0.00000000E+00-1.97159985E-07 2.07804158E-05-1.78357060E-05-1.16327960E-04
 5 19 1.53469554E-05 0.00000000E+00 1.97159985E-07 2.07804158E-05
 6  1 1.14236326E-05 2.49931584E-05 4.78227908E-05 3.73501009E-05-1.80635012E-04
 6  2-3.36081866E-04 5.71200436E-04 8.64284923E-04-2.67332188E-04-3.16863258E-04
 6  3 0.00000000E+00 0.00000000E+00-1.01015009E-04 0.00000000E+00 0.00000000E+00
 6  4-1.49835933E-04 0.00000000E+00 0.00000000E+00-1.15700346E-04 0.00000000E+00
 6  5 0.00000000E+00 2.95884188E-04 0.00000000E+00 0.00000000E+00 2.91398275E-04
 6  6 0.00000000E+00 0.00000000E+00 1.01540131E-03 0.00000000E+00 0.00000000E+00
 6  7-5.23514323E-04 0.00000000E+00 0.00000000E+00 3.29002217E-04 2.65092251E-04
 6  8 2.88150341E-04-6.31478163E-04 0.00000000E+00 0.00000000E+00 0.00000000E+00
 6  9 2.79285698E-04 2.72947842E-04-6.44031650E-04 0.00000000E+00 0.00000000E+00
 6 10 0.00000000E+00 2.58808728E-05 7.36781791E-05 8.73885996E-05 0.00000000E+00
 6 11 0.00000000E+00 0.00000000E+00 0.00000000E+00 0.00000000E+00-4.55888978E-04
 6 12 0.00000000E+00-1.09978175E-04 0.00000000E+00-1.19934933E-04 0.00000000E+00
 6 13 0.00000000E+00 0.00000000E+00 5.76279040E-01 4.55893215E-01 4.27532301E-02
 6 14 1.15763909E-02-2.20237608E-03 0.00000000E+00 0.00000000E+00 2.80741414E-03
 6 15 0.00000000E+00 0.00000000E+00-9.93238440E-05 0.00000000E+00 0.00000000E+00
 6 16 1.59037032E-03-5.58627944E-03-5.18414186E-03-5.05939206E-03 0.00000000E+00
 6 17 0.00000000E+00 0.00000000E+00 4.97057220E-04 5.58535186E-04-1.08266943E-04
 6 18 0.00000000E+00-7.77760820E-05 2.23016492E-05 4.97057220E-04 5.58535186E-04
 6 19-1.08266943E-04 0.00000000E+00 7.77760820E-05 2.23016492E-05
 7  1 1.84686688E-02 4.04837274E-02 7.63363705E-02 6.03045274E-02-2.84226226E-01
 7  2-4.86077269E-01 6.49480430E-01 8.44155041E-01-2.08346002E-01 2.40483811E-04
 7  3 0.00000000E+00 0.00000000E+00 5.93850920E-04 0.00000000E+00 0.00000000E+00
 7  4 9.97834783E-04 0.00000000E+00 0.00000000E+00 2.22155542E-04 0.00000000E+00
 7  5 0.00000000E+00 2.07458444E-04 0.00000000E+00 0.00000000E+00-4.96186608E-03
 7  6 0.00000000E+00 0.00000000E+00-1.89241740E-03 0.00000000E+00 0.00000000E+00
 7  7-1.17462847E-04 0.00000000E+00 0.00000000E+00 1.44812861E-04-5.10383093E-02
 7  8-5.14439529E-02-5.92700620E-02 0.00000000E+00 0.00000000E+00 0.00000000E+00
 7  9 5.19330073E-02 5.19657589E-02 5.09685804E-02 0.00000000E+00 0.00000000E+00
 7 10 0.00000000E+00 3.86844764E-04 3.51406511E-04 7.24109307E-04 0.00000000E+00
 7 11 0.00000000E+00 0.00000000E+00 0.00000000E+00 0.00000000E+00-1.47794703E-03
 7 12 0.00000000E+00-3.10848054E-04 0.00000000E+00-1.01916868E-04 0.00000000E+00
 7 13 0.00000000E+00 0.00000000E+00-1.13331871E-03-1.70151213E-03 8.63233002E-04
 7 14 2.82804175E-03 4.60781936E-03 0.00000000E+00 0.00000000E+00-3.87042552E-03
 7 15 0.00000000E+00 0.00000000E+00-3.96731455E-03 0.00000000E+00 0.00000000E+00
 7 16-1.93540954E-04 4.46224145E-05-1.87690803E-04 1.32126914E-03 0.00000000E+00
 7 17 0.00000000E+00 0.00000000E+00-9.83030902E-05-2.44179996E-04-1.04942498E-03
 7 18 0.00000000E+00-3.37729623E-07-7.15897463E-05-9.83030902E-05-2.44179996E-04
 7 19-1.04942498E-03 0.00000000E+00 3.37729623E-07-7.15897463E-05
 8  1 0.00000000E+00 0.00000000E+00 0.00000000E+00 0.00000000E+00 0.00000000E+00
 8  2 0.00000000E+00 0.00000000E+00 0.00000000E+00 0.00000000E+00 0.00000000E+00
 8  3-1.13378945E-01 0.00000000E+00 0.00000000E+00-1.72461469E-01 0.00000000E+00
 8  4 0.00000000E+00-1.18896327E-01 0.00000000E+00 0.00000000E+00 2.67404855E-01
 8  5 0.00000000E+00 0.00000000E+00 6.69986359E-01 0.00000000E+00 0.00000000E+00
 8  6 5.71026299E-02 0.00000000E+00 0.00000000E+00 3.51927928E-02 0.00000000E+00
 8  7 0.00000000E+00-2.77606161E-03 0.00000000E+00 0.00000000E+00 0.00000000E+00
 8  8 0.00000000E+00 0.00000000E+00 0.00000000E+00-1.79216608E-03 0.00000000E+00
 8  9 0.00000000E+00 0.00000000E+00 0.00000000E+00 0.00000000E+00-3.07051244E-03
 8 10 0.00000000E+00 0.00000000E+00 0.00000000E+00 0.00000000E+00 0.00000000E+00
 8 11 8.00386145E-05 0.00000000E+00 1.02330179E-01 0.00000000E+00 0.00000000E+00
 8 12 0.00000000E+00 0.00000000E+00 4.58236927E-02 0.00000000E+00 4.62254753E-02
 8 13 0.00000000E+00 0.00000000E+00 0.00000000E+00 0.00000000E+00 0.00000000E+00
 8 14 0.00000000E+00 0.00000000E+00 2.01113002E-03 0.00000000E+00 0.00000000E+00
 8 15 2.19293669E-03 0.00000000E+00 0.00000000E+00-7.30689825E-05 0.00000000E+00
 8 16 0.00000000E+00 0.00000000E+00 0.00000000E+00 0.00000000E+00 0.00000000E+00
 8 17-1.19975411E-03 0.00000000E+00 0.00000000E+00 0.00000000E+00 0.00000000E+00
 8 18-5.25522981E-06 0.00000000E+00 0.00000000E+00 0.00000000E+00 0.00000000E+00
 8 19 0.00000000E+00-5.25522981E-06 0.00000000E+00 0.00000000E+00
 9  1 0.00000000E+00 0.00000000E+00 0.00000000E+00 0.00000000E+00 0.00000000E+00
 9  2 0.00000000E+00 0.00000000E+00 0.00000000E+00 0.00000000E+00 0.00000000E+00
 9  3 0.00000000E+00-1.13361036E-01 0.00000000E+00 0.00000000E+00-1.72435851E-01
 9  4 0.00000000E+00 0.00000000E+00-1.18855453E-01 0.00000000E+00 0.00000000E+00
 9  5 2.67290088E-01 0.00000000E+00 0.00000000E+00 6.69840759E-01 0.00000000E+00
 9  6 0.00000000E+00 5.72244787E-02 0.00000000E+00 0.00000000E+00 3.51864502E-02
 9  7 0.00000000E+00 0.00000000E+00-2.62044332E-03 0.00000000E+00 0.00000000E+00
 9  8 0.00000000E+00 0.00000000E+00 0.00000000E+00 0.00000000E+00 4.38726653E-04
 9  9 0.00000000E+00 0.00000000E+00 0.00000000E+00 0.00000000E+00 0.00000000E+00
 9 10-3.97041238E-03 0.00000000E+00 0.00000000E+00 0.00000000E+00 0.00000000E+00
 9 11 0.00000000E+00-2.39310893E-04 0.00000000E+00 1.02637972E-01 0.00000000E+00
 9 12 4.58366384E-02 0.00000000E+00 0.00000000E+00 0.00000000E+00 0.00000000E+00
 9 13 4.60911866E-02 0.00000000E+00 0.00000000E+00 0.00000000E+00 0.00000000E+00
 9 14 0.00000000E+00 0.00000000E+00 0.00000000E+00 1.25963148E-03 0.00000000E+00
 9 15 0.00000000E+00 1.91849230E-03 0.00000000E+00 0.00000000E+00-6.36864543E-04
 9 16 0.00000000E+00 0.00000000E+00 0.00000000E+00 0.00000000E+00 0.00000000E+00
 9 17 0.00000000E+00-7.77427479E-04 3.40755260E-04-6.23090436E-04 9.53445246E-04
 9 18 0.00000000E+00-1.09858541E-04 7.08151085E-05-3.40755260E-04 6.23090436E-04
 9 19-9.53445246E-04 0.00000000E+00-1.09858541E-04-7.08151085E-05
10  1 5.39218035E-05 1.24243234E-04 2.04829181E-04 9.95552439E-05-1.05314766E-03
10  2-2.20184597E-03 7.22679452E-03-2.86239784E-03 6.42944881E-04 1.05027570E-02
10  3 0.00000000E+00 0.00000000E+00-1.12704318E-01 0.00000000E+00 0.00000000E+00
10  4-1.71396849E-01 0.00000000E+00 0.00000000E+00-1.18091759E-01 0.00000000E+00
10  5 0.00000000E+00 2.66782633E-01 0.00000000E+00 0.00000000E+00 6.66307307E-01
10  6 0.00000000E+00 0.00000000E+00 4.44831478E-02 0.00000000E+00 0.00000000E+00
10  7 4.03852024E-02 0.00000000E+00 0.00000000E+00 3.06001838E-03-3.09330873E-04
10  8 9.29310841E-04-8.78963498E-03 0.00000000E+00 0.00000000E+00 0.00000000E+00
10  9-6.48505201E-04-1.52895068E-03 2.92439980E-04 0.00000000E+00 0.00000000E+00
10 10 0.00000000E+00-4.59447596E-04-7.52711433E-04 4.49072372E-03 0.00000000E+00
10 11 0.00000000E+00 0.00000000E+00 0.00000000E+00 0.00000000E+00 9.84959374E-02
10 12 0.00000000E+00 5.30918535E-02 0.00000000E+00 5.29263247E-02 0.00000000E+00
10 13 0.00000000E+00 0.00000000E+00-6.21121268E-03-9.82112599E-03-1.39098975E-03
10 14 3.43519075E-02 1.01528309E-02 0.00000000E+00 0.00000000E+00-1.88983179E-02
10 15 0.00000000E+00 0.00000000E+00-1.69800981E-02 0.00000000E+00 0.00000000E+00
10 16 2.65603444E-03-3.05245112E-03-3.54217831E-03 1.71769731E-03 0.00000000E+00
10 17 0.00000000E+00 0.00000000E+00 2.85567534E-05 1.67896403E-04-5.22647836E-03
10 18 0.00000000E+00-3.93722749E-05-2.83050262E-04 2.85567534E-05 1.67896403E-04
10 19-5.22647836E-03 0.00000000E+00 3.93722749E-05-2.83050262E-04
11  1 9.86529749E-05 2.19183717E-04 4.06995566E-04 3.27395032E-04-1.73675306E-03
11  2-3.21446503E-03 6.56867771E-03 1.39413982E-02-4.33954663E-03-1.69864675E-02
11  3 0.00000000E+00 0.00000000E+00 2.34977687E-03 0.00000000E+00 0.00000000E+00
11  4 3.57607843E-03 0.00000000E+00 0.00000000E+00 2.45141174E-03 0.00000000E+00
11  5 0.00000000E+00-5.35818458E-03 0.00000000E+00 0.00000000E+00-1.35639396E-02
11  6 0.00000000E+00 0.00000000E+00-1.30692373E-03 0.00000000E+00 0.00000000E+00
11  7 6.29318940E-03 0.00000000E+00 0.00000000E+00-1.58690889E-02 7.69213241E-03
11  8 8.52165071E-03-1.84012789E-02 0.00000000E+00 0.00000000E+00 0.00000000E+00
11  9 3.03952473E-03 3.74742361E-03-6.83717132E-03 0.00000000E+00 0.00000000E+00
11 10 0.00000000E+00-3.85463939E-03-4.00863165E-04-1.46859617E-02 0.00000000E+00
11 11 0.00000000E+00 0.00000000E+00 0.00000000E+00 0.00000000E+00-1.06108753E-03
11 12 0.00000000E+00-1.89860894E-03 0.00000000E+00-1.69502907E-03 0.00000000E+00
11 13 0.00000000E+00 0.00000000E+00-9.12387834E-02-1.48501722E-01 6.67014519E-02
11 14 3.30962906E-01 1.79995262E-01 0.00000000E+00 0.00000000E+00 1.93487441E-01
11 15 0.00000000E+00 0.00000000E+00 1.23766249E-01 0.00000000E+00 0.00000000E+00
11 16 5.27563553E-02-7.83999115E-03 2.16010530E-02 1.44177612E-02 0.00000000E+00
11 17 0.00000000E+00 0.00000000E+00 1.27521767E-01 1.71865024E-01 4.19201726E-02
11 18 0.00000000E+00-1.64321788E-02-7.22218078E-03 1.27521767E-01 1.71865024E-01
11 19 4.19201726E-02 0.00000000E+00 1.64321788E-02-7.22218078E-03
12  1 0.00000000E+00 0.00000000E+00 0.00000000E+00 0.00000000E+00 0.00000000E+00
12  2 0.00000000E+00 0.00000000E+00 0.00000000E+00 0.00000000E+00 0.00000000E+00
12  3 0.00000000E+00 2.80392007E-03 0.00000000E+00 0.00000000E+00 4.42403857E-03
12  4 0.00000000E+00 0.00000000E+00 2.53811482E-03 0.00000000E+00 0.00000000E+00
12  5-6.09123408E-03 0.00000000E+00 0.00000000E+00-2.90196386E-02 0.00000000E+00
12  6 0.00000000E+00 2.34585430E-02 0.00000000E+00 0.00000000E+00 3.07025427E-03
12  7 0.00000000E+00 0.00000000E+00-3.12954742E-04 0.00000000E+00 0.00000000E+00
12  8 0.00000000E+00 0.00000000E+00 0.00000000E+00 0.00000000E+00 1.79539475E-02
12  9 0.00000000E+00 0.00000000E+00 0.00000000E+00 0.00000000E+00 0.00000000E+00
12 10 1.42927224E-02 0.00000000E+00 0.00000000E+00 0.00000000E+00 0.00000000E+00
12 11 0.00000000E+00-4.40029127E-03 0.00000000E+00-1.57134809E-02 0.00000000E+00
12 12-7.07724114E-03 0.00000000E+00 0.00000000E+00 0.00000000E+00 0.00000000E+00
12 13-1.79924723E-03 0.00000000E+00 0.00000000E+00 0.00000000E+00 0.00000000E+00
12 14 0.00000000E+00 0.00000000E+00 0.00000000E+00 3.42160935E-01 0.00000000E+00
12 15 0.00000000E+00 2.27315319E-01 0.00000000E+00 0.00000000E+00 1.09422226E-01
12 16 0.00000000E+00 0.00000000E+00 0.00000000E+00 0.00000000E+00 0.00000000E+00
12 17 0.00000000E+00 3.20348283E-02 1.45492511E-01 2.20326539E-01 8.58375055E-02
12 18 0.00000000E+00-7.62810991E-03-1.18134816E-02-1.45492511E-01-2.20326539E-01
12 19-8.58375055E-02 0.00000000E+00-7.62810991E-03 1.18134816E-02
13  1 2.77947193E-03 6.12561616E-03 1.14908034E-02 9.22347828E-03-4.53313479E-02
13  2-8.03899094E-02 1.34902245E-01 2.30614445E-01-1.03499960E-01-1.48107244E-01
13  3 0.00000000E+00 0.00000000E+00-2.22129774E-02 0.00000000E+00 0.00000000E+00
13  4-3.48121918E-02 0.00000000E+00 0.00000000E+00-2.09673243E-02 0.00000000E+00
13  5 0.00000000E+00 5.40931430E-02 0.00000000E+00 0.00000000E+00 1.92326107E-01
13  6 0.00000000E+00 0.00000000E+00-8.12758556E-02 0.00000000E+00 0.00000000E+00
13  7-8.40145081E-02 0.00000000E+00 0.00000000E+00-6.46320310E-02 7.92206738E-02
13  8 7.09350781E-02-1.84116400E-01 0.00000000E+00 0.00000000E+00 0.00000000E+00
13  9 6.02525340E-02 5.78123790E-02-1.41283920E-01 0.00000000E+00 0.00000000E+00
13 10 0.00000000E+00-1.80948146E-03 8.99371776E-04-4.71378938E-02 0.00000000E+00
13 11 0.00000000E+00 0.00000000E+00 0.00000000E+00 0.00000000E+00 3.75120006E-02
13 12 0.00000000E+00 3.35274951E-02 0.00000000E+00 3.61268926E-02 0.00000000E+00
13 13 0.00000000E+00 0.00000000E+00 5.89523019E-02 9.81731589E-02-1.35160451E-02
13 14-2.83786491E-01-2.81778359E-01 0.00000000E+00 0.00000000E+00 2.86303737E-01
13 15 0.00000000E+00 0.00000000E+00 2.46303153E-01 0.00000000E+00 0.00000000E+00
13 16 1.45090089E-01 5.77321357E-03 7.20387352E-03 6.95266516E-03 0.00000000E+00
13 17 0.00000000E+00 0.00000000E+00 3.15327798E-02 6.49276077E-02 5.85149640E-02
13 18 0.00000000E+00-4.21513272E-03 6.75382270E-03 3.15327798E-02 6.49276077E-02
13 19 5.85149640E-02 0.00000000E+00 4.21513272E-03 6.75382270E-03
14  1 0.00000000E+00 0.00000000E+00 0.00000000E+00 0.00000000E+00 0.00000000E+00
14  2 0.00000000E+00 0.00000000E+00 0.00000000E+00 0.00000000E+00 0.00000000E+00
14  3 4.28688318E-03 0.00000000E+00 0.00000000E+00 6.81152665E-03 0.00000000E+00
14  4 0.00000000E+00 3.71154110E-03 0.00000000E+00 0.00000000E+00-8.91179718E-03
14  5 0.00000000E+00 0.00000000E+00-4.90238766E-02 0.00000000E+00 0.00000000E+00
14  6 4.39354876E-02 0.00000000E+00 0.00000000E+00 7.79740208E-03 0.00000000E+00
14  7 0.00000000E+00 3.23083974E-02 0.00000000E+00 0.00000000E+00 0.00000000E+00
14  8 0.00000000E+00 0.00000000E+00 0.00000000E+00 3.96240238E-01 0.00000000E+00
14  9 0.00000000E+00 0.00000000E+00 0.00000000E+00 0.00000000E+00 2.34259110E-01
14 10 0.00000000E+00 0.00000000E+00 0.00000000E+00 0.00000000E+00 0.00000000E+00
14 11 8.00092991E-02 0.00000000E+00-3.02573429E-02 0.00000000E+00 0.00000000E+00
14 12 0.00000000E+00 0.00000000E+00-1.34953234E-02 0.00000000E+00-5.02914184E-03
14 13 0.00000000E+00 0.00000000E+00 0.00000000E+00 0.00000000E+00 0.00000000E+00
14 14 0.00000000E+00 0.00000000E+00 3.33305801E-01 0.00000000E+00 0.00000000E+00
14 15 3.03182153E-01 0.00000000E+00 0.00000000E+00 2.17021629E-01 0.00000000E+00
14 16 0.00000000E+00 0.00000000E+00 0.00000000E+00 0.00000000E+00 0.00000000E+00
14 17-4.20207479E-03 0.00000000E+00 0.00000000E+00 0.00000000E+00 0.00000000E+00
14 18 1.08614250E-02 0.00000000E+00 0.00000000E+00 0.00000000E+00 0.00000000E+00
14 19 0.00000000E+00 1.08614250E-02 0.00000000E+00 0.00000000E+00
15  1 3.36404633E-03 7.53628903E-03 1.35216906E-02 9.64888959E-03-5.98883065E-02
15  2-1.07469121E-01 2.10672404E-01 1.52302243E-01 1.88843431E-01-2.58668830E-01
15  3 0.00000000E+00 0.00000000E+00 1.55574708E-02 0.00000000E+00 0.00000000E+00
15  4 2.45710190E-02 0.00000000E+00 0.00000000E+00 1.41791898E-02 0.00000000E+00
15  5 0.00000000E+00-3.72257534E-02 0.00000000E+00 0.00000000E+00-1.61075562E-01
15  6 0.00000000E+00 0.00000000E+00 9.93519550E-02 0.00000000E+00 0.00000000E+00
15  7 1.24612380E-01 0.00000000E+00 0.00000000E+00 4.28870927E-01-1.17264820E-01
15  8-1.34741183E-01 5.52161982E-02 0.00000000E+00 0.00000000E+00 0.00000000E+00
15  9-1.92467783E-01-2.08325256E-01-4.98208832E-02 0.00000000E+00 0.00000000E+00
15 10 0.00000000E+00-2.38384908E-01-2.53446677E-01-1.48747380E-01 0.00000000E+00
15 11 0.00000000E+00 0.00000000E+00 0.00000000E+00 0.00000000E+00-6.72643235E-02
15 12 0.00000000E+00-2.99828301E-02 0.00000000E+00-2.81507415E-02 0.00000000E+00
15 13 0.00000000E+00 0.00000000E+00-9.28891811E-03-1.45735122E-02-2.51850240E-03
15 14 4.18307806E-02 3.31820091E-02 0.00000000E+00 0.00000000E+00-3.66226149E-02
15 15 0.00000000E+00 0.00000000E+00-2.97392825E-02 0.00000000E+00 0.00000000E+00
15 16-2.06573200E-02-2.84882284E-03 1.23686144E-03-3.68156039E-03 0.00000000E+00
15 17 0.00000000E+00 0.00000000E+00-7.15354405E-03-6.32198310E-03-4.60916818E-02
15 18 0.00000000E+00 6.46399640E-04-1.82554979E-03-7.15354405E-03-6.32198310E-03
15 19-4.60916818E-02 0.00000000E+00-6.46399640E-04-1.82554979E-03
16  1 0.00000000E+00 0.00000000E+00 0.00000000E+00 0.00000000E+00 0.00000000E+00
16  2 0.00000000E+00 0.00000000E+00 0.00000000E+00 0.00000000E+00 0.00000000E+00
16  3 0.00000000E+00-3.87639290E-03 0.00000000E+00 0.00000000E+00-6.00244413E-03
16  4 0.00000000E+00 0.00000000E+00-3.93878166E-03 0.00000000E+00 0.00000000E+00
16  5 1.13610923E-02 0.00000000E+00 0.00000000E+00 2.77884017E-02 0.00000000E+00
16  6 0.00000000E+00 1.10069292E-03 0.00000000E+00 0.00000000E+00-4.70199352E-02
16  7 0.00000000E+00 0.00000000E+00-3.52123583E-02 0.00000000E+00 0.00000000E+00
16  8 0.00000000E+00 0.00000000E+00 0.00000000E+00 0.00000000E+00 7.39393541E-01
16  9 0.00000000E+00 0.00000000E+00 0.00000000E+00 0.00000000E+00 0.00000000E+00
16 10 3.83286075E-01 0.00000000E+00 0.00000000E+00 0.00000000E+00 0.00000000E+00
16 11 0.00000000E+00 1.04158617E-01 0.00000000E+00 5.22965422E-03 0.00000000E+00
16 12 2.29334088E-03 0.00000000E+00 0.00000000E+00 0.00000000E+00 0.00000000E+00
16 13-7.11701680E-03 0.00000000E+00 0.00000000E+00 0.00000000E+00 0.00000000E+00
16 14 0.00000000E+00 0.00000000E+00 0.00000000E+00-1.59101092E-02 0.00000000E+00
16 15 0.00000000E+00-1.40736914E-02 0.00000000E+00 0.00000000E+00-2.01535565E-02
16 16 0.00000000E+00 0.00000000E+00 0.00000000E+00 0.00000000E+00 0.00000000E+00
16 17 0.00000000E+00-9.54304936E-03-1.63072396E-02-2.62035938E-02-3.60549009E-02
16 18 0.00000000E+00 1.19434486E-04-4.40691891E-04 1.63072396E-02 2.62035938E-02
16 19 3.60549009E-02 0.00000000E+00 1.19434486E-04 4.40691891E-04
17  1 0.00000000E+00 0.00000000E+00 0.00000000E+00 0.00000000E+00 0.00000000E+00
17  2 0.00000000E+00 0.00000000E+00 0.00000000E+00 0.00000000E+00 0.00000000E+00
17  3 0.00000000E+00 0.00000000E+00 0.00000000E+00 0.00000000E+00 0.00000000E+00
17  4 0.00000000E+00 0.00000000E+00 0.00000000E+00 0.00000000E+00 0.00000000E+00
17  5 0.00000000E+00 0.00000000E+00 0.00000000E+00 0.00000000E+00 0.00000000E+00
17  6 0.00000000E+00 0.00000000E+00 0.00000000E+00 0.00000000E+00 0.00000000E+00
17  7 0.00000000E+00 0.00000000E+00 0.00000000E+00 0.00000000E+00 0.00000000E+00
17  8 0.00000000E+00 0.00000000E+00 7.35145750E-01 0.00000000E+00 0.00000000E+00
17  9 0.00000000E+00 0.00000000E+00 0.00000000E+00 3.91973827E-01 0.00000000E+00
17 10 0.00000000E+00 0.00000000E+00 0.00000000E+00 0.00000000E+00 9.47996563E-02
17 11 0.00000000E+00 0.00000000E+00 0.00000000E+00 0.00000000E+00 0.00000000E+00
17 12 0.00000000E+00 0.00000000E+00 0.00000000E+00 0.00000000E+00 0.00000000E+00
17 13 0.00000000E+00-6.75073628E-03 0.00000000E+00 0.00000000E+00 0.00000000E+00
17 14 0.00000000E+00 0.00000000E+00 0.00000000E+00 0.00000000E+00 0.00000000E+00
17 15 0.00000000E+00 0.00000000E+00 0.00000000E+00 0.00000000E+00 0.00000000E+00
17 16 0.00000000E+00 0.00000000E+00 0.00000000E+00 0.00000000E+00 1.66136716E-03
17 17 0.00000000E+00 0.00000000E+00 0.00000000E+00 0.00000000E+00 0.00000000E+00
17 18 1.32714947E-04 0.00000000E+00 0.00000000E+00 0.00000000E+00 0.00000000E+00
17 19 0.00000000E+00-1.32714947E-04 0.00000000E+00 0.00000000E+00
18  1 1.81936945E-05 3.68563821E-05 8.79193638E-05 1.13887718E-04-1.92759034E-04
18  2-3.53099190E-04 5.09460795E-04 6.89855319E-03-1.40519432E-02-1.66058461E-02
18  3 0.00000000E+00 0.00000000E+00-9.63182440E-04 0.00000000E+00 0.00000000E+00