!  1-Sigma-plus LiF...2nd order MC-QDPT calculation, SA-orbitals
!  The wavefunction contains 55 configurations.
!  This job duplicates the R=9.5 column of Table 6 in
!     H.Nakano, J.Chem.Phys. 99, 7983-7992(1993).
!  Literature result is -106.93846 and -106.91419
!
!  MCSCF:
!  The FINAL E(1)= -106.848360168,
!            E(2)= -106.825127372, after 2 iterations.
!
!  MCQDPT:
!  CSFs: E(MCSCF) = -106.8483601644  E(MP2) = -106.9384606505
!  CSFs: E(MCSCF) = -106.8251273757  E(MP2) = -106.9141888827
!
!  This run takes 0 seconds on anything ( 8 Nov 2005)
!
 $CONTRL SCFTYP=MCSCF MPLEVL=2 UNITS=BOHR $END
 $SYSTEM TIMLIM=8 mwords=1 memddi=1 $END
 $GUESS  GUESS=MOREAD NORB=9 $END

!   This test has never correlated the one valence orbital that is not
!   in the active space, so the input must force 3 frozen orbitals.

!      the determinant solution
!   the wstate skips over a doubly degenerate singlet level, and there
!   are also two triplets before we get to the 2nd singlet-sigma-plus.
--- $det    group=c1 ncore=3 nact=6 nels=6
---         nstate=7 wstate(1)=1,0,0,1 $end
--- $detpt  nval=0 $end

!      the CSF solution
!   note that unlike determinants, the PT can run in a higher group
!   than the MCSCF (which is done in the C1 group for the hell of it).
 $mcscf  cistep=guga $end
 $drt    group=c1 fors=.t. nmcc=3 ndoc=3 nval=3 $end
 $gugdia nstate=4 $end
 $gugdm2 wstate(1)=1,0,0,1 $end
 $mrmp   mrpt=mcqdpt $end
 $mcqdpt NMOFZC=3 NMODOC=0 NMOACT=6 ISTSYM=1 KSTATE(1)=1,1 $END

 $DATA
LiF...basis set is???
Cnv 2

Lithium      3.        0.                  0.                0.
    1    S    5
    1    921.3       0.001367
    2    138.7       0.010425
    3     31.94      0.049859
    4      9.353     0.160701
    5      3.158     0.344604
    2    S    2
    1      1.157     0.425197
    2      0.4446    0.169468
    3    S    1
    1      0.07666   1.0
    4    S    1
    1      0.02864   1.0
    5    P    3
    1      1.488     0.038770
    2      0.2667    0.236257
    3      0.07201   0.830448
    6    P    1
    1      0.02370   1.0

Fluorine     9.        0.00                0.00              9.5
    1    S    6
    1   9994.79      0.002017
    2   1506.03      0.015295
    3    350.269     0.073110
    4    104.053     0.246420
    5     34.8432    0.612593
    6      4.3688    0.242489
    2    S    1
    1     12.2164    1.0
    3    S    1
    1      1.2078    1.0
    4    S    1
    1      0.3634    1.0
    5    P    4
    1     44.3555    0.020868
    2     10.0820    0.130092
    3      2.9959    0.396219
    4      0.9383    0.620368
    6    P    1
    1      0.2733    1.0
    7    P    1
    1      0.08      1.0
    8    D    1
    1      1.4       1.0

 $END
 $VEC
 1  1 -.11351214E-05  .96924794E-06 -.66866347E-05  .13813057E-04 -.23148014E-15
 1  2  .19237446E-15 -.73563688E-05  .16476311E-15  .13927527E-15  .14995238E-04
 1  3 -.57996267E+00 -.46252777E+00  .10596238E-02 -.77050371E-03 -.65774721E-16
 1  4 -.64100802E-16  .12598879E-04  .18943287E-15  .18777246E-15 -.15507484E-04
 1  5 -.20502582E-15 -.20848285E-15  .89575136E-05 -.65855197E-03 -.65855193E-03
 1  6 -.45842255E-03  .21795887E-11  .13919069E-15  .55521751E-15
 2  1 -.51707512E+00 -.57519806E+00 -.14745022E-02  .69146833E-04 -.51018951E-15
 2  2  .40398490E-15  .49388920E-03  .36945365E-15  .34396670E-15 -.24374918E-03
 2  3 -.57217398E-06 -.22338174E-05 -.59632160E-05  .45272155E-04 -.13168700E-15
 2  4 -.13940022E-15  .68032939E-05  .38027807E-15  .41352305E-15 -.18410983E-05
 2  5 -.41432807E-15 -.46649505E-15 -.12625702E-04 -.75226855E-05 -.75226710E-05
 2  6 -.75259761E-05 -.32998664E-13  .23860819E-15  .10364796E-15
 3  1  .44939343E-04 -.57843561E-03  .50229006E-02 -.67286614E-02 -.44851584E-15
 3  2  .36658152E-15  .34085109E-02  .30040678E-15  .32604942E-15 -.82212470E-02
 3  3  .14764053E+00  .20467939E+00 -.59902320E+00 -.54173903E+00  .33683103E-17
 3  4 -.10379772E-15 -.96735938E-03 -.46952631E-17  .31143167E-15  .17846556E-02
 3  5 -.12553282E-16 -.35891146E-15 -.32738515E-02  .83101686E-02  .83101688E-02
 3  6  .89177491E-02  .66270581E-11  .16690965E-15  .62507726E-16
 4  1  .00000000E+00  .00000000E+00  .00000000E+00  .00000000E+00 -.17528725E-03
 4  2 -.32603786E-09  .00000000E+00 -.16083313E-02  .00000000E+00  .00000000E+00
 4  3  .00000000E+00  .00000000E+00  .00000000E+00  .00000000E+00 -.75422518E+00
 4  4  .00000000E+00  .00000000E+00 -.33479069E+00  .00000000E+00  .00000000E+00
 4  5 -.91588739E-01  .00000000E+00  .00000000E+00  .00000000E+00  .00000000E+00
 4  6  .00000000E+00  .00000000E+00  .50765008E-03  .00000000E+00
 5  1  .00000000E+00  .00000000E+00  .00000000E+00  .00000000E+00 -.24950283E-09
 5  2  .10949524E-03  .00000000E+00  .00000000E+00  .31522166E-02  .00000000E+00
 5  3  .00000000E+00  .00000000E+00  .00000000E+00  .00000000E+00  .00000000E+00
 5  4  .61952248E+00  .00000000E+00  .00000000E+00  .45515047E+00  .00000000E+00
 5  5  .00000000E+00  .14149101E+00  .00000000E+00  .00000000E+00  .00000000E+00
 5  6  .00000000E+00  .00000000E+00  .00000000E+00 -.10003825E-02
 6  1 -.67286799E-01 -.15404311E+00  .40799416E+00  .45124109E+00  .00000000E+00
 6  2  .00000000E+00  .24405329E-02  .00000000E+00  .00000000E+00 -.33226550E-03
 6  3  .12552265E-02  .17899258E-02 -.57193761E-02 -.91874234E-02  .00000000E+00
 6  4  .00000000E+00 -.45159971E+00  .00000000E+00  .00000000E+00 -.21093764E+00
 6  5  .00000000E+00  .00000000E+00 -.30376955E-01 -.19931841E-03 -.19931718E-03
 6  6  .93344442E-03  .00000000E+00  .00000000E+00  .00000000E+00
 7  1 -.52250131E-01 -.11992269E+00  .32002068E+00  .34705239E+00  .00000000E+00
 7  2  .00000000E+00  .22970656E-02  .00000000E+00  .00000000E+00 -.48593241E-02
 7  3  .67390019E-03  .10714999E-02 -.98841272E-03 -.11873876E-01  .00000000E+00
 7  4  .00000000E+00  .60230388E+00  .00000000E+00  .00000000E+00  .28433221E+00
 7  5  .00000000E+00  .00000000E+00  .51168627E-01  .11872564E-02  .11872584E-02
 7  6  .30399560E-03  .00000000E+00  .00000000E+00  .00000000E+00
 8  1  .00000000E+00  .00000000E+00  .00000000E+00  .00000000E+00 -.40592644E-03
 8  2  .43440268E-09  .00000000E+00  .99767404E-02  .00000000E+00  .00000000E+00
 8  3  .00000000E+00  .00000000E+00  .00000000E+00  .00000000E+00 -.79991969E+00
 8  4  .00000000E+00  .00000000E+00  .79429008E+00  .00000000E+00  .00000000E+00
 8  5  .32559641E+00  .00000000E+00  .00000000E+00  .00000000E+00  .00000000E+00
 8  6  .00000000E+00  .00000000E+00 -.31836392E-02  .00000000E+00
 9  1  .00000000E+00  .00000000E+00  .00000000E+00  .00000000E+00  .41752978E-09
 9  2  .42838451E-03  .00000000E+00  .00000000E+00 -.96013342E-02  .00000000E+00
 9  3  .00000000E+00  .00000000E+00  .00000000E+00  .00000000E+00  .00000000E+00
 9  4  .90825056E+00  .00000000E+00  .00000000E+00 -.73199707E+00  .00000000E+00
 9  5  .00000000E+00 -.30721614E+00  .00000000E+00  .00000000E+00  .00000000E+00
 9  6  .00000000E+00  .00000000E+00  .00000000E+00  .30647197E-02
 $END

! TRAVIS-CI SMALL
! TRAVIS-CI SKIP
! UNSUCCESSFUL USING INTEL COMPILERS
