!    C3Si...four membered ring...from Jamie...3-B2 electronic state
!    There are 64 AOs, the 10 orbital active space has 5,220 CSFs
!
!    CSFs: FINAL E(MCSCF)= -402.3500604286, 2 iters, E(MP2)= -402.6930218080
!    dets: F.NAL E(MCSCF)= -402.3500604286, 2 iters, E(M.2)= -402.6930218365
!
!    This run takes 67 seconds on 2.66 GHz Cloverton (27 Apr 2015)
!    results nearly unchanged since at least 2005
!
 $CONTRL SCFTYP=MCSCF MPLEVL=2 mult=3 runtyp=ENERGY $end
 $SYSTEM parall=.t. MWORDS=10 memddi=8 $END
!            MCQDPT has no AO direct option, so this run will create an
!            integral file after the MCSCF, before the PT2 starts.
 $trans  dirtrf=.true. $end
 $BASIS  Gbasis=N31  NGauss=6  NDFUNC=1  $end
 $GUESS  GUESS=MOREAD NORB=64   $END

!   The determinant solution
--- $det    ncore=10 nact=10 nels=12 stsym=b2 $end
 
!   The CSF solution, asking for determinant accuracy
 $MCSCF  FORS=.True.  CISTEP=GUGA  $END
 $DRT    GROUP=C2V stsym=B2 FORS=.True. NMCC=10 NDOC=5  NALP=2   NVAL=3  $END 
 $GUGDIA NSTATE=4   $ENd
 $mrmp   mrpt=mcqdpt $end
 $MCQDPT MULT=3  STSYM=B2  thrgen=1d-12 $END

 $DATA
C3Si  4mr C-C, tripl mc to det imp of 16 
Cnv 2 

CARBON      6.0    .0000000000    .0000000000   1.1031491032
CARBON      6.0    .7519544468    .0000000000   -.0051542362
SILICON    14.0    .0000000000    .0000000000  -1.7878406308
 $END

--- OPTIMIZED MCSCF MO-S --- GENERATED AT 16:36:32 CST 16-JUL-1999
C3Si  4mr C-C, tripl mc to det imp of 16                                      
E(MCSCF)=     -402.3500604389, 23 ITERS, E(NUC)=  102.4398944836
 $VEC   
 1  1 2.56734557E-06-9.11337906E-06 0.00000000E+00 0.00000000E+00 4.47746633E-06
 1  2 1.87945553E-05 0.00000000E+00 0.00000000E+00 2.46908625E-05 5.52075628E-05
 1  3-5.06851040E-06-1.17649173E-05 0.00000000E+00 0.00000000E+00 0.00000000E+00
 1  4 1.24021613E-05 1.21260480E-04-2.96482510E-05 0.00000000E+00 6.11258977E-05
 1  5 4.29075113E-05 6.45893565E-05 0.00000000E+00-1.69560359E-04-9.66568531E-06
 1  6 1.67938993E-05-1.34206152E-04 0.00000000E+00 6.81802813E-05 0.00000000E+00
 1  7 1.24021613E-05 1.21260480E-04 2.96482510E-05 0.00000000E+00 6.11258977E-05
 1  8 4.29075113E-05-6.45893565E-05 0.00000000E+00-1.69560359E-04-9.66568531E-06
 1  9 1.67938993E-05-1.34206152E-04 0.00000000E+00-6.81802813E-05 0.00000000E+00
 1 10 9.96876091E-01 1.24075361E-02 0.00000000E+00 0.00000000E+00 9.02044557E-05
 1 11-1.68167705E-02 0.00000000E+00 0.00000000E+00-1.09938388E-04 1.89899949E-03
 1 12 0.00000000E+00 0.00000000E+00-4.14460054E-05 5.90990911E-03 5.90766345E-03
 1 13 5.90982967E-03 0.00000000E+00 0.00000000E+00 0.00000000E+00
 2  1 0.00000000E+00 0.00000000E+00 8.34992416E-04 0.00000000E+00 0.00000000E+00
 2  2 0.00000000E+00-1.71809506E-03 0.00000000E+00 0.00000000E+00 0.00000000E+00
 2  3 0.00000000E+00 0.00000000E+00 0.00000000E+00-7.83294361E-04 0.00000000E+00
 2  4 7.06192923E-01 1.45436239E-02 3.72985868E-03 0.00000000E+00 3.08601662E-03
 2  5-1.66153619E-02-2.70574066E-03 0.00000000E+00 1.16118260E-03 2.16537363E-05
 2  6-1.52307456E-03-8.93385388E-04 0.00000000E+00 4.54116197E-04 0.00000000E+00
 2  7-7.06192923E-01-1.45436239E-02 3.72985868E-03 0.00000000E+00-3.08601662E-03
 2  8 1.66153619E-02-2.70574066E-03 0.00000000E+00-1.16118260E-03-2.16537363E-05
 2  9 1.52307456E-03 8.93385388E-04 0.00000000E+00 4.54116197E-04 0.00000000E+00
 2 10 0.00000000E+00 0.00000000E+00-1.28120788E-03 0.00000000E+00 0.00000000E+00
 2 11 0.00000000E+00 2.69163094E-03 0.00000000E+00 0.00000000E+00 0.00000000E+00
 2 12 1.95113612E-04 0.00000000E+00 0.00000000E+00 0.00000000E+00 0.00000000E+00
 2 13 0.00000000E+00 0.00000000E+00 1.07174755E-03 0.00000000E+00
 3  1 3.01129271E-01 1.02682043E-02 0.00000000E+00 0.00000000E+00-1.58990264E-03
 3  2 1.33004057E-03 0.00000000E+00 0.00000000E+00-8.19386955E-04-1.16999592E-03
 3  3-8.07163864E-04-1.12482247E-03 0.00000000E+00 0.00000000E+00 0.00000000E+00
 3  4 6.72598610E-01 1.43619667E-02 2.79032674E-03 0.00000000E+00 4.81973483E-03
 3  5-1.05362556E-02 3.08864502E-04 0.00000000E+00 1.81230361E-03-1.48314144E-03
 3  6-1.54695965E-03-8.45153691E-04 0.00000000E+00 8.18582613E-04 0.00000000E+00
 3  7 6.72598610E-01 1.43619667E-02-2.79032674E-03 0.00000000E+00 4.81973483E-03
 3  8-1.05362556E-02-3.08864502E-04 0.00000000E+00 1.81230361E-03-1.48314144E-03
 3  9-1.54695965E-03-8.45153691E-04 0.00000000E+00-8.18582613E-04 0.00000000E+00
 3 10 1.59887158E-04-6.78845660E-04 0.00000000E+00 0.00000000E+00 2.44594731E-03
 3 11 3.66357437E-03 0.00000000E+00 0.00000000E+00-5.52643941E-03 5.51452900E-03
 3 12 0.00000000E+00 0.00000000E+00 2.46418452E-04-2.38096198E-04 5.31653421E-04
 3 13-1.45669457E-03 0.00000000E+00 0.00000000E+00 0.00000000E+00
 4  1 9.49681849E-01 2.42689791E-02 0.00000000E+00 0.00000000E+00-1.74521277E-03
 4  2-1.77101272E-02 0.00000000E+00 0.00000000E+00 5.31466600E-03-1.66875361E-03
 4  3-2.25554151E-03-9.26530688E-04 0.00000000E+00 0.00000000E+00 0.00000000E+00
 4  4-2.15299426E-01-3.53096352E-03-9.85468272E-04 0.00000000E+00-3.72323152E-03
 4  5 1.05603260E-02 1.06560779E-03 0.00000000E+00 1.41458848E-03 2.97395948E-04
 4  6 3.74062481E-04-1.34932011E-04 0.00000000E+00-6.75298218E-04 0.00000000E+00
 4  7-2.15299426E-01-3.53096352E-03 9.85468272E-04 0.00000000E+00-3.72323152E-03
 4  8 1.05603260E-02-1.06560779E-03 0.00000000E+00 1.41458848E-03 2.97395948E-04
 4  9 3.74062481E-04-1.34932011E-04 0.00000000E+00 6.75298218E-04 0.00000000E+00
 4 10-1.02779157E-04 4.43310511E-04 0.00000000E+00 0.00000000E+00-1.71344792E-03
 4 11-2.25267955E-03 0.00000000E+00 0.00000000E+00 3.97082416E-03-2.46918670E-03
 4 12 0.00000000E+00 0.00000000E+00 7.79904008E-04 1.46790817E-04-5.72963813E-04
 4 13 9.22617498E-04 0.00000000E+00 0.00000000E+00 0.00000000E+00
 5  1-5.00038946E-05 6.31660310E-05 0.00000000E+00 0.00000000E+00 7.69268953E-05
 5  2-1.67487116E-04 0.00000000E+00 0.00000000E+00-1.14261109E-04-5.07876069E-05
 5  3 1.68214758E-05 6.13488193E-05 0.00000000E+00 0.00000000E+00 0.00000000E+00
 5  4-1.16499568E-04 2.50759893E-04-1.85062540E-04 0.00000000E+00-6.64815421E-05
 5  5-4.34884051E-04-3.21576168E-04 0.00000000E+00 8.36126888E-04 1.71854842E-06
 5  6 3.92861120E-05-5.19128322E-05 0.00000000E+00 2.94741155E-05 0.00000000E+00
 5  7-1.16499568E-04 2.50759893E-04 1.85062540E-04 0.00000000E+00-6.64815421E-05
 5  8-4.34884051E-04 3.21576168E-04 0.00000000E+00 8.36126888E-04 1.71854842E-06
 5  9 3.92861120E-05-5.19128322E-05 0.00000000E+00-2.94741155E-05 0.00000000E+00
 5 10-2.68337189E-01 1.03123241E+00 0.00000000E+00 0.00000000E+00 8.15345365E-03
 5 11 2.30910722E-03 0.00000000E+00 0.00000000E+00 2.07106110E-03-8.26825709E-04
 5 12 0.00000000E+00 0.00000000E+00-2.02360172E-04 3.12699958E-03 2.78439024E-03
 5 13 3.79528523E-03 0.00000000E+00 0.00000000E+00 0.00000000E+00
 6  1-1.68181343E-04 1.07440545E-04 0.00000000E+00 0.00000000E+00-6.81840637E-05
 6  2 1.40685771E-03 0.00000000E+00 0.00000000E+00-9.01804873E-04-2.27365820E-04
 6  3 2.67727817E-05 2.18552480E-04 0.00000000E+00 0.00000000E+00 0.00000000E+00
 6  4-3.39327795E-04 5.24492990E-05-1.68106214E-04 0.00000000E+00-2.06761502E-04
 6  5-2.26299752E-03-1.01105230E-03 0.00000000E+00 1.74984996E-03 2.15402864E-05
 6  6-7.71370032E-05 3.96656861E-04 0.00000000E+00-2.61744626E-04 0.00000000E+00
 6  7-3.39327795E-04 5.24492990E-05 1.68106214E-04 0.00000000E+00-2.06761502E-04
 6  8-2.26299752E-03 1.01105230E-03 0.00000000E+00 1.74984996E-03 2.15402864E-05
 6  9-7.71370032E-05 3.96656861E-04 0.00000000E+00 2.61744626E-04 0.00000000E+00
 6 10 2.56344798E-03-1.01895663E-02 0.00000000E+00 0.00000000E+00 9.94792103E-01
 6 11 8.56869450E-03 0.00000000E+00 0.00000000E+00 2.06369829E-02 1.39718990E-03
 6 12 0.00000000E+00 0.00000000E+00-3.46203019E-03-2.89425634E-03-3.20457609E-03
 6 13 1.19129599E-04 0.00000000E+00 0.00000000E+00 0.00000000E+00
 7  1 0.00000000E+00 0.00000000E+00 3.05187381E-05 0.00000000E+00 0.00000000E+00
 7  2 0.00000000E+00-1.77504186E-03 0.00000000E+00 0.00000000E+00 0.00000000E+00
 7  3 0.00000000E+00 0.00000000E+00 0.00000000E+00 9.05114045E-05 0.00000000E+00
 7  4 1.39559369E-04-4.00896807E-04-5.96148444E-05 0.00000000E+00 4.49545587E-04
 7  5 1.93302040E-03 1.64944897E-03 0.00000000E+00-2.95601652E-03-3.31709799E-05
 7  6-1.00716709E-04-1.56003553E-04 0.00000000E+00 6.66836647E-05 0.00000000E+00
 7  7-1.39559369E-04 4.00896807E-04-5.96148444E-05 0.00000000E+00-4.49545587E-04
 7  8-1.93302040E-03 1.64944897E-03 0.00000000E+00 2.95601652E-03 3.31709799E-05
 7  9 1.00716709E-04 1.56003553E-04 0.00000000E+00 6.66836647E-05 0.00000000E+00
 7 10 0.00000000E+00 0.00000000E+00 9.94747235E-01 0.00000000E+00 0.00000000E+00
 7 11 0.00000000E+00 2.06065087E-02 0.00000000E+00 0.00000000E+00 0.00000000E+00
 7 12-4.38644552E-03 0.00000000E+00 0.00000000E+00 0.00000000E+00 0.00000000E+00
 7 13 0.00000000E+00 0.00000000E+00 1.74854675E-03 0.00000000E+00
 8  1 0.00000000E+00 0.00000000E+00 0.00000000E+00-1.32354979E-04 0.00000000E+00
 8  2 0.00000000E+00 0.00000000E+00 6.74285672E-04 0.00000000E+00 0.00000000E+00
 8  3 0.00000000E+00 0.00000000E+00 0.00000000E+00 0.00000000E+00-7.83706195E-05
 8  4 0.00000000E+00 0.00000000E+00 0.00000000E+00 4.60219046E-05 0.00000000E+00
 8  5 0.00000000E+00 0.00000000E+00-4.10091502E-04 0.00000000E+00 0.00000000E+00
 8  6 0.00000000E+00 0.00000000E+00-6.30035408E-05 0.00000000E+00 1.26943339E-04
 8  7 0.00000000E+00 0.00000000E+00 0.00000000E+00 4.60219046E-05 0.00000000E+00
 8  8 0.00000000E+00 0.00000000E+00-4.10091502E-04 0.00000000E+00 0.00000000E+00
 8  9 0.00000000E+00 0.00000000E+00 6.30035408E-05 0.00000000E+00 1.26943339E-04
 8 10 0.00000000E+00 0.00000000E+00 0.00000000E+00 9.95169402E-01 0.00000000E+00
 8 11 0.00000000E+00 0.00000000E+00 1.83502888E-02 0.00000000E+00 0.00000000E+00
 8 12 0.00000000E+00-4.02028344E-03 0.00000000E+00 0.00000000E+00 0.00000000E+00
 8 13 0.00000000E+00 0.00000000E+00 0.00000000E+00 9.68941334E-04
 9  1-1.44839416E-01 2.81204852E-01 0.00000000E+00 0.00000000E+00-2.26847898E-01
 9  2 1.53946699E-01 0.00000000E+00 0.00000000E+00-4.49146453E-02-6.92742868E-03
 9  3-1.45903513E-02 2.48291810E-02 0.00000000E+00 0.00000000E+00 0.00000000E+00
 9  4-9.97536914E-02 1.94859348E-01 1.91355669E-01 0.00000000E+00 1.41080737E-01
 9  5 4.61748172E-02 3.73275712E-02 0.00000000E+00 1.60794289E-02 1.78442774E-02
 9  6-1.41047057E-02-7.83909190E-04 0.00000000E+00 1.70314390E-02 0.00000000E+00
 9  7-9.97536914E-02 1.94859348E-01-1.91355669E-01 0.00000000E+00 1.41080737E-01
 9  8 4.61748172E-02-3.73275712E-02 0.00000000E+00 1.60794289E-02 1.78442774E-02
 9  9-1.41047057E-02-7.83909190E-04 0.00000000E+00-1.70314390E-02 0.00000000E+00
 9 10 5.90966101E-03-2.84820077E-02 0.00000000E+00 0.00000000E+00 3.56809072E-03
 9 11 5.76753694E-02 0.00000000E+00 0.00000000E+00-2.88632078E-02 1.04747826E-02
 9 12 0.00000000E+00 0.00000000E+00-3.63824368E-02-5.79819031E-03 2.25109716E-03
 9 13 7.74365781E-03 0.00000000E+00 0.00000000E+00 0.00000000E+00
10  1 1.79145156E-02-3.47562630E-02 0.00000000E+00 0.00000000E+00 5.83758765E-02
10  2-3.39110627E-03 0.00000000E+00 0.00000000E+00 2.04296777E-02 1.79185072E-03
10  3 3.43403740E-03-5.51614219E-03 0.00000000E+00 0.00000000E+00 0.00000000E+00
10  4-1.13891474E-02 1.79031552E-02-3.17899034E-02 0.00000000E+00-8.59073690E-02
10  5-8.74262971E-03-6.82190973E-03 0.00000000E+00-3.11352572E-03-3.86057564E-03
10  6-2.15376747E-05 8.40249020E-03 0.00000000E+00-7.88139704E-03 0.00000000E+00
10  7-1.13891474E-02 1.79031552E-02 3.17899034E-02 0.00000000E+00-8.59073690E-02
10  8-8.74262971E-03 6.82190973E-03 0.00000000E+00-3.11352572E-03-3.86057564E-03
10  9-2.15376747E-05 8.40249020E-03 0.00000000E+00 7.88139704E-03 0.00000000E+00
10 10 6.19279865E-02-3.00141739E-01 0.00000000E+00 0.00000000E+00 3.38678888E-02
10 11 6.80436216E-01 0.00000000E+00 0.00000000E+00-1.12500175E-01 3.41797810E-01
10 12 0.00000000E+00 0.00000000E+00-7.38034249E-02 1.78803971E-03 6.60487837E-03
10 13 7.41628444E-03 0.00000000E+00 0.00000000E+00 0.00000000E+00
11  1-1.01158005E-01 1.92108849E-01 0.00000000E+00 0.00000000E+00 1.24953015E-01
11  2 3.64451582E-01 0.00000000E+00 0.00000000E+00 6.52662633E-03 2.09390326E-02
11  3-7.63630072E-04-2.93738491E-02 0.00000000E+00 0.00000000E+00 0.00000000E+00
11  4 1.88389937E-03-2.09571432E-02-3.21265205E-01 0.00000000E+00 1.77919517E-01
11  5 1.61278250E-02-1.69937707E-01 0.00000000E+00 5.81608299E-02-3.37134067E-02
11  6 8.31219594E-03 1.90755799E-02 0.00000000E+00 1.40250220E-02 0.00000000E+00
11  7 1.88389937E-03-2.09571432E-02 3.21265205E-01 0.00000000E+00 1.77919517E-01
11  8 1.61278250E-02 1.69937707E-01 0.00000000E+00 5.81608299E-02-3.37134067E-02
11  9 8.31219594E-03 1.90755799E-02 0.00000000E+00-1.40250220E-02 0.00000000E+00
11 10-1.34584524E-03 4.49064148E-03 0.00000000E+00 0.00000000E+00 6.95438666E-02
11 11-3.37862032E-03 0.00000000E+00 0.00000000E+00-1.64832607E-01 1.47739405E-01
11 12 0.00000000E+00 0.00000000E+00 3.87743901E-02 2.96280014E-02 2.03214437E-02
11 13-5.43491804E-02 0.00000000E+00 0.00000000E+00 0.00000000E+00
12  1 1.56956144E-02-7.05720693E-02 0.00000000E+00 0.00000000E+00 1.27572171E-01
12  2-3.76280215E-02 0.00000000E+00 0.00000000E+00 6.42430921E-02 9.69917037E-03
12  3 2.48792988E-03-1.20279072E-02 0.00000000E+00 0.00000000E+00 0.00000000E+00
12  4-9.25676551E-02 2.01485302E-01-1.67874622E-01 0.00000000E+00-1.90843182E-01
12  5 3.30016525E-01-1.10798638E-01 0.00000000E+00-4.98235177E-02-6.41144123E-03
12  6 2.70788199E-03 3.24526707E-03 0.00000000E+00-2.00885582E-02 0.00000000E+00
12  7-9.25676551E-02 2.01485302E-01 1.67874622E-01 0.00000000E+00-1.90843182E-01
12  8 3.30016525E-01 1.10798638E-01 0.00000000E+00-4.98235177E-02-6.41144123E-03
12  9 2.70788199E-03 3.24526707E-03 0.00000000E+00 2.00885582E-02 0.00000000E+00
12 10-9.96711894E-03 4.54741687E-02 0.00000000E+00 0.00000000E+00-1.17118448E-01
12 11-1.74092868E-01 0.00000000E+00 0.00000000E+00 2.96151165E-01-1.47352577E-01
12 12 0.00000000E+00 0.00000000E+00 8.89000917E-02 3.65205556E-03-3.64124420E-02
12 13 5.65696930E-02 0.00000000E+00 0.00000000E+00 0.00000000E+00
13  1 0.00000000E+00 0.00000000E+00-3.24384547E-01 0.00000000E+00 0.00000000E+00
13  2 0.00000000E+00-9.74605626E-02 0.00000000E+00 0.00000000E+00 0.00000000E+00
13  3 0.00000000E+00 0.00000000E+00 0.00000000E+00 3.39570730E-02 0.00000000E+00
13  4-1.30055711E-01 2.83481865E-01-7.38984946E-02 0.00000000E+00 1.07375964E-01
13  5 3.60269155E-01-1.12702789E-02 0.00000000E+00 2.45380848E-02-1.80049343E-02
13  6-4.59447740E-03 1.77495380E-02 0.00000000E+00 3.93548642E-03 0.00000000E+00
13  7 1.30055711E-01-2.83481865E-01-7.38984946E-02 0.00000000E+00-1.07375964E-01
13  8-3.60269155E-01-1.12702789E-02 0.00000000E+00-2.45380848E-02 1.80049343E-02
13  9 4.59447740E-03-1.77495380E-02 0.00000000E+00 3.93548642E-03 0.00000000E+00
13 10 0.00000000E+00 0.00000000E+00 2.69187841E-02 0.00000000E+00 0.00000000E+00
13 11 0.00000000E+00-5.91594830E-02 0.00000000E+00 0.00000000E+00 0.00000000E+00
13 12-4.79530986E-03 0.00000000E+00 0.00000000E+00 0.00000000E+00 0.00000000E+00
13 13 0.00000000E+00 0.00000000E+00-2.83023385E-02 0.00000000E+00
14  1 0.00000000E+00 0.00000000E+00 0.00000000E+00 3.48712037E-01 0.00000000E+00
14  2 0.00000000E+00 0.00000000E+00 1.75882970E-01 0.00000000E+00 0.00000000E+00
14  3 0.00000000E+00 0.00000000E+00 0.00000000E+00 0.00000000E+00-3.41606422E-02
14  4 0.00000000E+00 0.00000000E+00 0.00000000E+00 3.03235228E-01 0.00000000E+00
14  5 0.00000000E+00 0.00000000E+00 1.79274348E-01 0.00000000E+00 0.00000000E+00
14  6 0.00000000E+00 0.00000000E+00 3.52831480E-02 0.00000000E+00 1.27977498E-02
14  7 0.00000000E+00 0.00000000E+00 0.00000000E+00 3.03235228E-01 0.00000000E+00
14  8 0.00000000E+00 0.00000000E+00 1.79274348E-01 0.00000000E+00 0.00000000E+00
14  9 0.00000000E+00 0.00000000E+00-3.52831480E-02 0.00000000E+00 1.27977498E-02
14 10 0.00000000E+00 0.00000000E+00 0.00000000E+00-3.41045035E-02 0.00000000E+00
14 11 0.00000000E+00 0.00000000E+00 8.02909119E-02 0.00000000E+00 0.00000000E+00
14 12 0.00000000E+00 9.70082408E-03 0.00000000E+00 0.00000000E+00 0.00000000E+00
14 13 0.00000000E+00 0.00000000E+00 0.00000000E+00 3.06093923E-02
15  1 0.00000000E+00 0.00000000E+00-3.16071906E-01 0.00000000E+00 0.00000000E+00
15  2 0.00000000E+00-1.18639922E-01 0.00000000E+00 0.00000000E+00 0.00000000E+00
15  3 0.00000000E+00 0.00000000E+00 0.00000000E+00 2.12727536E-02 0.00000000E+00
15  4 4.50837094E-02-1.02170152E-01 1.03576858E-01 0.00000000E+00 3.18658604E-01
15  5-2.32051412E-01 5.81609181E-02 0.00000000E+00 1.98382344E-01 3.06050755E-03
15  6-3.98802869E-03 2.78136755E-03 0.00000000E+00 6.52961122E-03 0.00000000E+00
15  7-4.50837094E-02 1.02170152E-01 1.03576858E-01 0.00000000E+00-3.18658604E-01
15  8 2.32051412E-01 5.81609181E-02 0.00000000E+00-1.98382344E-01-3.06050755E-03
15  9 3.98802869E-03-2.78136755E-03 0.00000000E+00 6.52961122E-03 0.00000000E+00
15 10 0.00000000E+00 0.00000000E+00-9.38958733E-02 0.00000000E+00 0.00000000E+00
15 11 0.00000000E+00 2.24800816E-01 0.00000000E+00 0.00000000E+00 0.00000000E+00
15 12 4.05015777E-02 0.00000000E+00 0.00000000E+00 0.00000000E+00 0.00000000E+00
15 13 0.00000000E+00 0.00000000E+00 7.73929081E-02 0.00000000E+00
16  1-1.23460390E-01 2.78297808E-01 0.00000000E+00 0.00000000E+00 4.32349306E-01
16  2 4.02518948E-01 0.00000000E+00 0.00000000E+00 2.98671524E-01-1.88205175E-02
16  3 8.54586307E-03-2.68843024E-03 0.00000000E+00 0.00000000E+00 0.00000000E+00
16  4 4.68009795E-02-1.11478601E-01 1.49538901E-01 0.00000000E+00-1.55914228E-01
16  5-1.04406785E-01 1.32835745E-01 0.00000000E+00-5.94253281E-02 4.28684835E-03
16  6-1.38700827E-03 6.44093686E-03 0.00000000E+00-1.41531333E-02 0.00000000E+00
16  7 4.68009795E-02-1.11478601E-01-1.49538901E-01 0.00000000E+00-1.55914228E-01
16  8-1.04406785E-01-1.32835745E-01 0.00000000E+00-5.94253281E-02 4.28684835E-03
16  9-1.38700827E-03 6.44093686E-03 0.00000000E+00 1.41531333E-02 0.00000000E+00
16 10 2.54302866E-03-9.19468368E-03 0.00000000E+00 0.00000000E+00-5.50828575E-02
16 11 3.53766818E-02 0.00000000E+00 0.00000000E+00 1.51618976E-01-9.46547797E-02
16 12 0.00000000E+00 0.00000000E+00 9.99364614E-04-1.91771890E-02-1.41821070E-02
16 13 3.88189950E-02 0.00000000E+00 0.00000000E+00 0.00000000E+00
17  1 0.00000000E+00 0.00000000E+00 0.00000000E+00-2.20428805E-01 0.00000000E+00
17  2 0.00000000E+00 0.00000000E+00-2.26505902E-01 0.00000000E+00 0.00000000E+00
17  3 0.00000000E+00 0.00000000E+00 0.00000000E+00 0.00000000E+00 8.20461456E-03
17  4 0.00000000E+00 0.00000000E+00 0.00000000E+00-1.71201631E-04 0.00000000E+00
17  5 0.00000000E+00 0.00000000E+00 2.03319634E-02 0.00000000E+00 0.00000000E+00
17  6 0.00000000E+00 0.00000000E+00-5.45647629E-04 0.00000000E+00-2.27391520E-02
17  7 0.00000000E+00 0.00000000E+00 0.00000000E+00-1.71201631E-04 0.00000000E+00
17  8 0.00000000E+00 0.00000000E+00 2.03319634E-02 0.00000000E+00 0.00000000E+00
17  9 0.00000000E+00 0.00000000E+00 5.45647629E-04 0.00000000E+00-2.27391520E-02
17 10 0.00000000E+00 0.00000000E+00 0.00000000E+00-2.12266011E-01 0.00000000E+00
17 11 0.00000000E+00 0.00000000E+00 6.35102244E-01 0.00000000E+00 0.00000000E+00
17 12 0.00000000E+00 4.09227887E-01 0.00000000E+00 0.00000000E+00 0.00000000E+00
17 13 0.00000000E+00 0.00000000E+00 0.00000000E+00 3.89932792E-02
18  1 0.00000000E+00 0.00000000E+00 0.00000000E+00 6.75407531E-01 0.00000000E+00
18  2 0.00000000E+00 0.00000000E+00 3.02767531E-01 0.00000000E+00 0.00000000E+00
18  3 0.00000000E+00 0.00000000E+00 0.00000000E+00 0.00000000E+00 4.50230738E-02
18  4 0.00000000E+00 0.00000000E+00 0.00000000E+00-3.53017111E-01 0.00000000E+00
18  5 0.00000000E+00 0.00000000E+00-2.51655632E-01 0.00000000E+00 0.00000000E+00
18  6 0.00000000E+00 0.00000000E+00-9.44230812E-03 0.00000000E+00 2.18376851E-02
18  7 0.00000000E+00 0.00000000E+00 0.00000000E+00-3.53017111E-01 0.00000000E+00
18  8 0.00000000E+00 0.00000000E+00-2.51655632E-01 0.00000000E+00 0.00000000E+00
18  9 0.00000000E+00 0.00000000E+00 9.44230812E-03 0.00000000E+00 2.18376851E-02
18 10 0.00000000E+00 0.00000000E+00 0.00000000E+00-8.69000046E-02 0.00000000E+00
18 11 0.00000000E+00 0.00000000E+00 3.00363347E-01 0.00000000E+00 0.00000000E+00
18 12 0.00000000E+00 1.93064410E-01 0.00000000E+00 0.00000000E+00 0.00000000E+00
18 13 0.00000000E+00 0.00000000E+00 0.00000000E+00-8.09434247E-03
19  1 0.00000000E+00 0.00000000E+00 0.00000000E+00 0.00000000E+00 0.00000000E+00
19  2 0.00000000E+00 0.00000000E+00 0.00000000E+00 0.00000000E+00 0.00000000E+00
19  3 0.00000000E+00 0.00000000E+00-4.35983911E-02 0.00000000E+00 0.00000000E+00
19  4 0.00000000E+00 0.00000000E+00 0.00000000E+00 5.67948817E-01 0.00000000E+00
19  5 0.00000000E+00 0.00000000E+00 3.15028014E-01 0.00000000E+00 0.00000000E+00
19  6 0.00000000E+00 0.00000000E+00-2.85226479E-02 0.00000000E+00 1.22371544E-02
19  7 0.00000000E+00 0.00000000E+00 0.00000000E+00-5.67948817E-01 0.00000000E+00
19  8 0.00000000E+00 0.00000000E+00-3.15028014E-01 0.00000000E+00 0.00000000E+00
19  9 0.00000000E+00 0.00000000E+00-2.85226479E-02 0.00000000E+00-1.22371544E-02
19 10 0.00000000E+00 0.00000000E+00 0.00000000E+00 0.00000000E+00 0.00000000E+00
19 11 0.00000000E+00 0.00000000E+00 0.00000000E+00 0.00000000E+00 0.00000000E+00
19 12 0.00000000E+00 0.00000000E+00 0.00000000E+00 0.00000000E+00 0.00000000E+00
19 13 0.00000000E+00-1.91872454E-02 0.00000000E+00 0.00000000E+00
20  1 0.00000000E+00 0.00000000E+00 5.39677617E-01 0.00000000E+00 0.00000000E+00
20  2 0.00000000E+00 2.80296934E-01 0.00000000E+00 0.00000000E+00 0.00000000E+00
20  3 0.00000000E+00 0.00000000E+00 0.00000000E+00-7.55505455E-03 0.00000000E+00
20  4-1.82751226E-02 1.38205923E-01-4.46177218E-01 0.00000000E+00 2.86851777E-01
20  5-5.58136501E-03-2.03706938E-01 0.00000000E+00 2.36563444E-01 2.07626020E-02
20  6-2.27624758E-03-5.78742899E-02 0.00000000E+00-2.21340868E-02 0.00000000E+00
20  7 1.82751226E-02-1.38205923E-01-4.46177218E-01 0.00000000E+00-2.86851777E-01
20  8 5.58136501E-03-2.03706938E-01 0.00000000E+00-2.36563444E-01-2.07626020E-02
20  9 2.27624758E-03 5.78742899E-02 0.00000000E+00-2.21340868E-02 0.00000000E+00
20 10 0.00000000E+00 0.00000000E+00-8.47846180E-02 0.00000000E+00 0.00000000E+00
20 11 0.00000000E+00 2.27467371E-01 0.00000000E+00 0.00000000E+00 0.00000000E+00
20 12 2.47741694E-02 0.00000000E+00 0.00000000E+00 0.00000000E+00 0.00000000E+00
20 13 0.00000000E+00 0.00000000E+00 8.73060519E-02 0.00000000E+00
21  1 0.00000000E+00 0.00000000E+00-2.07571070E-02 0.00000000E+00 0.00000000E+00
21  2 0.00000000E+00-1.69379399E-01 0.00000000E+00 0.00000000E+00 0.00000000E+00
21  3 0.00000000E+00 0.00000000E+00 0.00000000E+00 4.31525706E-03 0.00000000E+00
21  4-5.16276712E-02 7.60113407E-02 4.98397681E-02 0.00000000E+00-1.53226778E-01
21  5 4.71157772E-01 7.93974856E-02 0.00000000E+00-4.09311802E-01-1.41626280E-02
21  6-1.51663038E-03-3.26513037E-04 0.00000000E+00-5.10072735E-03 0.00000000E+00
21  7 5.16276712E-02-7.60113407E-02 4.98397681E-02 0.00000000E+00 1.53226778E-01
21  8-4.71157772E-01 7.93974856E-02 0.00000000E+00 4.09311802E-01 1.41626280E-02
21  9 1.51663038E-03 3.26513037E-04 0.00000000E+00-5.10072735E-03 0.00000000E+00
21 10 0.00000000E+00 0.00000000E+00-8.90516975E-02 0.00000000E+00 0.00000000E+00
21 11 0.00000000E+00 1.93181318E-01 0.00000000E+00 0.00000000E+00 0.00000000E+00
21 12 1.05458341E+00 0.00000000E+00 0.00000000E+00 0.00000000E+00 0.00000000E+00
21 13 0.00000000E+00 0.00000000E+00-9.07166673E-02 0.00000000E+00
22  1-6.24432139E-03 4.07546062E-02 0.00000000E+00 0.00000000E+00-8.86825846E-02
22  2-1.88271271E-01 0.00000000E+00 0.00000000E+00-1.00571355E-01-2.06197803E-03
22  3 8.45352257E-03-4.36602135E-03 0.00000000E+00 0.00000000E+00 0.00000000E+00
22  4 5.97072797E-02-6.08076966E-02 1.04674943E-02 0.00000000E+00 9.48979318E-02
22  5-9.09434744E-01 6.92330204E-02 0.00000000E+00 2.91790329E-01-1.99657549E-03
22  6 1.49393246E-02 1.46159457E-02 0.00000000E+00 1.41295339E-02 0.00000000E+00
22  7 5.97072797E-02-6.08076966E-02-1.04674943E-02 0.00000000E+00 9.48979318E-02
22  8-9.09434744E-01-6.92330204E-02 0.00000000E+00 2.91790329E-01-1.99657549E-03
22  9 1.49393246E-02 1.46159457E-02 0.00000000E+00-1.41295339E-02 0.00000000E+00
22 10 1.42789022E-02-1.05606000E-01 0.00000000E+00 0.00000000E+00-5.48847152E-02
22 11 3.45673335E-02 0.00000000E+00 0.00000000E+00 1.03126659E-01 1.09014250E+00
22 12 0.00000000E+00 0.00000000E+00 1.60796711E+00 1.90353743E-02 7.47783579E-02
22 13-7.39254184E-02 0.00000000E+00 0.00000000E+00 0.00000000E+00
23  1 2.52440950E-02-4.56761873E-02 0.00000000E+00 0.00000000E+00 6.42601177E-02
23  2-8.57100460E-01 0.00000000E+00 0.00000000E+00 4.05376321E-01-2.14018548E-02
23  3 9.99938155E-03 2.07110504E-03 0.00000000E+00 0.00000000E+00 0.00000000E+00
23  4 1.96185467E-03-1.22585750E-02 8.53942717E-02 0.00000000E+00-6.84452222E-02
23  5-1.28771760E-02 1.92922574E-01 0.00000000E+00 3.95746084E-01 1.28489423E-02
23  6 1.34483281E-02-2.42838455E-02 0.00000000E+00 7.49151378E-03 0.00000000E+00
23  7 1.96185467E-03-1.22585750E-02-8.53942717E-02 0.00000000E+00-6.84452222E-02
23  8-1.28771760E-02-1.92922574E-01 0.00000000E+00 3.95746084E-01 1.28489423E-02
23  9 1.34483281E-02-2.42838455E-02 0.00000000E+00-7.49151378E-03 0.00000000E+00
23 10-5.59284451E-02 6.35264724E-02 0.00000000E+00 0.00000000E+00-1.81625278E-02
23 11-1.53595318E+00 0.00000000E+00 0.00000000E+00 1.45798504E-01 2.21596302E+00
23 12 0.00000000E+00 0.00000000E+00 2.51634127E-01-1.03789871E-01-4.82886158E-02
23 13-2.75430646E-02 0.00000000E+00 0.00000000E+00 0.00000000E+00
24  1 0.00000000E+00 0.00000000E+00 0.00000000E+00-7.63301429E-02 0.00000000E+00
24  2 0.00000000E+00 0.00000000E+00 1.26972448E-01 0.00000000E+00 0.00000000E+00
24  3 0.00000000E+00 0.00000000E+00 0.00000000E+00 0.00000000E+00-5.24092595E-03
24  4 0.00000000E+00 0.00000000E+00 0.00000000E+00-3.05072360E-03 0.00000000E+00
24  5 0.00000000E+00 0.00000000E+00-1.38482350E-01 0.00000000E+00 0.00000000E+00
24  6 0.00000000E+00 0.00000000E+00-1.55776976E-02 0.00000000E+00 1.34457903E-02
24  7 0.00000000E+00 0.00000000E+00 0.00000000E+00-3.05072360E-03 0.00000000E+00
24  8 0.00000000E+00 0.00000000E+00-1.38482350E-01 0.00000000E+00 0.00000000E+00
24  9 0.00000000E+00 0.00000000E+00 1.55776976E-02 0.00000000E+00 1.34457903E-02
24 10 0.00000000E+00 0.00000000E+00 0.00000000E+00 2.42609119E-01 0.00000000E+00
24 11 0.00000000E+00 0.00000000E+00-1.16427272E+00 0.00000000E+00 0.00000000E+00
24 12 0.00000000E+00 1.34069878E+00 0.00000000E+00 0.00000000E+00 0.00000000E+00
24 13 0.00000000E+00 0.00000000E+00 0.00000000E+00-7.06740623E-02
25  1-1.06858611E-01 1.68235748E-01 0.00000000E+00 0.00000000E+00-1.14039689E-01
25  2 3.35159779E+00 0.00000000E+00 0.00000000E+00-1.80321250E+00 2.03443956E-02
25  3-7.92353705E-03 2.20274932E-02 0.00000000E+00 0.00000000E+00 0.00000000E+00
25  4 4.80159407E-02 3.96676987E-03-8.65896514E-02 0.00000000E+00 6.66014795E-02
25  5-1.53461184E+00-6.00585519E-01 0.00000000E+00-1.11818454E+00-1.87634644E-02
25  6-6.72859609E-03 3.67462001E-02 0.00000000E+00 5.81148765E-03 0.00000000E+00
25  7 4.80159407E-02 3.96676987E-03 8.65896514E-02 0.00000000E+00 6.66014795E-02
25  8-1.53461184E+00 6.00585519E-01 0.00000000E+00-1.11818454E+00-1.87634644E-02
25  9-6.72859609E-03 3.67462001E-02 0.00000000E+00-5.81148765E-03 0.00000000E+00
25 10-1.90903292E-03-2.26600707E-02 0.00000000E+00 0.00000000E+00-2.04745640E-01
25 11-1.46851298E-01 0.00000000E+00 0.00000000E+00 8.34911566E-01-1.61564557E-01
25 12 0.00000000E+00 0.00000000E+00-8.52233137E-01 1.41970954E-01-1.41887657E-02
25 13-1.78893465E-01 0.00000000E+00 0.00000000E+00 0.00000000E+00
26  1 0.00000000E+00 0.00000000E+00 2.07486428E-02 0.00000000E+00 0.00000000E+00
26  2 0.00000000E+00 1.49460770E+00 0.00000000E+00 0.00000000E+00 0.00000000E+00
26  3 0.00000000E+00 0.00000000E+00 0.00000000E+00 3.49217880E-02 0.00000000E+00
26  4-9.14479364E-02 7.77576712E-02 6.85810816E-02 0.00000000E+00 2.31587900E-01
26  5 2.49868325E+00 1.43175586E+00 0.00000000E+00 6.57591887E-01 1.27274888E-02
26  6-5.83384757E-03 1.22110055E-02 0.00000000E+00 8.76546906E-03 0.00000000E+00
26  7 9.14479364E-02-7.77576712E-02 6.85810816E-02 0.00000000E+00-2.31587900E-01
26  8-2.49868325E+00 1.43175586E+00 0.00000000E+00-6.57591887E-01-1.27274888E-02
26  9 5.83384757E-03-1.22110055E-02 0.00000000E+00 8.76546906E-03 0.00000000E+00
26 10 0.00000000E+00 0.00000000E+00 1.04278350E-01 0.00000000E+00 0.00000000E+00
26 11 0.00000000E+00-4.03215164E-01 0.00000000E+00 0.00000000E+00 0.00000000E+00
26 12 4.66949860E-02 0.00000000E+00 0.00000000E+00 0.00000000E+00 0.00000000E+00
26 13 0.00000000E+00 0.00000000E+00 1.05480664E-01 0.00000000E+00
27  1 0.00000000E+00 0.00000000E+00-6.88276926E-02 0.00000000E+00 0.00000000E+00
27  2 0.00000000E+00 5.27379246E-01 0.00000000E+00 0.00000000E+00 0.00000000E+00
27  3 0.00000000E+00 0.00000000E+00 0.00000000E+00 2.69487450E-04 0.00000000E+00
27  4-5.22379718E-02 8.28051945E-02 1.34178222E-01 0.00000000E+00-1.01053087E-01
27  5 1.00807925E+00 7.15846719E-01 0.00000000E+00 1.71249245E-01-7.00003839E-04
27  6 9.99825671E-03 1.31487889E-03 0.00000000E+00 1.49604853E-02 0.00000000E+00
27  7 5.22379718E-02-8.28051945E-02 1.34178222E-01 0.00000000E+00 1.01053087E-01
27  8-1.00807925E+00 7.15846719E-01 0.00000000E+00-1.71249245E-01 7.00003839E-04
27  9-9.99825671E-03-1.31487889E-03 0.00000000E+00 1.49604853E-02 0.00000000E+00
27 10 0.00000000E+00 0.00000000E+00-2.88373638E-01 0.00000000E+00 0.00000000E+00
27 11 0.00000000E+00 1.30639145E+00 0.00000000E+00 0.00000000E+00 0.00000000E+00
27 12-1.13447696E+00 0.00000000E+00 0.00000000E+00 0.00000000E+00 0.00000000E+00
27 13 0.00000000E+00 0.00000000E+00-1.28448433E-01 0.00000000E+00
28  1-7.91159298E-02 1.11345924E-02 0.00000000E+00 0.00000000E+00 8.68241041E-02
28  2 3.47133871E+00 0.00000000E+00 0.00000000E+00-1.73002089E+00-3.92335265E-02
28  3 4.64595932E-03 5.20481918E-02 0.00000000E+00 0.00000000E+00 0.00000000E+00
28  4 4.80410088E-03 1.18561537E-01 7.53847773E-02 0.00000000E+00-1.75754482E-01