!   H3C-SiH2 full valence CI, doublet state...1,472,976 determinants 
!   the valence orbital space used is ROHF occupied plus VVOs.
!
!   E(ROHF) = -329.6500679178 (not computed in this run)
!   E(FCI)  = -329.7480150284
!
!   this run takes 176 seconds on 2.66 GHz Cloverton (13 Apr 2015)
!
 $contrl mult=2 scftyp=none cityp=aldet runtyp=energy $end
 $system mwords=33 $end
 $basis  gbasis=n31 ngauss=6 ndfunc=1 $end
 $guess  guess=moread norb=19 $end
 $cidet  group=Cs stsym=Ap ncore=6 nact=13 nels=13 $end
 $data
methysilyl radical...full valence space CI...ROHF/6-31G(d) geometry
Cs

H           1.0  -1.6220655135  -0.7931202033   1.2094292862
SI         14.0  -1.1181646596  -0.0927907231   0.0000000000
C           6.0   0.7760109675   0.0060356575   0.0000000000
H           1.0   1.1367387057   0.5321088078   0.8778933731
H           1.0   1.2148451837  -0.9879873139   0.0000000000
 $end
 
xxx $contrl scftyp=rohf cityp=none $end
xxx $scf    vvos=.true. $end
--- OPEN SHELL ORBITALS --- GENERATED AT Mon Apr 13 13:50:51 2015
E(ROHF)=     -329.6500679178...includes VVOs made by input just above.
 $VEC   
 1  1-4.41184014E-05 1.95613051E-04-4.41184014E-05 1.95613051E-04 9.96871735E-01
 1  2 1.24243982E-02 1.11280066E-05-6.24287960E-06 0.00000000E+00-1.68869254E-02
 1  3-9.59254783E-05 1.58776530E-05 0.00000000E+00 1.77514435E-03 6.17953304E-05
 1  4 1.03379436E-04 0.00000000E+00 5.92480592E-03 5.94042332E-03 5.90479363E-03
 1  5-1.05445330E-05 0.00000000E+00 0.00000000E+00-1.23038404E-05 3.30294494E-05
 1  6 6.97934616E-05 7.51692075E-06 0.00000000E+00 6.69426421E-04-9.12776991E-05
 1  7-2.46160664E-05 0.00000000E+00-2.11509637E-04-2.27299264E-05-2.61398771E-05
 1  8-1.08991732E-05 0.00000000E+00 0.00000000E+00-6.91741928E-06-2.02419026E-04
 1  9-6.91741928E-06-2.02419026E-04-2.02367795E-05-1.75864120E-04
 2  1-4.83959994E-05-2.09677968E-04-4.83959994E-05-2.09677968E-04 1.97650067E-05
 2  2 3.11648192E-05-5.03724019E-05-4.05410635E-06 0.00000000E+00 9.32061883E-04
 2  3 8.90620787E-04 2.47012589E-05 0.00000000E+00 1.12714730E-03 4.55868840E-04
 2  4-8.84342929E-05 0.00000000E+00 5.26982731E-06-7.34440247E-05-8.80360368E-06
 2  5 2.81789754E-05 0.00000000E+00 0.00000000E+00 9.95670964E-01 2.82704639E-02
 2  6 1.39968601E-04 1.53790642E-05 0.00000000E+00-1.25447226E-02-1.82013540E-04
 2  7 2.28047588E-05 0.00000000E+00-2.14393635E-03-1.94418268E-03-1.93430020E-03
 2  8-6.20737177E-06 0.00000000E+00 0.00000000E+00 1.94098979E-05 2.27793594E-03
 2  9 1.94098979E-05 2.27793594E-03 2.94176255E-05 2.24092935E-03
 3  1 2.92479198E-04-1.20680362E-04 2.92479198E-04-1.20680362E-04-2.68220859E-01
 3  2 1.03070939E+00 1.50433138E-03-4.10187917E-03 0.00000000E+00 6.53265455E-03
 3  3 3.65872164E-04-2.38413592E-04 0.00000000E+00-2.18018772E-03-1.56517360E-04
 3  4-1.01615444E-04 0.00000000E+00 1.76003080E-03 1.69129432E-03 1.78218837E-03
 3  5 3.95463120E-05 0.00000000E+00 0.00000000E+00-9.17277849E-05 2.06219327E-04
 3  6-2.62002104E-04-1.66366711E-05 0.00000000E+00-1.34939258E-03 9.83364201E-05
 3  7 6.39928521E-05 0.00000000E+00 3.91059408E-04 5.72570663E-05 5.97831523E-05
 3  8 1.98233328E-05 0.00000000E+00 0.00000000E+00 7.78261915E-05 4.15992737E-04
 3  9 7.78261915E-05 4.15992737E-04 8.00304560E-05 4.15673704E-04
 4  1-6.87268034E-04 1.02043028E-03 6.87268034E-04-1.02043028E-03 0.00000000E+00
 4  2 0.00000000E+00 0.00000000E+00 0.00000000E+00 9.94986412E-01 0.00000000E+00
 4  3 0.00000000E+00 0.00000000E+00 1.91902337E-02 0.00000000E+00 0.00000000E+00
 4  4 0.00000000E+00-3.67603814E-03 0.00000000E+00 0.00000000E+00 0.00000000E+00
 4  5 0.00000000E+00-2.92055224E-04-6.09843834E-04 0.00000000E+00 0.00000000E+00
 4  6 0.00000000E+00 0.00000000E+00 2.37426382E-04 0.00000000E+00 0.00000000E+00
 4  7 0.00000000E+00-1.62708515E-03 0.00000000E+00 0.00000000E+00 0.00000000E+00
 4  8 0.00000000E+00 4.17873645E-05-9.56894722E-05-1.17607772E-04-1.11520719E-03
 4  9 1.17607772E-04 1.11520719E-03 0.00000000E+00 0.00000000E+00
 5  1-4.58067431E-04 6.57300801E-04-4.58067431E-04 6.57300801E-04-3.03341869E-05
 5  2 2.20761584E-04 9.16451700E-01 3.87274286E-01 0.00000000E+00 6.63408170E-04
 5  3 1.83191742E-02 7.51706502E-03 0.00000000E+00-5.37608711E-04-4.19909666E-03
 5  4-1.45884716E-03 0.00000000E+00 8.46399368E-04-4.36376685E-05-5.66894733E-04
 5  5 4.45608452E-05 0.00000000E+00 0.00000000E+00-3.70340293E-04 5.16951287E-04
 5  6-8.39478331E-04 1.96581714E-05 0.00000000E+00-4.36991321E-03 8.20618076E-04
 5  7-5.20125595E-04 0.00000000E+00 1.18770776E-03 3.95424330E-05-2.71659460E-05
 5  8 8.03319994E-05 0.00000000E+00 0.00000000E+00 2.51815908E-04 1.52096225E-03
 5  9 2.51815908E-04 1.52096225E-03 1.98322958E-04 8.78514122E-04
 6  1-4.27571039E-04 5.86351074E-04-4.27571039E-04 5.86351074E-04-1.23399126E-03
 6  2 4.76986827E-03-3.87286010E-01 9.16597633E-01 0.00000000E+00 9.64873661E-05
 6  3-7.62752773E-03 1.73570411E-02 0.00000000E+00-1.31705163E-03 1.86640560E-03
 6  4-4.02249461E-03 0.00000000E+00-6.06018859E-04-1.02833411E-05-5.64455626E-04
 6  5-4.36986897E-05 0.00000000E+00 0.00000000E+00 1.46104719E-04-3.12746877E-04
 6  6 4.72273491E-04 2.37472578E-04 0.00000000E+00 1.75812804E-03-5.04918897E-04
 6  7-1.34901899E-03 0.00000000E+00-4.55587520E-04 4.23713278E-05-1.05214046E-04
 6  8 7.38364260E-06 0.00000000E+00 0.00000000E+00-5.59108530E-05 3.28459300E-04
 6  9-5.59108530E-05 3.28459300E-04-1.97265605E-04-1.58672200E-03
 7  1 1.45186804E-02 6.76711557E-03 1.45186804E-02 6.76711557E-03 1.37132292E-02
 7  2-6.75638044E-02-4.09409744E-02 2.35940617E-04 0.00000000E+00 1.20559438E-01
 7  3 8.44808091E-02-3.43473188E-04 0.00000000E+00 9.03295261E-03-5.44129509E-03
 7  4-6.24818303E-04 0.00000000E+00 3.32310067E-02-1.12915890E-02-9.22134205E-03
 7  5 3.94193927E-03 0.00000000E+00 0.00000000E+00-1.90767499E-01 3.49997010E-01
 7  6 3.38550192E-02 2.87109567E-03 0.00000000E+00 3.55083385E-01 1.34362424E-02
 7  7 1.37957368E-03 0.00000000E+00 3.00406183E-03 1.31985528E-02 1.34056089E-02
 7  8-3.76646806E-04 0.00000000E+00 0.00000000E+00 1.40009921E-01 4.29998632E-02
 7  9 1.40009921E-01 4.29998632E-02 1.38414637E-01 4.19019152E-02
 8  1 1.62656794E-01 1.44058206E-01 1.62656794E-01 1.44058206E-01 4.89638934E-02
 8  2-2.39782377E-01 9.20224782E-03 5.04229853E-02 0.00000000E+00 4.84736641E-01
 8  3-2.57950747E-02-1.23160006E-01 0.00000000E+00 1.01081822E-01 1.29737031E-03
 8  4-1.18575796E-02 0.00000000E+00 2.79080447E-03-6.03818509E-03 4.36629071E-02
 8  5 1.95032103E-02 0.00000000E+00 0.00000000E+00 2.28080714E-02-4.51178069E-02
 8  6-1.70602074E-01-5.89990335E-02 0.00000000E+00-4.40921520E-02-8.98741622E-02
 8  7-2.77141764E-02 0.00000000E+00 1.34364755E-02-3.95824118E-03-9.05887598E-03
 8  8-1.22385191E-04 0.00000000E+00 0.00000000E+00-6.93723749E-02-4.67622743E-02
 8  9-6.93723749E-02-4.67622743E-02-2.57679385E-02-1.46594762E-02
 9  1-4.68517378E-02-4.16704794E-02 4.68517378E-02 4.16704794E-02 0.00000000E+00
 9  2 0.00000000E+00 0.00000000E+00 0.00000000E+00-5.02368269E-02 0.00000000E+00
 9  3 0.00000000E+00 0.00000000E+00 1.17863144E-01 0.00000000E+00 0.00000000E+00
 9  4 0.00000000E+00 1.83327018E-02 0.00000000E+00 0.00000000E+00 0.00000000E+00
 9  5 0.00000000E+00 7.86603221E-03-1.32464852E-02 0.00000000E+00 0.00000000E+00
 9  6 0.00000000E+00 0.00000000E+00 4.17912168E-01 0.00000000E+00 0.00000000E+00
 9  7 0.00000000E+00 2.28954375E-01 0.00000000E+00 0.00000000E+00 0.00000000E+00
 9  8 0.00000000E+00 1.72569938E-02 2.86509977E-02-2.25569575E-01-1.78718332E-01
 9  9 2.25569575E-01 1.78718332E-01 0.00000000E+00 0.00000000E+00
10  1 1.75331182E-02 2.36966893E-02 1.75331182E-02 2.36966893E-02 7.10374010E-03
10  2-3.46814093E-02 9.87218713E-04-1.65642274E-02 0.00000000E+00 7.19743678E-02
10  3-1.96876290E-03 3.17891632E-02 0.00000000E+00 8.48737524E-03 7.62552914E-04
10  4 4.61505935E-03 0.00000000E+00-4.96784678E-04-1.23944961E-03 6.35562570E-03
10  5 2.30179305E-02 0.00000000E+00 0.00000000E+00 3.26071428E-03-6.75894099E-03
10  6-4.98443415E-02 4.25236804E-01 0.00000000E+00-6.22956307E-03-2.91681118E-02
10  7 2.38176567E-01 0.00000000E+00 9.45333172E-05-2.41573716E-02 2.37421760E-02
10  8 2.15916343E-02 0.00000000E+00 0.00000000E+00 1.25187471E-01 1.02059917E-01
10  9 1.25187471E-01 1.02059917E-01-2.76864534E-01-2.19906637E-01
11  1-2.27914467E-01-2.84323678E-01 2.27914467E-01 2.84323678E-01 0.00000000E+00
11  2 0.00000000E+00 0.00000000E+00 0.00000000E+00-1.55194350E-01 0.00000000E+00
11  3 0.00000000E+00 0.00000000E+00 3.99208740E-01 0.00000000E+00 0.00000000E+00
11  4 0.00000000E+00 5.29490448E-02 0.00000000E+00 0.00000000E+00 0.00000000E+00
11  5 0.00000000E+00-6.54311034E-02-8.42639490E-02 0.00000000E+00 0.00000000E+00
11  6 0.00000000E+00 0.00000000E+00-1.10746026E-01 0.00000000E+00 0.00000000E+00
11  7 0.00000000E+00-7.62746725E-02 0.00000000E+00 0.00000000E+00 0.00000000E+00
11  8 0.00000000E+00-9.40329102E-03-9.63852525E-03 6.71836176E-02 6.48910871E-02
11  9-6.71836176E-02-6.48910871E-02 0.00000000E+00 0.00000000E+00
12  1 1.17926646E-01 1.46326311E-01 1.17926646E-01 1.46326311E-01-5.31183858E-03
12  2 2.46654110E-02 1.47735817E-01 5.44127552E-02 0.00000000E+00-6.92731151E-02
12  3-3.73247795E-01-1.39533506E-01 0.00000000E+00 1.18580313E-02-3.48900986E-02
12  4-2.05191669E-02 0.00000000E+00-8.07163351E-02 2.32550330E-02 6.79314795E-02
12  5 1.27846281E-02 0.00000000E+00 0.00000000E+00 2.56845144E-02-4.41561516E-02
12  6 3.89416386E-01 3.59961899E-02 0.00000000E+00-1.07166923E-01 2.59316762E-01
12  7 2.47475302E-02 0.00000000E+00-1.48591159E-02 7.37165378E-03 1.00134594E-02
12  8 9.16077472E-04 0.00000000E+00 0.00000000E+00 7.74053701E-02 7.65909055E-02
12  9 7.74053701E-02 7.65909055E-02 5.89019105E-02 5.42078138E-02
13  1-6.42361597E-02-1.58760396E-01-6.42361597E-02-1.58760396E-01 2.45444532E-02
13  2-1.17742606E-01 7.66537329E-02-1.88159870E-01 0.00000000E+00 2.88928737E-01
13  3-2.24150868E-01 5.51538136E-01 0.00000000E+00 3.69990700E-01-1.04646583E-01
13  4 3.04772990E-01 0.00000000E+00-1.06448086E-02 6.37527570E-02-2.93012665E-02
13  5-5.11480628E-02 0.00000000E+00 0.00000000E+00 1.89472762E-02-3.10118245E-02
13  6 8.82748746E-02-4.00972672E-02 0.00000000E+00-9.69745816E-02 1.04139471E-01
13  7-4.04227247E-02 0.00000000E+00 3.08609842E-04 4.95107076E-03-4.14889352E-03
13  8-1.25401673E-02 0.00000000E+00 0.00000000E+00-1.43238523E-02-4.11325512E-02
13  9-1.43238523E-02-4.11325512E-02 5.22883480E-02 1.03929990E-01
14  1 1.28942807E-01 1.85587333E-01 1.28942807E-01 1.85587333E-01 1.29149166E-02
14  2-5.33834630E-02-2.09229700E-01-4.98798670E-02 0.00000000E+00 2.06890125E-01
14  3 8.24106876E-01 2.02666937E-01 0.00000000E+00 7.87724993E-02 5.11024774E-01
14  4 1.23704083E-01 0.00000000E+00-1.19086612E-04 1.52257603E-03 4.41977803E-03
14  5 1.17703338E-03 0.00000000E+00 0.00000000E+00 1.14447950E-01-4.92714773E-01
14  6 4.00696307E-01 3.04393207E-02 0.00000000E+00-6.52196198E-01 2.69458983E-01
14  7 2.22597439E-02 0.00000000E+00 9.57314606E-03 1.27465848E-02 1.25657317E-02
14  8-3.61055489E-04 0.00000000E+00 0.00000000E+00 3.20386801E-02 8.71707015E-02
14  9 3.20386801E-02 8.71707015E-02 7.36818680E-02 1.46889562E-01
15  1 4.00856786E-01 5.64758339E-01-4.00856786E-01-5.64758339E-01 0.00000000E+00
15  2 0.00000000E+00 0.00000000E+00 0.00000000E+00-2.29713642E-01 0.00000000E+00
15  3 0.00000000E+00 0.00000000E+00 9.26557271E-01 0.00000000E+00 0.00000000E+00
15  4 0.00000000E+00 5.57807098E-01 0.00000000E+00 0.00000000E+00 0.00000000E+00
15  5 0.00000000E+00 6.91996056E-03 1.02273513E-02 0.00000000E+00 0.00000000E+00
15  6 0.00000000E+00 0.00000000E+00 3.38909281E-02 0.00000000E+00 0.00000000E+00
15  7 0.00000000E+00 3.44024207E-02 0.00000000E+00 0.00000000E+00 0.00000000E+00
15  8 0.00000000E+00-9.87881978E-04-4.45595995E-04 1.27558008E-01 1.82849201E-01
15  9-1.27558008E-01-1.82849201E-01 0.00000000E+00 0.00000000E+00
16  1-4.01692724E-01-5.53517473E-01-4.01692724E-01-5.53517473E-01 5.23938707E-02
16  2-1.86573118E-01 2.02999921E-02 1.31842671E-01 0.00000000E+00 9.96589953E-01
16  3-9.24686395E-02-5.27353503E-01 0.00000000E+00 2.78939005E-01-4.18459311E-02
16  4-3.14714350E-01 0.00000000E+00 3.53524259E-03 5.26138821E-03-5.18597332E-03
16  5-4.38048927E-03 0.00000000E+00 0.00000000E+00 4.19472631E-02-1.63464088E-01
16  6 2.22959263E-01-2.96016383E-02 0.00000000E+00-1.52164971E-01 1.45579293E-01
16  7-2.74655422E-02 0.00000000E+00-2.65182858E-03-1.63699581E-03-1.29272091E-03
16  8 5.24148827E-04 0.00000000E+00 0.00000000E+00 6.40231773E-02 9.16107914E-02
16  9 6.40231773E-02 9.16107914E-02-8.49938227E-02-1.17078395E-01
17  1 2.88706797E-02 4.70524618E-02 2.88706797E-02 4.70524618E-02 9.54881928E-03
17  2-2.80881513E-02-6.12885410E-02-1.28385118E-02 0.00000000E+00 1.98825371E-01
17  3 2.70454421E-01 5.24134146E-02 0.00000000E+00-3.38652290E-02 1.20793919E-01
17  4 3.25762758E-02 0.00000000E+00 6.35721377E-03 6.27698381E-03 5.40184043E-03
17  5-8.52130752E-05 0.00000000E+00 0.00000000E+00-1.28386884E-01 6.03028461E-01
17  6 5.80756918E-01 4.82039543E-02 0.00000000E+00 8.54877995E-01 3.92834040E-01
17  7 3.24918665E-02 0.00000000E+00-1.48500995E-02-1.55822470E-02-1.57740106E-02
17  8 2.95479820E-05 0.00000000E+00 0.00000000E+00-3.70387449E-01-5.57094975E-01
17  9-3.70387449E-01-5.57094975E-01-3.43535286E-01-5.19439627E-01
18  1-6.03607493E-02-7.64880377E-02-6.03607493E-02-7.64880377E-02 5.54524511E-03
18  2-1.86764609E-02 9.93152863E-03 3.63739202E-02 0.00000000E+00 1.11721956E-01
18  3-4.24534353E-02-1.65794877E-01 0.00000000E+00 2.26144326E-02-2.33141785E-02
18  4-7.75043187E-02 0.00000000E+00 1.47366498E-04 1.63342433E-03-1.79883408E-03
18  5 3.14172212E-03 0.00000000E+00 0.00000000E+00 4.39699219E-03-1.87045593E-02
18  6-4.51326547E-02 8.09082786E-01 0.00000000E+00-1.67140437E-02-3.39591594E-02
18  7 5.60443209E-01 0.00000000E+00-4.80566269E-04 3.21536839E-04-1.03190565E-03
18  8 1.04542381E-03 0.00000000E+00 0.00000000E+00-2.66833954E-01-3.45106627E-01
18  9-2.66833954E-01-3.45106627E-01 5.63168970E-01 7.33870339E-01
19  1-8.13421592E-02-1.05311207E-01 8.13421592E-02 1.05311207E-01 0.00000000E+00
19  2 0.00000000E+00 0.00000000E+00 0.00000000E+00 5.59506956E-02 0.00000000E+00
19  3 0.00000000E+00 0.00000000E+00-2.51587495E-01 0.00000000E+00 0.00000000E+00
19  4 0.00000000E+00-1.24343553E-01 0.00000000E+00 0.00000000E+00 0.00000000E+00
19  5 0.00000000E+00 2.03088340E-03-3.78024740E-03 0.00000000E+00 0.00000000E+00
19  6 0.00000000E+00 0.00000000E+00 8.16174603E-01 0.00000000E+00 0.00000000E+00
19  7 0.00000000E+00 5.63006979E-01 0.00000000E+00 0.00000000E+00 0.00000000E+00
19  8 0.00000000E+00 1.27763177E-03-7.21733862E-04 4.72970632E-01 6.14114666E-01
19  9-4.72970632E-01-6.14114666E-01 0.00000000E+00 0.00000000E+00
 $end

! TRAVIS-CI SMALL

! TRAVIS-CI SKIP
