!    Be2 at R=2.5: near its equilibrium distance
!    the new CCD basis is 3s,2p,1d...30 AOs and 28 MOs
!    valence full CI using Joe's programs...13,645 determinants
!
!    FINAL E= -29.1333650804, 14 iters.
!    CI EIGENSTATE   1 TOTAL ENERGY = -29.2342587238, 14 Davidson iters.
!        s,p,d pops at SCF level: 3.83, 0.16, 0.01
!        s,p,d pops at FCI level: 3.62, 0.37, 0.01
!
!    This run takes 1 seconds on 2.66 GHz cloverton (10 Nov 2009)
!
 $contrl scftyp=rhf cityp=aldet runtyp=energy ispher=1 $end
 $system mwords=1 $end
 $guess  guess=huckel norb=28 $end
 $cidet  group=d2h ncore=2 nact=26 nels=4 $end

-------- single reference calculations using ORMAS CI would be -------
!           conventional CISD, from RHF...2,325 determinants
x$cidet  group=d2h ncore=2 nact=26 nels=4 $end
x$ormas  nspace=2 mstart(1)=3,5 mine(1)=2,0 maxe(1)=4,2 $end
!           conventional CISDT, from RHF...3,933 determinants
x$cidet  group=d2h ncore=2 nact=26 nels=4 $end
x$ormas  nspace=2 mstart(1)=3,5 mine(1)=1,0 maxe(1)=4,3 $end
!           conventional CISDTQ, from RHF...13,645 determinants
x$cidet  group=d2h ncore=2 nact=26 nels=4 $end
x$ormas  nspace=2 mstart(1)=3,5 mine(1)=0,0 maxe(1)=4,4 $end

!  basis= B.P. Prascher, K.A. Peterson, D.E. Woon, T.H. Dunning, A.K. Wilson
 $data
beryllium dimer...revised cc-pVDZ basis set from David Feller
Dnh 2

Be   4.0   0.0 0.0 2.5/2.0
 S   8
  1        2940.000000         0.6800000000E-03
  2        441.2000000         0.5236000000E-02
  3        100.5000000         0.2660600000E-01
  4        28.43000000         0.9999300000E-01
  5        9.169000000         0.2697020000    
  6        3.196000000         0.4514690000    
  7        1.159000000         0.2950740000    
  8       0.1811000000         0.1258700000E-01
 S   8
  1        2940.000000        -0.1230000000E-03
  2        441.2000000        -0.9660000000E-03
  3        100.5000000        -0.4831000000E-02
  4        28.43000000        -0.1931400000E-01
  5        9.169000000        -0.5328000000E-01
  6        3.196000000        -0.1207230000    
  7        1.159000000        -0.1334350000    
  8       0.1811000000         0.5307670000    
 S   1
  1       0.5890000000E-01      1.000000000    
 P   3
  1        3.619000000         0.2911100000E-01
  2       0.7110000000         0.1693650000    
  3       0.1951000000         0.5134580000    
 P   1
  1       0.6018000000E-01      1.000000000    
 D   1
  1       0.2354000000          1.000000000    

 $end

! TRAVIS-CI SMALL

! TRAVIS-CI SKIP
