!   H3C-SiH3 full valence CI, on a triplet state...4,509,369 determinants
!   the valence orbital space used is ROHF occupied plus VVOs.
!   deliberately run in Cs rather than C3v symmetry to have Abelian group.
!
!   E(ROHF)= -329.9562790392 (not computed in this run)
!   E(FCI) = -330.0561271603 in 19 Davidson iterations
!
!   this run takes 1063 seconds on 2.66 GHz Cloverton (14 Apr 2015)
!
 $contrl mult=3 scftyp=none cityp=aldet runtyp=energy $end
 $system mwords=100 $end
 $basis  gbasis=n31 ngauss=6 ndfunc=1 $end
 $guess  guess=moread norb=20 $end
 $cidet  group=Cs stsym=Ap ncore=6 nact=14 nels=14 $end

 $data
methysilane...full valence space CI...RHF/6-31G(d) geometry
Cs

H    1.0  -1.6097657777  -0.7967347640   1.2027129604
H    1.0  -1.7037743498   1.2844627215   0.0000000000
SI  14.0  -1.1197775532  -0.0794294143   0.0000000000
C    6.0   0.7685718441   0.0058513105   0.0000000000
H    1.0   1.1347162371   0.5297098227   0.8778208804
H    1.0   1.2033426664  -0.9891371840   0.0000000000
 $end
 
xxx $contrl scftyp=rohf cityp=none $end
xxx $scf    vvos=.true. $end
--- OPEN SHELL ORBITALS --- GENERATED AT Mon Apr 13 11:14:07 2015
E(ROHF)= -329.9562790392...VVOs made by input just above
 $VEC   
 1  1-5.79496526E-05 2.66731665E-04-5.79496526E-05 2.66731665E-04-5.79280126E-05
 1  2 2.66675596E-04 9.96872509E-01 1.24248092E-02 6.26806913E-05 2.83580711E-06
 1  3 0.00000000E+00-1.68794642E-02-1.15673089E-04-5.21772107E-06 0.00000000E+00
 1  4 1.47010980E-03 8.66545786E-05 3.95202108E-06 0.00000000E+00 5.92496537E-03
 1  5 5.92286420E-03 5.92286524E-03 1.09176825E-07 0.00000000E+00 0.00000000E+00
 1  6-1.53114055E-05 1.87357357E-05 7.66577453E-05 3.46295678E-06 0.00000000E+00
 1  7 7.21341103E-04-1.63168035E-04-7.37855990E-06 0.00000000E+00-2.06529643E-04
 1  8-2.97636681E-05-2.94039249E-05-9.23795554E-06 0.00000000E+00 0.00000000E+00
 1  9-1.62482690E-05-1.63266436E-04-1.62482690E-05-1.63266436E-04-1.62544079E-05
 1 10-1.63262741E-04
 2  1-2.84405891E-05-2.93082520E-04-2.84405891E-05-2.93082520E-04-2.84404942E-05
 2  2-2.93017453E-04 6.23524454E-06 9.00057940E-05 3.94950258E-05 1.78745407E-06
 2  3 0.00000000E+00 7.64590622E-04 4.95428017E-04 2.23501910E-05 0.00000000E+00
 2  4 1.73553680E-03 7.20942095E-04 3.25017470E-05 0.00000000E+00-2.95363915E-04
 2  5 4.72872481E-07 1.07336554E-06-1.54598960E-05 0.00000000E+00 0.00000000E+00
 2  6 9.95887187E-01 2.81569750E-02-4.73606836E-05-2.17323380E-06 0.00000000E+00
 2  7-1.30344086E-02 1.52890194E-04 6.95323338E-06 0.00000000E+00-2.46338084E-03
 2  8-2.08685209E-03-2.08610239E-03-1.97071848E-05 0.00000000E+00 0.00000000E+00
 2  9-7.14336822E-05 2.11634361E-03-7.14336822E-05 2.11634361E-03-7.14398362E-05
 2 10 2.11641589E-03
 3  1 3.77213414E-04-2.48954729E-04 3.77213414E-04-2.48954729E-04 3.77111727E-04
 3  2-2.48848007E-04-2.68221323E-01 1.03075610E+00 8.48904373E-03 3.84071600E-04
 3  3 0.00000000E+00 6.19139944E-03 2.02739958E-03 9.15911901E-05 0.00000000E+00
 3  4-1.20460453E-03-2.06418669E-04-9.39696874E-06 0.00000000E+00 2.74938577E-03
 3  5 1.59887752E-03 1.59654115E-03 6.01303007E-05 0.00000000E+00 0.00000000E+00
 3  6 6.72988708E-05 4.36395391E-04 2.09505440E-04 9.46849888E-06 0.00000000E+00
 3  7-3.08860000E-03 1.02379470E-03 4.62243890E-05 0.00000000E+00-1.22249606E-05
 3  8 1.29285036E-04 1.29568374E-04-7.39179094E-06 0.00000000E+00 0.00000000E+00
 3  9 1.50736983E-04 5.19580680E-04 1.50736983E-04 5.19580680E-04 1.50732091E-04
 3 10 5.19543433E-04
 4  1-8.31618831E-04 9.58813092E-04 8.31618831E-04-9.58813092E-04 0.00000000E+00
 4  2 0.00000000E+00 0.00000000E+00 0.00000000E+00 0.00000000E+00 0.00000000E+00
 4  3 9.95156752E-01 0.00000000E+00 0.00000000E+00 0.00000000E+00 1.85387484E-02
 4  4 0.00000000E+00 0.00000000E+00 0.00000000E+00-3.49030328E-03 0.00000000E+00
 4  5 0.00000000E+00 0.00000000E+00 0.00000000E+00 1.29720705E-03-5.73901809E-04
 4  6 0.00000000E+00 0.00000000E+00 0.00000000E+00 0.00000000E+00 1.74270098E-04
 4  7 0.00000000E+00 0.00000000E+00 0.00000000E+00-2.05364579E-03 0.00000000E+00
 4  8 0.00000000E+00 0.00000000E+00 0.00000000E+00 1.77688952E-04-1.19280060E-04
 4  9-1.41815985E-04-1.28006881E-03 1.41815985E-04 1.28006881E-03 0.00000000E+00
 4 10 0.00000000E+00
 5  1-4.80230401E-04 5.53909351E-04-4.80230401E-04 5.53909351E-04 9.59970152E-04
 5  2-1.10687978E-03 1.81644433E-07-7.16813254E-07-4.49009538E-02 9.94143261E-01
 5  3 0.00000000E+00 4.31091968E-07-8.36463659E-04 1.85199564E-02 0.00000000E+00
 5  4-6.98377605E-07 1.57505833E-04-3.48656795E-03 0.00000000E+00-9.82248198E-05
 5  5 6.45157474E-04-5.47466486E-04 1.23628507E-03 0.00000000E+00 0.00000000E+00
 5  6-1.03236006E-08-4.39943636E-08-7.86553804E-06 1.74108648E-04 0.00000000E+00
 5  7 2.42293819E-07 9.25859026E-05-2.05164507E-03 0.00000000E+00-1.32078802E-05
 5  8 1.23339158E-04-1.10150102E-04 1.65689270E-04 0.00000000E+00 0.00000000E+00
 5  9 8.18659715E-05 7.39087498E-04 8.18659715E-05 7.39087498E-04-1.63776342E-04
 5 10-1.47812518E-03
 6  1-1.62290620E-04 5.13776463E-04-1.62290620E-04 5.13776463E-04-1.62191221E-04
 6  2 5.13602972E-04 2.60285803E-03-1.00849180E-02 9.93416572E-01 4.48681125E-02
 6  3 0.00000000E+00 8.51853884E-03 2.22071795E-02 1.00304673E-03 0.00000000E+00
 6  4-5.80380785E-04-3.76253589E-03-1.69843139E-04 0.00000000E+00 1.25066635E-03
 6  5-3.95053729E-03-3.96114902E-03 2.71822793E-04 0.00000000E+00 0.00000000E+00
 6  6-1.33386999E-04 9.64699675E-04-1.29739739E-04-5.83412225E-06 0.00000000E+00
 6  7-8.07281869E-03 2.63859175E-03 1.19098235E-04 0.00000000E+00 6.62760589E-04
 6  8 1.16986594E-04 1.15855518E-04 2.85325109E-05 0.00000000E+00 0.00000000E+00
 6  9 3.80061524E-04 1.48625418E-03 3.80061524E-04 1.48625418E-03 3.80032835E-04
 6 10 1.48623762E-03
 7  1 1.39966029E-02 9.94861730E-03 1.39966029E-02 9.94861730E-03 1.39958776E-02
 7  2 9.94823986E-03 1.03018924E-02-5.16707139E-02-2.60700183E-02-1.17708572E-03
 7  3 0.00000000E+00 8.32557605E-02 4.30165258E-02 1.94237045E-03 0.00000000E+00
 7  4 8.63053414E-03 7.18856817E-03 3.25363962E-04 0.00000000E+00 1.92415378E-02
 7  5-5.26614242E-03-5.31654746E-03 1.28090192E-03 0.00000000E+00 0.00000000E+00
 7  6-1.90373099E-01 3.69491158E-01 7.36965466E-02 3.32324977E-03 0.00000000E+00
 7  7 3.50605030E-01 4.42187006E-02 1.99595140E-03 0.00000000E+00 5.12130563E-04
 7  8 1.56762802E-02 1.57074248E-02-7.93832414E-04 0.00000000E+00 0.00000000E+00
 7  9 1.47021419E-01 3.61229855E-02 1.47021419E-01 3.61229855E-02 1.47027876E-01
 7 10 3.61250087E-02
 8  1 1.42224842E-01 1.13428800E-01 1.42224842E-01 1.13428800E-01 1.42216076E-01
 8  2 1.13425374E-01 5.27741072E-02-2.57536576E-01 2.26953719E-02 1.02859561E-03
 8  3 0.00000000E+00 5.28583267E-01-4.43055543E-02-2.00990209E-03 0.00000000E+00
 8  4 1.40312413E-01 4.36393076E-02 1.97219008E-03 0.00000000E+00-2.14352617E-02
 8  5 3.30450048E-02 3.31533077E-02-2.84249446E-03 0.00000000E+00 0.00000000E+00
 8  6 2.67543345E-02-5.50946683E-02-9.35541107E-02-4.16828430E-03 0.00000000E+00
 8  7-1.16718775E-01-2.59838080E-02-1.14280855E-03 0.00000000E+00 1.12038610E-02
 8  8-5.16820682E-03-5.19540407E-03 8.58220750E-04 0.00000000E+00 0.00000000E+00
 8  9-3.78498287E-02-1.69968892E-02-3.78498287E-02-1.69968892E-02-3.79011639E-02
 8 10-1.70286587E-02
 9  1-2.77418194E-02-2.17783702E-02 2.77418194E-02 2.17783702E-02 0.00000000E+00
 9  2 0.00000000E+00 0.00000000E+00 0.00000000E+00 0.00000000E+00 0.00000000E+00
 9  3-3.71766157E-02 0.00000000E+00 0.00000000E+00 0.00000000E+00 8.52109816E-02
 9  4 0.00000000E+00 0.00000000E+00 0.00000000E+00 3.74674119E-03 0.00000000E+00
 9  5 0.00000000E+00 0.00000000E+00 0.00000000E+00 1.58703771E-02-7.32403466E-03
 9  6 0.00000000E+00 0.00000000E+00 0.00000000E+00 0.00000000E+00 4.53512741E-01
 9  7 0.00000000E+00 0.00000000E+00 0.00000000E+00 2.45439051E-01 0.00000000E+00
 9  8 0.00000000E+00 0.00000000E+00 0.00000000E+00 1.63124027E-02 3.05268052E-02
 9  9-2.29661463E-01-1.50202860E-01 2.29661463E-01 1.50202860E-01 0.00000000E+00
 9 10 0.00000000E+00
10  1-1.60363277E-02-1.25889894E-02-1.60363277E-02-1.25889894E-02 3.20154603E-02
10  2 2.51345016E-02-6.07506309E-06 2.95108607E-05 1.67054115E-03-3.71396689E-02
10  3 0.00000000E+00-6.19500769E-05-3.83090290E-03 8.51265316E-02 0.00000000E+00
10  4-1.94644401E-05-1.75045228E-04 3.74283934E-03 0.00000000E+00-1.19231738E-03
10  5 8.14829397E-03-6.96138300E-03 1.50982770E-02 0.00000000E+00 0.00000000E+00
10  6-5.90857696E-06 1.12790020E-05-2.04658052E-02 4.53052922E-01 0.00000000E+00
10  7 2.26060113E-05-1.10784592E-02 2.45188101E-01 0.00000000E+00-1.43379992E-03
10  8-2.43394192E-02 2.57738052E-02 1.89434412E-02 0.00000000E+00 0.00000000E+00
10  9 1.32600027E-01 8.67234000E-02 1.32600027E-01 8.67234000E-02-2.65185486E-01
10 10-1.73436221E-01
11  1-1.31613567E-01-1.49191294E-01-1.31613567E-01-1.49191294E-01 2.63236015E-01
11  2 2.98410969E-01 1.61865095E-06-7.82915499E-06 7.49854676E-03-1.66032381E-01
11  3 0.00000000E+00 1.65148934E-05-1.98676135E-02 4.39912228E-01 0.00000000E+00
11  4 7.52857071E-06-3.28338497E-03 7.27556197E-02 0.00000000E+00 3.48800971E-03
11  5 7.48390221E-02-7.83231543E-02-4.65315262E-02 0.00000000E+00 0.00000000E+00
11  6 1.16879119E-06-2.37450497E-06 3.88385447E-03-8.60336143E-02 0.00000000E+00
11  7-6.61372108E-06 2.11854013E-03-4.69406386E-02 0.00000000E+00 7.51413591E-04
11  8 5.79457277E-03-6.54624857E-03-9.75091250E-03 0.00000000E+00 0.00000000E+00
11  9-3.07077429E-02-3.22731020E-02-3.07077429E-02-3.22731020E-02 6.14108619E-02
11 10 6.45439328E-02
12  1-2.27968626E-01-2.58429801E-01 2.27968626E-01 2.58429801E-01 0.00000000E+00
12  2 0.00000000E+00 0.00000000E+00 0.00000000E+00 0.00000000E+00 0.00000000E+00
12  3-1.66201800E-01 0.00000000E+00 0.00000000E+00 0.00000000E+00 4.40360215E-01
12  4 0.00000000E+00 0.00000000E+00 0.00000000E+00 7.28290326E-02 0.00000000E+00
12  5 0.00000000E+00 0.00000000E+00 0.00000000E+00-3.85025750E-02-9.22835803E-02
12  6 0.00000000E+00 0.00000000E+00 0.00000000E+00 0.00000000E+00-8.61185564E-02
12  7 0.00000000E+00 0.00000000E+00 0.00000000E+00-4.69853626E-02 0.00000000E+00
12  8 0.00000000E+00 0.00000000E+00 0.00000000E+00-9.09786468E-03-7.97706645E-03
12  9 5.31836358E-02 5.58979893E-02-5.31836358E-02-5.58979893E-02 0.00000000E+00
12 10 0.00000000E+00
13  1 6.15583008E-02 4.25226926E-02 6.15583008E-02 4.25226926E-02 6.15596472E-02
13  2 4.25305758E-02-6.73835118E-03 2.93459958E-02 1.50311846E-01 6.78897569E-03
13  3 0.00000000E+00-7.73336329E-02-3.84741658E-01-1.73778286E-02 0.00000000E+00
13  4 8.82339379E-02-6.65636922E-02-3.00881696E-03 0.00000000E+00-9.89031034E-02
13  5 4.76365676E-02 4.79320868E-02-7.65509866E-03 0.00000000E+00 0.00000000E+00
13  6 4.35068939E-02-1.32831369E-01 4.86426660E-01 2.19853655E-02 0.00000000E+00
13  7-5.27005862E-02 2.35201102E-01 1.06350748E-02 0.00000000E+00-3.66869433E-02
13  8 1.42295776E-02 1.43351074E-02-2.66155015E-03 0.00000000E+00 0.00000000E+00
13  9 6.55665100E-02 5.10516895E-02 6.55665100E-02 5.10516895E-02 6.55586791E-02
13 10 5.10446381E-02
14  1-8.23076656E-03 8.03152538E-02-8.23076656E-03 8.03152538E-02-8.23304650E-03
14  2 8.02925177E-02 4.86791942E-03-4.34684497E-02-1.02902303E-01-4.64841212E-03
14  3 0.00000000E+00-8.92357737E-03 3.26694238E-01 1.47592517E-02 0.00000000E+00
14  4 5.53463229E-01 1.16163438E+00 5.24835363E-02 0.00000000E+00-1.25324712E-01
14  5 6.46478577E-02 6.50377459E-02-9.92609083E-03 0.00000000E+00 0.00000000E+00
14  6 9.61593643E-02-1.69433349E-01 1.91904476E-01 8.66604468E-03 0.00000000E+00
14  7-1.08117828E+00 3.42302912E-01 1.54570746E-02 0.00000000E+00-4.49344035E-03
14  8 9.45328117E-03 9.48138385E-03-7.29481593E-04 0.00000000E+00 0.00000000E+00
14  9 1.72560888E-02 6.94927560E-02 1.72560888E-02 6.94927560E-02 1.72573449E-02
14 10 6.94964613E-02
15  1 3.95393837E-01 5.58131300E-01-3.95393837E-01-5.58131300E-01 0.00000000E+00
15  2 0.00000000E+00 0.00000000E+00 0.00000000E+00 0.00000000E+00 0.00000000E+00
15  3-2.16408996E-01 0.00000000E+00 0.00000000E+00 0.00000000E+00 8.78919226E-01
15  4 0.00000000E+00 0.00000000E+00 0.00000000E+00 5.31189437E-01 0.00000000E+00
15  5 0.00000000E+00 0.00000000E+00 0.00000000E+00 6.92525548E-03 1.00875625E-02
15  6 0.00000000E+00 0.00000000E+00 0.00000000E+00 0.00000000E+00 1.31196336E-01
15  7 0.00000000E+00 0.00000000E+00 0.00000000E+00 1.01808237E-01 0.00000000E+00
15  8 0.00000000E+00 0.00000000E+00 0.00000000E+00-9.39653398E-04-5.55200329E-04
15  9 1.81352661E-01 2.52642538E-01-1.81352661E-01-2.52642538E-01 0.00000000E+00
15 10 0.00000000E+00
16  1 2.28049974E-01 3.21924075E-01 2.28049974E-01 3.21924075E-01-4.56793506E-01
16  2-6.44789722E-01 4.31374020E-05-1.55254526E-04 9.79853141E-03-2.16186795E-01
16  3 0.00000000E+00 8.08961312E-04-3.98049314E-02 8.78018307E-01 0.00000000E+00
16  4 2.10371280E-04-2.40476681E-02 5.30642640E-01 0.00000000E+00-5.89939710E-04
16  5-7.86217593E-03 8.45607825E-03 7.78401698E-03 0.00000000E+00 0.00000000E+00
16  6 1.03087123E-05-3.46531946E-05-5.75568709E-03 1.31126639E-01 0.00000000E+00
16  7 1.49397231E-05-4.48934431E-03 1.01749369E-01 0.00000000E+00 7.17782240E-05
16  8 3.63181799E-04-4.47508133E-04-9.82675999E-04 0.00000000E+00 0.00000000E+00
16  9-1.04747073E-01-1.45928015E-01-1.04747073E-01-1.45928015E-01 2.09425753E-01
16 10 2.91740783E-01
17  1-3.46458182E-01-4.67640183E-01-3.46458182E-01-4.67640183E-01-3.45977293E-01
17  2-4.66967006E-01 6.34443261E-02-2.22802037E-01 4.39416519E-02 2.13377557E-03
17  3 0.00000000E+00 1.22129745E+00-2.01619263E-01-9.72976106E-03 0.00000000E+00
17  4 3.08598965E-01-1.09522978E-01-5.32127952E-03 0.00000000E+00 5.13907999E-03
17  5 1.15890631E-03 1.14007596E-03 2.02081845E-04 0.00000000E+00 0.00000000E+00
17  6 1.20148705E-02-3.54231235E-02 2.76472201E-01 1.23582850E-02 0.00000000E+00
17  7 4.76595920E-02 1.76204391E-01 7.86023098E-03 0.00000000E+00-6.89361946E-03
17  8-6.59528317E-03-6.59430147E-03-1.49211486E-05 0.00000000E+00 0.00000000E+00
17  9-4.52073613E-02-7.31789091E-02-4.52073613E-02-7.31789091E-02-4.54680334E-02
17 10-7.35382432E-02
18  1 8.81511645E-02 1.30313024E-01 8.81511645E-02 1.30313024E-01 8.82326435E-02
18  2 1.30420416E-01-8.69756843E-04 8.74214541E-03-9.46716832E-02-4.24407652E-03
18  3 0.00000000E+00-1.11553668E-03 4.01982286E-01 1.80202021E-02 0.00000000E+00
18  4-9.49038584E-02 1.99717150E-01 8.95126980E-03 0.00000000E+00 5.73265996E-03
18  5 5.90998036E-03 5.90679084E-03-8.40480014E-06 0.00000000E+00 0.00000000E+00
18  6-1.19728745E-01 5.66039306E-01 5.71657164E-01 2.61976556E-02 0.00000000E+00
18  7 7.93667493E-01 3.85857102E-01 1.76886654E-02 0.00000000E+00-1.30405587E-02
18  8-1.37430130E-02-1.37453023E-02 3.73209761E-05 0.00000000E+00 0.00000000E+00
18  9-3.55806537E-01-5.30841192E-01-3.55806537E-01-5.30841192E-01-3.55428186E-01
18 10-5.30349717E-01
19  1-1.27738608E-01-1.72188412E-01 1.27738608E-01 1.72188412E-01 0.00000000E+00
19  2 0.00000000E+00 0.00000000E+00 0.00000000E+00 0.00000000E+00 0.00000000E+00
19  3 8.21584180E-02 0.00000000E+00 0.00000000E+00 0.00000000E+00-3.57157252E-01
19  4 0.00000000E+00 0.00000000E+00 0.00000000E+00-1.90069891E-01 0.00000000E+00
19  5 0.00000000E+00 0.00000000E+00 0.00000000E+00 1.40762465E-03-4.87316705E-03
19  6 0.00000000E+00 0.00000000E+00 0.00000000E+00 0.00000000E+00 7.92991208E-01
19  7 0.00000000E+00 0.00000000E+00 0.00000000E+00 5.46440306E-01 0.00000000E+00
19  8 0.00000000E+00 0.00000000E+00 0.00000000E+00 1.34695032E-03-7.04805129E-04
19  9 4.59138455E-01 5.95948964E-01-4.59138455E-01-5.95948964E-01 0.00000000E+00
19 10 0.00000000E+00
20  1-7.38356445E-02-9.95309174E-02-7.38356445E-02-9.95309174E-02 1.47479089E-01
20  2 1.98794103E-01 4.06003652E-06-1.61881891E-05-3.66229996E-03 8.20969004E-02
20  3 0.00000000E+00 7.54180203E-05 1.59185233E-02-3.56886431E-01 0.00000000E+00
20  4 6.01190954E-05 8.47941270E-03-1.89926480E-01 0.00000000E+00-8.61846974E-05
20  5 4.35280644E-03-4.27448321E-03 9.58218782E-04 0.00000000E+00 0.00000000E+00
20  6 5.82180555E-05-2.82711776E-04-3.60480565E-02 7.92162186E-01 0.00000000E+00
20  7-3.87076250E-04-2.48369335E-02 5.45867193E-01 0.00000000E+00-9.54651259E-05
20  8 7.69479101E-04-6.56071903E-04 1.27427362E-03 0.00000000E+00 0.00000000E+00
20  9-2.64908144E-01-3.43810299E-01-2.64908144E-01-3.43810299E-01 5.30325844E-01
20 10 6.88379529E-01
 $end

! TRAVIS-CI MEDIUM

