!  test the CI energy decomposition analysis...available for ALDET
!  MeOH...PCseg-2 basis has 130 AOs and 116 MOs
!  The calculation is done for a full valence CI, using just the
!  RHF occupied and Valence Virtuals as the valence orbitals.
!  The valence CI has 314,280 determinants of A' symmetry.
!
!  STATE 1 ENERGY= -115.1923795838, C0= 0.9721552
!
!  the energy analysis obtains these values (plus many extra details)
!     E(FCI) =     -115.1923795837
!     E(SCF) =     -115.0904167030  -
!     ----------------------------
!     E(COR) =       -0.1019628808
!
!     E[AA]        = -0.0036440469
!     E[BB]        = -0.0036440469
!     E[AB1]       = -0.0609667183
!     E[AB2]       = -0.0337080919  +
!     ----------------------------
!     E[DOUBLE-EX] = -0.1019629041
!
!     E[SINGLE-EX] =  0.0000000261
!     E[DOUBLE-EX] = -0.1019629041  +
!     ----------------------------
!     E[TOTAL-EX]  = -0.1019628781
!        in principle this should have matched the correlation exactly,
!        but roundoff stuff gets in the way.
!
!  This run takes 17 seconds on 1.66 GHz Cloverton (22 July 2014)
!
 $contrl scftyp=none cityp=aldet runtyp=energy ispher=1 $end
 $system mwords=25 memddi=5 $end
 $basis  gbasis=pcseg-2 $end
 $guess  guess=moread norb=14 $end
 $cidet  group=Cs stsym=Ap ncore=2 nact=12 nels=14 analys=.true. $end
 $data
Methanol...RHF occ+VVOS...full valence space CI...RHF/6-31G(d) geometry
Cs

H     1.0  -1.0616171503   0.8036449245   0.0000000000
O     8.0  -0.6870131482  -0.0653470836   0.0000000000
C     6.0   0.7093551399   0.0291827007   0.0000000000
H     1.0   1.0836641283   0.5408321444   0.8835398105
H     1.0   1.0975386849  -0.9797829903   0.0000000000
 $end

x$contrl scftyp=rhf $end
x$guess  guess=huckel $end
x$scf    vvos=.true. $end
--- CLOSED SHELL ORBITALS --- GENERATED AT Tue Jul 22 13:42:39 2014
Methanol...RHF occ+VVOS...E(RHF)=     -115.0904167030
 $VEC
 1  1-6.17415629E-04-1.37926916E-04-6.90889227E-05-1.30253546E-04 3.83069350E-04
 1  2 0.00000000E+00 1.53701235E-04 2.08062468E-04 0.00000000E+00 3.96282865E-05
 1  3 4.00434936E-05-7.96717800E-05-1.33322857E-04 0.00000000E+00 0.00000000E+00
 1  4 9.96441360E-01 1.26598399E-02 2.57921327E-03-8.39123956E-04 7.16884785E-04
 1  5 1.25088956E-03 0.00000000E+00 6.76169429E-04-1.41841474E-04 0.00000000E+00
 1  6-1.33719777E-04 3.07013601E-04 0.00000000E+00-8.53981002E-05-1.20063218E-05
 1  7 9.74044220E-05 1.12817044E-04 0.00000000E+00 0.00000000E+00 4.48639118E-04
 1  8 3.92095523E-06-4.52560073E-04-5.16983874E-04 0.00000000E+00 0.00000000E+00
 1  9 3.48940433E-04 1.45890100E-04 0.00000000E+00-2.60801971E-05 0.00000000E+00
 1 10-4.40706717E-04 0.00000000E+00-2.74459999E-05-1.69651911E-04 0.00000000E+00
 1 11 1.13817868E-04 4.18106028E-04-1.38119085E-03 1.58211058E-03-1.11201314E-04
 1 12-3.20092073E-05 0.00000000E+00 1.73780620E-03 2.43363426E-04 0.00000000E+00
 1 13-3.99611697E-04-3.60493333E-04 0.00000000E+00 1.13266221E-05 3.13089361E-05
 1 14-4.26355583E-05 1.61615263E-05 0.00000000E+00 0.00000000E+00-1.06088944E-03
 1 15 3.84568862E-04 6.76320581E-04-4.56312297E-04 0.00000000E+00 0.00000000E+00
 1 16 3.84844658E-04-1.35372938E-04 0.00000000E+00 1.79634447E-04 0.00000000E+00
 1 17-2.24117075E-04 0.00000000E+00-2.92206215E-04 1.98740853E-06 0.00000000E+00
 1 18-6.94791599E-05-3.52783416E-04 1.04829738E-05 6.02320991E-05-1.43220676E-05
 1 19 2.92604405E-05-1.31119806E-05 9.15133017E-05 8.29884279E-06-2.43568894E-05
 1 20-4.24033288E-05 6.67602182E-05-1.14544504E-05 3.10991296E-05-3.88155815E-05
 1 21-6.94791599E-05-3.52783416E-04 1.04829738E-05 6.02320991E-05-1.43220676E-05
 1 22-2.92604405E-05-1.31119806E-05 9.15133017E-05-8.29884279E-06-2.43568894E-05
 1 23-4.24033288E-05 6.67602182E-05-1.14544504E-05-3.10991296E-05 3.88155815E-05
 1 24-9.14055425E-05-3.57180316E-04-3.77623431E-04 7.63258573E-05 7.91496907E-06
 1 25 0.00000000E+00-2.14040080E-04-1.28726596E-04 0.00000000E+00 5.52531503E-05
 1 26 1.27652217E-05-6.80183721E-05 2.68217922E-05 0.00000000E+00 0.00000000E+00
 2  1 1.24186220E-04 2.63480229E-04 4.40915555E-04 1.78644653E-04 5.18242703E-05
 2  2 0.00000000E+00 3.85030753E-04 1.60045206E-04 0.00000000E+00 2.20105204E-04
 2  3-2.58268509E-04 3.81633054E-05-1.53243530E-04 0.00000000E+00 0.00000000E+00
 2  4-3.11994613E-04-1.08276470E-03 2.92059985E-03 3.41549644E-03-2.44754000E-04
 2  5 3.96288218E-05 0.00000000E+00 3.07793791E-03 6.76858921E-05 0.00000000E+00
 2  6 1.10765300E-03-1.85808322E-04 0.00000000E+00-3.59151562E-04 2.30514780E-04
 2  7 1.28636782E-04-3.02526481E-05 0.00000000E+00 0.00000000E+00 2.17914100E-03
 2  8-1.30992025E-03-8.69220755E-04 5.28978679E-05 0.00000000E+00 0.00000000E+00
 2  9 9.44898919E-04-2.86773243E-04 0.00000000E+00 3.98121381E-04 0.00000000E+00
 2 10-6.91971239E-04 0.00000000E+00-5.75743690E-04-1.33747013E-05 0.00000000E+00
 2 11 9.97628104E-01 5.18001499E-03-7.43517407E-03-9.16712768E-03-1.45984455E-03
 2 12 5.29654847E-05 0.00000000E+00 1.70411538E-03-1.69131965E-04 0.00000000E+00
 2 13-3.78717774E-04-1.58708208E-04 0.00000000E+00 3.28263605E-04-1.63112127E-04
 2 14-1.65151478E-04 6.30577209E-06 0.00000000E+00 0.00000000E+00-1.01956336E-03
 2 15 5.92760460E-04 4.26802900E-04-3.33285434E-04 0.00000000E+00 0.00000000E+00
 2 16 1.04149741E-03 5.71642559E-04 0.00000000E+00 1.39432933E-04 0.00000000E+00
 2 17-7.33234965E-04 0.00000000E+00-6.64080439E-04-9.06371904E-04 0.00000000E+00
 2 18 7.82523114E-04 4.90381442E-03 1.02509789E-03-2.00585463E-04-3.68867640E-04
 2 19 6.25411915E-04-1.04185405E-03-1.09210229E-03 2.00499801E-03-4.49983341E-04
 2 20-3.17726113E-04 7.67709453E-04 4.39694248E-04-7.49466081E-04-1.05651926E-03
 2 21 7.82523114E-04 4.90381442E-03 1.02509789E-03-2.00585463E-04-3.68867640E-04
 2 22-6.25411915E-04-1.04185405E-03-1.09210229E-03-2.00499801E-03-4.49983341E-04
 2 23-3.17726113E-04 7.67709453E-04 4.39694248E-04 7.49466081E-04 1.05651926E-03
 2 24 7.92101122E-04 4.18586130E-03 1.00595226E-03-2.59377377E-04 7.81801612E-04
 2 25 0.00000000E+00-9.06273429E-04 1.98326841E-03 0.00000000E+00-4.36976579E-04
 2 26 1.27287407E-03-8.35897495E-04-8.81001550E-04 0.00000000E+00 0.00000000E+00
 3  1 1.25885622E-01 6.15672409E-02-6.11845650E-04 7.35696336E-03-1.43856188E-02
 3  2 0.00000000E+00 1.18357495E-02-2.31127825E-02 0.00000000E+00-1.24331546E-03
 3  3 4.32973914E-03-3.08642368E-03-4.67633882E-03 0.00000000E+00 0.00000000E+00
 3  4-2.23746501E-01 3.13613894E-01 3.98535633E-01 1.55415291E-01 3.34182287E-02
 3  5 5.01662299E-02 0.00000000E+00 5.32590890E-02 2.65581296E-02 0.00000000E+00
 3  6 9.74369779E-03-1.81579596E-03 0.00000000E+00 1.47775130E-03 1.79909113E-03
 3  7-3.27684243E-03-1.59913430E-03 0.00000000E+00 0.00000000E+00 1.55318433E-02
 3  8-8.50735137E-03-7.02449197E-03 5.74334496E-03 0.00000000E+00 0.00000000E+00
 3  9 3.93054074E-03-1.08739611E-03 0.00000000E+00 1.53795391E-03 0.00000000E+00
 3 10-1.88413290E-03 0.00000000E+00-3.38924087E-03-7.90589398E-05 0.00000000E+00
 3 11-7.44343947E-02 1.09199462E-01 4.89426040E-02-1.73188034E-02-7.28903422E-02
 3 12-1.56311261E-03 0.00000000E+00-3.51629275E-02-3.25535579E-04 0.00000000E+00
 3 13 7.23128555E-03 2.00162450E-03 0.00000000E+00 7.56861032E-03-3.77331245E-03
 3 14-3.79529787E-03 3.05010780E-04 0.00000000E+00 0.00000000E+00 1.14902874E-02
 3 15-4.81010632E-03-6.68018110E-03 2.00818675E-04 0.00000000E+00 0.00000000E+00
 3 16-4.39022786E-03 1.07928793E-04 0.00000000E+00-4.31134519E-04 0.00000000E+00
 3 17 2.73663372E-03 0.00000000E+00 3.15347504E-03 2.86332848E-04 0.00000000E+00
 3 18 1.94203509E-02 2.14656749E-02-4.46317501E-04-1.26575799E-03-4.76050540E-04
 3 19 8.80040050E-04-3.11293770E-03-2.66423356E-03 4.09527301E-03 3.95592693E-04
 3 20-1.94087310E-04-2.01505384E-04 4.44907973E-04-7.26276309E-04-1.30369042E-04
 3 21 1.94203509E-02 2.14656749E-02-4.46317501E-04-1.26575799E-03-4.76050540E-04
 3 22-8.80040050E-04-3.11293770E-03-2.66423356E-03-4.09527301E-03 3.95592693E-04
 3 23-1.94087310E-04-2.01505384E-04 4.44907973E-04 7.26276309E-04 1.30369042E-04
 3 24 1.99194066E-02 1.85582736E-02 1.29939824E-03-1.63857200E-03 1.12047157E-03
 3 25 0.00000000E+00-1.26742514E-03 3.96332725E-03 0.00000000E+00 2.03171863E-04
 3 26-7.12137805E-05-1.31958082E-04-7.73776903E-04 0.00000000E+00 0.00000000E+00
 4  1-1.01628607E-01-6.64320288E-02-1.52050139E-03-2.20987396E-03 9.82938032E-03
 4  2 0.00000000E+00-6.38498302E-04 1.18341101E-02 0.00000000E+00 2.16751212E-03
 4  3-4.04706294E-03 1.87955082E-03 1.68069713E-03 0.00000000E+00 0.00000000E+00
 4  4 6.17746455E-02-1.00517058E-01-1.02170392E-01-5.13494599E-02 1.44300156E-01
 4  5-5.75377992E-02 0.00000000E+00 1.38603704E-01-4.13937915E-02 0.00000000E+00
 4  6 3.19352143E-02-3.57699750E-03 0.00000000E+00 3.90345607E-03-4.11641359E-03
 4  7 2.12957527E-04 3.02823299E-03 0.00000000E+00 0.00000000E+00 2.03137302E-02
 4  8-1.27739753E-02-7.53975484E-03 4.87340348E-03 0.00000000E+00 0.00000000E+00
 4  9 3.76017139E-03-1.55106266E-04 0.00000000E+00-2.26972335E-04 0.00000000E+00
 4 10-1.92917535E-03 0.00000000E+00-3.11562394E-03 4.35069227E-04 0.00000000E+00
 4 11-1.87119707E-01 2.86854288E-01 1.79114572E-01 5.52404166E-02 4.53828584E-02
 4 12-9.91370767E-03 0.00000000E+00 3.66052024E-02 2.02824771E-03 0.00000000E+00
 4 13 7.49956338E-03 3.92760339E-03 0.00000000E+00-2.17273640E-03 1.32502129E-03
 4 14 8.47715110E-04 9.49351159E-04 0.00000000E+00 0.00000000E+00-1.23734714E-02
 4 15 6.58954775E-03 5.78392362E-03-1.51558719E-03 0.00000000E+00 0.00000000E+00
 4 16 2.63924619E-04-5.43998559E-04 0.00000000E+00-3.34197950E-04 0.00000000E+00
 4 17-2.67124262E-04 0.00000000E+00-8.69677708E-05 1.06404860E-03 0.00000000E+00
 4 18 1.15425228E-01 1.10114571E-01-3.01011130E-03-1.87245608E-03-3.67843306E-03
 4 19 6.35323212E-03-7.70425119E-03-1.10347002E-02 1.81823529E-02-9.88660091E-04
 4 20-5.75119560E-04 1.56377965E-03 7.90054268E-04-1.28231974E-03-2.28899165E-03
 4 21 1.15425228E-01 1.10114571E-01-3.01011130E-03-1.87245608E-03-3.67843306E-03
 4 22-6.35323212E-03-7.70425119E-03-1.10347002E-02-1.81823529E-02-9.88660091E-04
 4 23-5.75119560E-04 1.56377965E-03 7.90054268E-04 1.28231974E-03 2.28899165E-03
 4 24 1.22903970E-01 1.21588113E-01 4.51060170E-05-2.33557634E-03 7.59007841E-03
 4 25 0.00000000E+00-1.00287461E-02 2.38096757E-02 0.00000000E+00-7.70164035E-04
 4 26 2.68525223E-03-1.91508820E-03-1.95705389E-03 0.00000000E+00 0.00000000E+00
 5  1 1.83847220E-01 1.73108555E-01 9.33978039E-03 4.78020179E-03-1.23150865E-02
 5  2 0.00000000E+00 1.03704845E-02-1.45595355E-02 0.00000000E+00-1.53513736E-03
 5  3 4.92357397E-03-3.38843661E-03-3.54840350E-03 0.00000000E+00 0.00000000E+00
 5  4 4.50479894E-02-6.32638876E-02-1.23268912E-01-1.11982525E-01-1.65423453E-01
 5  5 2.81885951E-01 0.00000000E+00-1.48852645E-01 2.35391754E-01 0.00000000E+00
 5  6-3.20776042E-02 6.78259707E-02 0.00000000E+00-6.00118556E-03 8.17006877E-03
 5  7-2.16888321E-03-2.20145998E-03 0.00000000E+00 0.00000000E+00-2.06851328E-02
 5  8 2.10831031E-02-3.97970284E-04 1.78669182E-03 0.00000000E+00 0.00000000E+00
 5  9-3.54427266E-03-1.00904146E-04 0.00000000E+00 2.96651211E-03 0.00000000E+00
 5 10 1.31948410E-03 0.00000000E+00 3.43565665E-03-2.83113500E-03 0.00000000E+00
 5 11-2.71326761E-02 3.88828477E-02 2.66105449E-02 3.57375329E-02 1.40903880E-01
 5 12 1.49979560E-01 0.00000000E+00 8.79407746E-02 1.10966361E-01 0.00000000E+00
 5 13 9.20291625E-03 2.39936215E-02 0.00000000E+00-8.60420429E-03 8.23455432E-04
 5 14 7.78074886E-03-2.16824186E-03 0.00000000E+00 0.00000000E+00-1.14623642E-02
 5 15 3.33554445E-03 8.12681977E-03-8.93655554E-03 0.00000000E+00 0.00000000E+00
 5 16 2.31797142E-03-2.33238517E-03 0.00000000E+00 3.84732110E-03 0.00000000E+00
 5 17-1.50337407E-03 0.00000000E+00-1.60651094E-03-7.18098031E-04 0.00000000E+00
 5 18 9.84839205E-02 9.79710901E-02 7.18078391E-03-1.01500710E-03-1.28409246E-03
 5 19 5.58195525E-03-2.44990061E-03-5.14718561E-03 1.39083937E-02-1.28208100E-03
 5 20-6.57093289E-04 1.93917429E-03 7.58182087E-05-7.57957777E-04-1.27581100E-03
 5 21 9.84839205E-02 9.79710901E-02 7.18078391E-03-1.01500710E-03-1.28409246E-03
 5 22-5.58195525E-03-2.44990061E-03-5.14718561E-03-1.39083937E-02-1.28208100E-03
 5 23-6.57093289E-04 1.93917429E-03 7.58182087E-05 7.57957777E-04 1.27581100E-03
 5 24-3.31591888E-02-2.21358043E-02-2.93692651E-03 3.35220710E-03-9.72889078E-04
 5 25 0.00000000E+00 6.12985465E-03-7.67313578E-04 0.00000000E+00-1.39294741E-03
 5 26 6.69962159E-04 7.22985249E-04 1.59733588E-03 0.00000000E+00 0.00000000E+00
 6  1 0.00000000E+00 0.00000000E+00 0.00000000E+00 0.00000000E+00 0.00000000E+00
 6  2 4.12384556E-03 0.00000000E+00 0.00000000E+00 1.66648116E-02 0.00000000E+00
 6  3 0.00000000E+00 0.00000000E+00 0.00000000E+00 1.29064630E-03-2.20116801E-03
 6  4 0.00000000E+00 0.00000000E+00 0.00000000E+00 0.00000000E+00 0.00000000E+00
 6  5 0.00000000E+00 2.66869286E-01 0.00000000E+00 0.00000000E+00 2.43366951E-01
 6  6 0.00000000E+00 0.00000000E+00 1.05879972E-01 0.00000000E+00 0.00000000E+00
 6  7 0.00000000E+00 0.00000000E+00 3.65158748E-03 2.66103566E-03 0.00000000E+00
 6  8 0.00000000E+00 0.00000000E+00 0.00000000E+00 1.48758001E-02 8.92756895E-03
 6  9 0.00000000E+00 0.00000000E+00-4.37248817E-03 0.00000000E+00 5.31285754E-03
 6 10 0.00000000E+00 5.53450925E-04 0.00000000E+00 0.00000000E+00-1.25558136E-05
 6 11 0.00000000E+00 0.00000000E+00 0.00000000E+00 0.00000000E+00 0.00000000E+00
 6 12 0.00000000E+00 2.74103956E-01 0.00000000E+00 0.00000000E+00 1.92601843E-01
 6 13 0.00000000E+00 0.00000000E+00 2.88295544E-02 0.00000000E+00 0.00000000E+00
 6 14 0.00000000E+00 0.00000000E+00 1.15244042E-03 7.30254393E-03 0.00000000E+00
 6 15 0.00000000E+00 0.00000000E+00 0.00000000E+00-5.99113100E-03 9.41069257E-03
 6 16 0.00000000E+00 0.00000000E+00-2.17388873E-03 0.00000000E+00 3.55586883E-03
 6 17 0.00000000E+00-6.39291049E-04 0.00000000E+00 0.00000000E+00 2.51311671E-04
 6 18-1.54297944E-01-1.71771241E-01-3.51326113E-02 3.71349790E-03 4.85722006E-03
 6 19-4.77165368E-03 1.07750502E-02 1.35684612E-02-1.71723487E-02 4.15699518E-04
 6 20 1.40296943E-04-5.55996461E-04-1.38330733E-03 2.14008038E-03 2.69680666E-03
 6 21 1.54297944E-01 1.71771241E-01 3.51326113E-02-3.71349790E-03-4.85722006E-03
 6 22-4.77165368E-03-1.07750502E-02-1.35684612E-02-1.71723487E-02-4.15699518E-04
 6 23-1.40296943E-04 5.55996461E-04 1.38330733E-03 2.14008038E-03 2.69680666E-03
 6 24 0.00000000E+00 0.00000000E+00 0.00000000E+00 0.00000000E+00 0.00000000E+00
 6 25 3.37153267E-03 0.00000000E+00 0.00000000E+00 8.80119576E-03 0.00000000E+00
 6 26 0.00000000E+00 0.00000000E+00 0.00000000E+00-5.18695998E-04 1.91003821E-03
 7  1-3.32559457E-02-1.61818833E-02-1.60554444E-02 4.22803037E-03 4.55477897E-03
 7  2 0.00000000E+00 1.49943306E-02 7.23193369E-03 0.00000000E+00 2.43212474E-03
 7  3-3.00273909E-03 5.70614352E-04-1.61595613E-03 0.00000000E+00 0.00000000E+00
 7  4 2.78631389E-02-5.21826255E-02-5.77507627E-02-7.17612408E-02 2.94005673E-01
 7  5 1.19121210E-01 0.00000000E+00 2.76721904E-01 1.08993022E-01 0.00000000E+00
 7  6 1.05877835E-01 4.01658229E-02 0.00000000E+00 4.40763941E-03-1.81683197E-03
 7  7-2.59080744E-03 6.14391071E-03 0.00000000E+00 0.00000000E+00 2.18614651E-02
 7  8-8.99298196E-03-1.28684831E-02 2.02399592E-02 0.00000000E+00 0.00000000E+00
 7  9 5.41152014E-03-9.28612578E-04 0.00000000E+00 2.45419129E-03 0.00000000E+00
 7 10-2.11039565E-03 0.00000000E+00-5.14992049E-03-1.20832678E-03 0.00000000E+00
 7 11 1.08006369E-03 4.11544492E-05 1.72860354E-02-2.59700724E-02-2.11056821E-01
 7 12 1.79609059E-01 0.00000000E+00-1.50471235E-01 1.42851610E-01 0.00000000E+00
 7 13-2.49555315E-02 4.51614794E-02 0.00000000E+00 1.12205512E-02-1.03769009E-02
 7 14-8.43650305E-04 3.31013239E-03 0.00000000E+00 0.00000000E+00 1.41243836E-02
 7 15-1.24273138E-02-1.69706980E-03-1.01362195E-03 0.00000000E+00 0.00000000E+00
 7 16-3.08277592E-03-1.48256856E-04 0.00000000E+00 1.03359860E-03 0.00000000E+00
 7 17 1.88980406E-03 0.00000000E+00 2.24617386E-03-8.34691158E-04 0.00000000E+00
 7 18 4.55515184E-03-1.98693837E-03-2.21302613E-04-2.69984267E-03 2.15321687E-03
 7 19 5.45586575E-04-5.57232421E-03 3.91130974E-03-7.52106193E-04 1.53173284E-03
 7 20-1.31753089E-03-2.14201955E-04 5.79820584E-04-1.22391797E-03 6.26892968E-04
 7 21 4.55515184E-03-1.98693837E-03-2.21302613E-04-2.69984267E-03 2.15321687E-03
 7 22-5.45586575E-04-5.57232421E-03 3.91130974E-03 7.52106193E-04 1.53173284E-03
 7 23-1.31753089E-03-2.14201955E-04 5.79820584E-04 1.22391797E-03-6.26892968E-04
 7 24-1.80757029E-01-1.87216499E-01-2.13905567E-02 1.91454544E-03-8.79311206E-03
 7 25 0.00000000E+00 2.92583540E-03-2.24275808E-02 0.00000000E+00 2.02249591E-03
 7 26-3.56740699E-03 1.54491108E-03 1.15502807E-03 0.00000000E+00 0.00000000E+00
 8  1 1.14862373E-01 1.28940269E-01 2.00718824E-02 5.53419989E-03-4.68765161E-03
 8  2 0.00000000E+00 1.60620277E-02-1.82068906E-03 0.00000000E+00 7.04692046E-04
 8  3 9.82449654E-04-1.68714170E-03-3.39384429E-03 0.00000000E+00 0.00000000E+00
 8  4 4.80729393E-02-7.88830164E-02-1.21192411E-01-1.36242509E-01 1.28240072E-01
 8  5 2.80476034E-01 0.00000000E+00 1.24410367E-01 2.48271398E-01 0.00000000E+00
 8  6 7.60382199E-02 1.30375599E-01 0.00000000E+00-2.34098133E-05 4.16536055E-03
 8  7-4.14195073E-03-1.84500677E-03 0.00000000E+00 0.00000000E+00 5.67417752E-03
 8  8 7.45925651E-03-1.31334340E-02 2.91501794E-03 0.00000000E+00 0.00000000E+00
 8  9 3.47180895E-03 1.69129843E-03 0.00000000E+00-2.59578936E-04 0.00000000E+00
 8 10-2.61582889E-03 0.00000000E+00-2.04209161E-03-2.00953602E-03 0.00000000E+00
 8 11-8.26733830E-03 1.66658314E-02 1.03368050E-02-3.32346814E-02-6.59505178E-02
 8 12-2.36863077E-01 0.00000000E+00-4.66228419E-02-1.64189811E-01 0.00000000E+00
 8 13 5.19916023E-03-5.12865286E-02 0.00000000E+00 3.79558462E-03 5.38286228E-03
 8 14-9.17844690E-03-9.92992567E-03 0.00000000E+00 0.00000000E+00 3.96651075E-03
 8 15 6.83445164E-03-1.08009624E-02-2.08842520E-02 0.00000000E+00 0.00000000E+00
 8 16-7.59183140E-04-1.65216440E-03 0.00000000E+00 3.14575326E-03 0.00000000E+00
 8 17 9.61090238E-04 0.00000000E+00 5.74608260E-05-9.29142118E-04 0.00000000E+00
 8 18-1.06972230E-01-1.30326960E-01-3.23377910E-02 1.33958959E-03 2.51756819E-04
 8 19-4.62774957E-03 2.24672125E-03-2.51374112E-03-1.56456816E-02 1.09895697E-03
 8 20 1.10939026E-03-2.20834722E-03-2.00940669E-04 7.74095509E-04 5.22072737E-04
 8 21-1.06972230E-01-1.30326960E-01-3.23377910E-02 1.33958959E-03 2.51756819E-04
 8 22 4.62774957E-03 2.24672125E-03-2.51374112E-03 1.56456816E-02 1.09895697E-03
 8 23 1.10939026E-03-2.20834722E-03-2.00940669E-04-7.74095509E-04-5.22072737E-04
 8 24 1.71927684E-01 2.22643154E-01 4.51818512E-02-4.05805292E-03 5.96090184E-03
 8 25 0.00000000E+00-1.00718942E-02 2.16236949E-02 0.00000000E+00-5.64848439E-04
 8 26 2.23524549E-03-1.67039705E-03-2.58187282E-03 0.00000000E+00 0.00000000E+00
 9  1 0.00000000E+00 0.00000000E+00 0.00000000E+00 0.00000000E+00 0.00000000E+00
 9  2 6.79708390E-03 0.00000000E+00 0.00000000E+00 2.47920033E-02 0.00000000E+00
 9  3 0.00000000E+00 0.00000000E+00 0.00000000E+00 1.33098177E-03-3.45533284E-03
 9  4 0.00000000E+00 0.00000000E+00 0.00000000E+00 0.00000000E+00 0.00000000E+00
 9  5 0.00000000E+00 4.06489469E-01 0.00000000E+00 0.00000000E+00 3.76981213E-01
 9  6 0.00000000E+00 0.00000000E+00 2.46154377E-01 0.00000000E+00 0.00000000E+00
 9  7 0.00000000E+00 0.00000000E+00-2.66855573E-04 3.39506616E-03 0.00000000E+00
 9  8 0.00000000E+00 0.00000000E+00 0.00000000E+00 6.29861799E-03 1.18158418E-02
 9  9 0.00000000E+00 0.00000000E+00-3.73541830E-03 0.00000000E+00 3.10657197E-03
 9 10 0.00000000E+00 1.90501757E-03 0.00000000E+00 0.00000000E+00-1.79737730E-03
 9 11 0.00000000E+00 0.00000000E+00 0.00000000E+00 0.00000000E+00 0.00000000E+00
 9 12 0.00000000E+00-1.81525259E-01 0.00000000E+00 0.00000000E+00-1.23328913E-01
 9 13 0.00000000E+00 0.00000000E+00-5.92453569E-02 0.00000000E+00 0.00000000E+00
 9 14 0.00000000E+00 0.00000000E+00-1.20380540E-02-8.40248561E-03 0.00000000E+00
 9 15 0.00000000E+00 0.00000000E+00 0.00000000E+00-2.85217680E-02-1.05405659E-02
 9 16 0.00000000E+00 0.00000000E+00-2.74883846E-03 0.00000000E+00 4.97653693E-03
 9 17 0.00000000E+00-1.28858314E-03 0.00000000E+00 0.00000000E+00-1.26852000E-04
 9 18 1.41876807E-01 1.96496682E-01 4.06639087E-02-2.19987011E-03-3.18634062E-03
 9 19 3.63463799E-03-5.35859780E-03-1.12416904E-02 1.20312072E-02-1.00282427E-03
 9 20 1.74541721E-04 8.28282546E-04 5.90642711E-04-1.22129831E-03-1.79026829E-03
 9 21-1.41876807E-01-1.96496682E-01-4.06639087E-02 2.19987011E-03 3.18634062E-03
 9 22 3.63463799E-03 5.35859780E-03 1.12416904E-02 1.20312072E-02 1.00282427E-03
 9 23-1.74541721E-04-8.28282546E-04-5.90642711E-04-1.22129831E-03-1.79026829E-03
 9 24 0.00000000E+00 0.00000000E+00 0.00000000E+00 0.00000000E+00 0.00000000E+00
 9 25-1.78691486E-03 0.00000000E+00 0.00000000E+00-9.24706071E-03 0.00000000E+00
 9 26 0.00000000E+00 0.00000000E+00 0.00000000E+00-2.64627223E-05-1.14657430E-03
10  1 3.36074636E-01 5.13525987E-01 2.21349605E-01 2.17720138E-04 8.79373847E-04
10  2 0.00000000E+00-4.42447123E-03 5.03795737E-03 0.00000000E+00 1.96578331E-04
10  3-1.26484036E-03 1.06826203E-03 1.24414179E-03 0.00000000E+00 0.00000000E+00
10  4 1.27137975E-01-3.34372235E-01-4.67831680E-01-1.43422500E-01-4.60956681E-02
10  5-2.94158045E-01 0.00000000E+00-3.93871571E-02-2.55751604E-01 0.00000000E+00
10  6-9.04882715E-03-1.04938855E-01 0.00000000E+00-4.71559059E-04 7.34176900E-05
10  7 3.98141369E-04-5.40941516E-04 0.00000000E+00 0.00000000E+00 2.05928443E-03
10  8 1.82446501E-03-3.88374944E-03-2.15630786E-04 0.00000000E+00 0.00000000E+00
10  9 1.61488363E-03 3.88623092E-04 0.00000000E+00 3.01900493E-04 0.00000000E+00
10 10-1.48006631E-03 0.00000000E+00-6.86527436E-04-8.23293083E-04 0.00000000E+00
10 11 9.38431468E-03-6.97359052E-02-1.19718156E-01-1.99525688E-02-3.25837453E-01
10 12-6.07317872E-02 0.00000000E+00-3.17934207E-01-6.48003435E-02 0.00000000E+00
10 13-1.28364363E-01-1.47323327E-02 0.00000000E+00-5.14922885E-04-1.19776340E-04
10 14 6.34699225E-04-4.39295904E-04 0.00000000E+00 0.00000000E+00-3.25702585E-03
10 15 2.12246401E-03 1.13456185E-03 1.94374646E-03 0.00000000E+00 0.00000000E+00
10 16-8.05417989E-05-9.01263240E-04 0.00000000E+00 4.81924699E-04 0.00000000E+00
10 17 1.67491427E-04 0.00000000E+00-5.94332642E-05 7.27246824E-04 0.00000000E+00
10 18 9.81401959E-02 1.48436151E-01 5.44409206E-02 6.65394028E-04 4.30424753E-04
10 19-4.35975128E-04-5.95383066E-04 5.84173713E-04-2.15433715E-03 2.49460118E-04
10 20 4.76307409E-04-7.25767528E-04-3.64001168E-04 4.88986230E-04 9.06002435E-04
10 21 9.81401959E-02 1.48436151E-01 5.44409206E-02 6.65394028E-04 4.30424753E-04
10 22 4.35975128E-04-5.95383066E-04 5.84173713E-04 2.15433715E-03 2.49460118E-04
10 23 4.76307409E-04-7.25767528E-04-3.64001168E-04-4.88986230E-04-9.06002435E-04
10 24 2.93782086E-02 4.79029758E-02 1.98291161E-02 7.01408215E-04-4.77055907E-04
10 25 0.00000000E+00-2.99597129E-04-6.74215782E-04 0.00000000E+00 2.14460648E-04
10 26-4.73051293E-04 2.58590645E-04 3.81842112E-04 0.00000000E+00 0.00000000E+00
11  1 3.42140540E-02 5.19984382E-02 2.39180077E-02 5.93888889E-04 2.50317764E-04
11  2 0.00000000E+00-6.23340933E-04 8.83563361E-04 0.00000000E+00 6.62017050E-04
11  3-5.83252082E-04-7.87649674E-05-5.29860348E-04 0.00000000E+00 0.00000000E+00
11  4 5.43567543E-02-1.33758127E-01-1.78454653E-01-5.02261795E-02-2.23145359E-01
11  5-7.15826614E-02 0.00000000E+00-1.87771402E-01-6.19449178E-02 0.00000000E+00
11  6-7.92132474E-02-2.56921052E-02 0.00000000E+00-1.35537888E-03 6.07472612E-04
11  7 7.47906272E-04-1.32997583E-04 0.00000000E+00 0.00000000E+00 5.95701278E-03
11  8-2.79488345E-03-3.16212932E-03-1.50864803E-04 0.00000000E+00 0.00000000E+00
11  9 1.53310404E-03-3.95176771E-04 0.00000000E+00 6.16833951E-04 0.00000000E+00
11 10-1.35667049E-03 0.00000000E+00-7.00204419E-04-8.66486766E-05 0.00000000E+00
11 11-2.02112445E-01 6.20900678E-01 8.37181109E-01 2.70260090E-01 6.65663333E-03
11 12 1.40355930E-01 0.00000000E+00 1.74697364E-02 1.35505392E-01 0.00000000E+00
11 13-2.33524845E-03 6.08808420E-02 0.00000000E+00 1.03152805E-03-3.14079761E-04
11 14-7.17448291E-04-1.97487624E-04 0.00000000E+00 0.00000000E+00-2.23881045E-03
11 15 3.54263808E-03-1.30382763E-03-2.61354134E-03 0.00000000E+00 0.00000000E+00
11 16 3.69765758E-03 1.65793450E-03 0.00000000E+00 8.73452143E-04 0.00000000E+00
11 17-1.89537509E-03 0.00000000E+00-3.06555313E-03-3.09780469E-03 0.00000000E+00
11 18-2.96192932E-01-4.48212986E-01-1.89208250E-01-3.30668706E-04-8.75940756E-04
11 19 1.33778380E-03-2.82874183E-03-3.23617985E-03 5.80728713E-03-1.11525680E-03
11 20-3.51634383E-04 1.46689118E-03 8.16318194E-04-1.26546503E-03-1.82012237E-03
11 21-2.96192932E-01-4.48212986E-01-1.89208250E-01-3.30668706E-04-8.75940756E-04
11 22-1.33778380E-03-2.82874183E-03-3.23617985E-03-5.80728713E-03-1.11525680E-03
11 23-3.51634383E-04 1.46689118E-03 8.16318194E-04 1.26546503E-03 1.82012237E-03
11 24-1.45202347E-01-2.23497649E-01-7.74431557E-02-2.29946537E-05 5.05295431E-04
11 25 0.00000000E+00-1.08474337E-03 2.41362405E-03 0.00000000E+00-5.82763070E-04
11 26 1.13318550E-03-5.50422435E-04-6.86619210E-04 0.00000000E+00 0.00000000E+00
12  1-2.05880439E-01-3.15379019E-01-1.51175686E-01 9.63907386E-04-1.06575994E-03
12  2 0.00000000E+00 1.69577441E-03-3.77269584E-03 0.00000000E+00-5.19367657E-04
12  3 9.33998457E-04-4.14630800E-04-9.96227541E-04 0.00000000E+00 0.00000000E+00
12  4 1.01507246E-03 2.47523476E-03-2.03778808E-03 3.16644220E-03-2.48548654E-01
12  5 8.41156601E-02 0.00000000E+00-2.17672797E-01 6.80373067E-02 0.00000000E+00
12  6-9.02946707E-02 3.32164682E-02 0.00000000E+00-3.19826652E-04 2.73801354E-04
12  7 4.60252982E-05 5.75695590E-05 0.00000000E+00 0.00000000E+00 3.11015977E-03
12  8-4.04152489E-03 9.31365118E-04 1.63219428E-03 0.00000000E+00 0.00000000E+00
12  9 5.79545486E-04-7.29780735E-04 0.00000000E+00 2.61349340E-04 0.00000000E+00
12 10 2.53374583E-05 0.00000000E+00-8.02879320E-04 7.17754260E-04 0.00000000E+00
12 11 2.68913740E-02-1.15200805E-01-1.61040599E-01-4.89218289E-02-3.54713217E-01
12 12 4.34440483E-01 0.00000000E+00-3.49546639E-01 4.22444953E-01 0.00000000E+00
12 13-1.47286410E-01 1.82488245E-01 0.00000000E+00-5.80273364E-04 1.20984040E-03
12 14-6.29567035E-04-5.49769559E-04 0.00000000E+00 0.00000000E+00-1.82269759E-03
12 15 6.88794690E-03-5.06524931E-03-6.27298127E-03 0.00000000E+00 0.00000000E+00
12 16-5.30083259E-04-1.74345107E-03 0.00000000E+00 7.49244156E-04 0.00000000E+00
12 17 2.01302135E-03 0.00000000E+00-1.30184003E-03 1.58984091E-03 0.00000000E+00
12 18-3.76368588E-02-5.32566382E-02-3.23771527E-02 1.68846126E-04-4.00978442E-04
12 19 8.33969419E-06-2.58784041E-04-1.11741689E-04 1.24683113E-03-2.13520598E-04
12 20 7.18415089E-05 1.41679089E-04 1.99016311E-04 6.59239720E-05 1.78019361E-05
12 21-3.76368588E-02-5.32566382E-02-3.23771527E-02 1.68846126E-04-4.00978442E-04
12 22-8.33969419E-06-2.58784041E-04-1.11741689E-04-1.24683113E-03-2.13520598E-04
12 23 7.18415089E-05 1.41679089E-04 1.99016311E-04-6.59239720E-05-1.78019361E-05
12 24 4.38427064E-01 6.58591370E-01 3.07430804E-01 1.29039395E-03-3.03898925E-03
12 25 0.00000000E+00 4.04401204E-03-1.04428162E-02 0.00000000E+00 1.06251132E-03
12 26-3.59757155E-03 2.53506024E-03 2.49781115E-03 0.00000000E+00 0.00000000E+00
13  1 0.00000000E+00 0.00000000E+00 0.00000000E+00 0.00000000E+00 0.00000000E+00
13  2 1.65144731E-04 0.00000000E+00 0.00000000E+00-2.99318704E-04 0.00000000E+00
13  3 0.00000000E+00 0.00000000E+00 0.00000000E+00 2.63497612E-04 1.35925581E-05
13  4 0.00000000E+00 0.00000000E+00 0.00000000E+00 0.00000000E+00 0.00000000E+00
13  5 0.00000000E+00-1.19034753E-01 0.00000000E+00 0.00000000E+00-1.05916268E-01
13  6 0.00000000E+00 0.00000000E+00-4.36786555E-02 0.00000000E+00 0.00000000E+00
13  7 0.00000000E+00 0.00000000E+00 1.82089944E-05-1.22598302E-04 0.00000000E+00
13  8 0.00000000E+00 0.00000000E+00 0.00000000E+00-5.76202030E-04 4.14699104E-04
13  9 0.00000000E+00 0.00000000E+00 2.60085781E-04 0.00000000E+00-4.04763979E-04
13 10 0.00000000E+00 5.58222876E-05 0.00000000E+00 0.00000000E+00 1.18448564E-04
13 11 0.00000000E+00 0.00000000E+00 0.00000000E+00 0.00000000E+00 0.00000000E+00
13 12 0.00000000E+00 6.21250556E-01 0.00000000E+00 0.00000000E+00 5.97588204E-01
13 13 0.00000000E+00 0.00000000E+00 2.64026635E-01 0.00000000E+00 0.00000000E+00
13 14 0.00000000E+00 0.00000000E+00-9.59015519E-04-1.32735615E-03 0.00000000E+00
13 15 0.00000000E+00 0.00000000E+00 0.00000000E+00-8.70154584E-03-1.07596227E-02
13 16 0.00000000E+00 0.00000000E+00-9.17509289E-04 0.00000000E+00 1.64168861E-03
13 17 0.00000000E+00-4.10720724E-04 0.00000000E+00 0.00000000E+00-2.72120831E-03
13 18 3.69854224E-01 5.47715276E-01 2.69690538E-01 7.18349503E-04 9.82852227E-04
13 19-2.39161719E-03 4.15710783E-03 6.00226180E-03-8.77995952E-03 1.30657110E-03
13 20 5.69721380E-04-1.87629248E-03-8.90486256E-04 1.88369648E-03 2.58915759E-03
13 21-3.69854224E-01-5.47715276E-01-2.69690538E-01-7.18349503E-04-9.82852227E-04
13 22-2.39161719E-03-4.15710783E-03-6.00226180E-03-8.77995952E-03-1.30657110E-03
13 23-5.69721380E-04 1.87629248E-03 8.90486256E-04 1.88369648E-03 2.58915759E-03
13 24 0.00000000E+00 0.00000000E+00 0.00000000E+00 0.00000000E+00 0.00000000E+00
13 25-7.10761857E-04 0.00000000E+00 0.00000000E+00 1.61499830E-03 0.00000000E+00
13 26 0.00000000E+00 0.00000000E+00 0.00000000E+00 3.44930396E-04 1.34819673E-04
14  1 2.43599703E-01 3.68566391E-01 1.76676036E-01-1.25467738E-03 9.02543142E-04
14  2 0.00000000E+00-5.97469896E-04 5.34911898E-03 0.00000000E+00 6.63722466E-04
14  3-1.69836146E-03 1.03463899E-03 1.86777316E-03 0.00000000E+00 0.00000000E+00
14  4-1.57285717E-02 3.25176020E-02 4.67865561E-02 1.07812935E-02 3.55357225E-01
14  5-2.47526129E-01 0.00000000E+00 3.08285207E-01-2.13970541E-01 0.00000000E+00
14  6 1.28205107E-01-9.27077984E-02 0.00000000E+00 5.94312019E-04-2.67897603E-05
14  7-5.67522258E-04-1.08580530E-04 0.00000000E+00 0.00000000E+00-4.62248710E-03
14  8 4.00573680E-03 6.16750305E-04-2.67158015E-03 0.00000000E+00 0.00000000E+00