!   TMM...D3h symmetry...72 AOs, 16 alpha and 14 beta spins.
!   The electron configuration is (e'')2, so the ground
!   state is 3-A'-2, but this configuration also contains
!   1-E' and 1-A'-1 terms, which are easily generated by
!   a small CI within the (e'')2 configuration.
!   See GVB test cases for how to do SCF calculations on the upper terms.
!
!          FINAL E(ROHF)= -154.8646925519, 10 iters
!      STATE   1  ENERGY= -154.8646925509  S=  1.00  SPACE SYM=A  (3-A2
!      STATE   2  ENERGY= -154.7475703535  S=  0.00  SPACE SYM=A  (1-E')
!      STATE   3  ENERGY= -154.7475703535  S=  0.00  SPACE SYM=A  (1-E')
!      STATE   4  ENERGY= -154.6304481561  S=  0.00  SPACE SYM=A  (1-A1')
!
!   This run takes 1 seconds on 2.66 GHz Cloverton (13 Apr 2015)
!
 $contrl scftyp=rohf mult=3 cityp=aldet runtyp=energy $end
 $system mwords=5 $end
 $guess  guess=huckel $end
 $basis  gbasis=n31 ngauss=6 ndfunc=1 $end
 $cidet  group=c1 ncore=14 nact=2 nels=2 nstate=4 sz=0 $end
 $data
trimethylene methane
Dnh 3

C           6.0   0.0000000000   0.0000000000   0.0000000000
C           6.0   1.4021325985   0.0000000000   0.0000000000
H           1.0   1.9585470094   0.9177949316   0.0000000000
 $end

! TRAVIS-CI SMALL

! TRAVIS-CI SKIP
