!   full valence CI on H3C-NH2...there are 1,472,976 determinants
!   there are only 40 AOs and MOs...we use the parallel MO transf.
!
!   E(FCI) = -95.3335772059  (using VVOs)  dipole= 1.480120
!
!   this run takes 75 seconds on 2.66 GHz Cloverton (22 Dec 2014)
!
!   SCF E= -95.209829, MCSCF E= -95.350303,
!   so that valence full CI with VVOs is 88% of the way to MCSCF.
!
 $contrl scftyp=none cityp=aldet runtyp=energy $end
 $system parall=.t. mwords=33 memddi=2 $end
 $basis  gbasis=n31 ngauss=6 ndfunc=1 $end
 $guess  guess=moread norb=40 $end
 $cidet  group=Cs stsym=Ap ncore=2 nact=13 nels=14 $end

x$contrl scftyp=rhf cityp=none $end
x$guess  guess=huckel $end
x$scf    vvos=.true. $end

x$contrl scftyp=mcscf cityp=none $end
x$guess  guess=moread norb=40 $end
x$det    group=Cs stsym=Ap ncore=2 nact=13 nels=14 $end

 $data
aminomethane...full valence space CI...RHF/6-31G(d) geometry
Cs

H    1.0  -1.0828105767  -0.5242386771   0.8042883751
N    7.0  -0.7391157801  -0.0365331470   0.0000000000
C    6.0   0.7137755263  -0.0074070662   0.0000000000
H    1.0   1.0599939209   0.5325038915   0.8738162367
H    1.0   1.1908542422  -0.9885375889   0.0000000000
 $end

--- CLOSED SHELL ORBITALS --- GENERATED AT Mon Dec 22 13:23:35 2014
aminomethane...RHF/6-31G(d) geometry...SCF occupied plus VVOs plus external
E(RHF)=      -95.2098286882, E(NUC)=   42.3348014496,   11 ITERS
 $VEC   
 1  1 2.72946122E-04 5.64897931E-04 2.72946122E-04 5.64897931E-04 9.94996794E-01
 1  2 2.49324887E-02 5.40557812E-04-1.36645220E-03 0.00000000E+00-2.28696358E-03
 1  3-6.26626297E-04 9.24736137E-04 0.00000000E+00-3.47345225E-03-3.23456776E-03
 1  4-3.42552303E-03-4.66990380E-05 0.00000000E+00 0.00000000E+00-1.31672131E-05
 1  5 2.15332850E-04-2.45558683E-04-6.43724454E-06 0.00000000E+00 1.41980017E-03
 1  6-4.32404501E-04-2.49701375E-04 0.00000000E+00-2.05755831E-04-5.93954311E-05
 1  7-1.04468529E-04 9.60431284E-06 0.00000000E+00 0.00000000E+00-6.56223790E-05
 1  8-1.05347274E-04-6.56223790E-05-1.05347274E-04-1.31366722E-04-1.84364002E-04
 2  1-5.42770600E-05 2.42526840E-04-5.42770600E-05 2.42526840E-04-2.14748355E-04
 2  2 9.17025319E-05-3.09872064E-05-2.95753772E-05 0.00000000E+00 2.39477031E-03
 2  3 9.34304711E-04 1.14882419E-04 0.00000000E+00-6.39535371E-04-7.87712635E-05
 2  4-9.33249136E-05-3.13054218E-05 0.00000000E+00 0.00000000E+00 9.95725835E-01
 2  5 2.80299225E-02-3.38049168E-04-1.26319149E-05 0.00000000E+00-1.37260159E-02
 2  6 5.46197781E-05-1.68200128E-04 0.00000000E+00-1.80652849E-03-1.86086023E-03
 2  7-1.84116753E-03 2.54302855E-06 0.00000000E+00 0.00000000E+00 1.24595711E-04
 2  8 2.63729556E-03 1.24595711E-04 2.63729556E-03 9.70136780E-05 2.52408004E-03
 3  1 1.19164381E-01 4.01012837E-03 1.19164381E-01 4.01012837E-03-1.82474205E-01
 3  2 3.78260439E-01 4.44659984E-02-6.55323680E-02 0.00000000E+00 3.84983268E-01
 3  3 1.91003174E-02-3.69023552E-02 0.00000000E+00 9.24010995E-03 4.33983515E-04
 3  4 1.36487744E-02 5.93654963E-03 0.00000000E+00 0.00000000E+00-9.52072160E-02
 3  5 1.77379058E-01-9.36816988E-02-5.91219531E-03 0.00000000E+00 1.04829497E-01
 3  6-2.63017905E-03-3.33497960E-03 0.00000000E+00 2.13262916E-02-2.81800758E-03
 3  7-1.86294767E-03 2.08663587E-03 0.00000000E+00 0.00000000E+00 4.27290517E-02
 3  8 6.96923931E-03 4.27290517E-02 6.96923931E-03 4.17640461E-02 3.23086588E-03
 4  1-9.98593592E-02-2.39486141E-02-9.98593592E-02-2.39486141E-02 7.57057856E-02
 4  2-1.57275565E-01 1.55340815E-01 7.44238428E-02 0.00000000E+00-2.17306125E-01
 4  3 6.53070431E-02 4.10520038E-02 0.00000000E+00 1.68508249E-02-6.33043514E-03
 4  4-1.40748306E-02-9.72462085E-03 0.00000000E+00 0.00000000E+00-1.66816992E-01
 4  5 3.18251027E-01 8.95123101E-02 1.77040123E-02 0.00000000E+00 3.30809942E-01
 4  6 3.58087541E-02-5.36467492E-03 0.00000000E+00-6.76063985E-03 1.19490911E-02
 4  7 1.37613827E-02-2.55263239E-03 0.00000000E+00 0.00000000E+00 1.37824865E-01
 4  8 4.36501250E-02 1.37824865E-01 4.36501250E-02 1.30673260E-01 3.59850503E-02
 5  1-1.99806235E-01-1.04422880E-01 1.99806235E-01 1.04422880E-01 0.00000000E+00
 5  2 0.00000000E+00 0.00000000E+00 0.00000000E+00 4.09280941E-01 0.00000000E+00
 5  3 0.00000000E+00 0.00000000E+00 2.28737297E-01 0.00000000E+00 0.00000000E+00
 5  4 0.00000000E+00 0.00000000E+00-5.77897873E-03-3.59658892E-02 0.00000000E+00
 5  5 0.00000000E+00 0.00000000E+00 0.00000000E+00 2.24001092E-01 0.00000000E+00
 5  6 0.00000000E+00 0.00000000E+00 1.07090812E-01 0.00000000E+00 0.00000000E+00
 5  7 0.00000000E+00 0.00000000E+00-3.04631971E-03 1.23969152E-02-1.01850167E-01
 5  8-5.78194244E-02 1.01850167E-01 5.78194244E-02 0.00000000E+00 0.00000000E+00
 6  1-9.23396132E-02-5.58604788E-02-9.23396132E-02-5.58604788E-02-2.94754355E-02
 6  2 6.92372494E-02 2.23703466E-01 2.46044356E-01 0.00000000E+00 1.01909496E-01
 6  3 1.24335561E-01 1.56656428E-01 0.00000000E+00 1.82152229E-02-1.64933277E-02
 6  4-7.41123702E-03-2.51272839E-03 0.00000000E+00 0.00000000E+00 5.91876257E-03
 6  5-4.15589910E-03-2.53016163E-01 2.84478695E-01 0.00000000E+00-3.95932733E-02
 6  6-9.39796256E-02 1.22817884E-01 0.00000000E+00 1.86279584E-02-2.57864895E-02
 6  7 4.51314652E-03 9.90614674E-03 0.00000000E+00 0.00000000E+00 3.02363890E-02
 6  8 2.51946972E-02 3.02363890E-02 2.51946972E-02-2.28716594E-01-1.82278343E-01
 7  1-7.57516231E-02-5.73886434E-02-7.57516231E-02-5.73886434E-02 1.95503428E-03
 7  2-7.10797773E-03 3.43853736E-01-3.20829653E-02 0.00000000E+00 3.81922363E-03
 7  3 2.23439064E-01-2.22834907E-02 0.00000000E+00 1.62795301E-02-4.98455388E-03
 7  4-1.60702484E-02-2.23151446E-02 0.00000000E+00 0.00000000E+00-5.88928146E-03
 7  5 1.65457647E-02-2.76104327E-01-2.96236510E-01 0.00000000E+00-2.54144616E-02
 7  6-1.10536226E-01-1.58847818E-01 0.00000000E+00 2.57333590E-02 2.70535427E-04
 7  7-2.98409354E-02-1.22987453E-02 0.00000000E+00 0.00000000E+00-1.48615868E-01
 7  8-1.17808582E-01-1.48615868E-01-1.17808582E-01 1.04439838E-01 8.68899739E-02
 8  1 1.37290179E-01 1.06502240E-01-1.37290179E-01-1.06502240E-01 0.00000000E+00
 8  2 0.00000000E+00 0.00000000E+00 0.00000000E+00-2.39737396E-01 0.00000000E+00
 8  3 0.00000000E+00 0.00000000E+00-1.65806846E-01 0.00000000E+00 0.00000000E+00
 8  4 0.00000000E+00 0.00000000E+00 1.76699327E-02 2.53485355E-02 0.00000000E+00
 8  5 0.00000000E+00 0.00000000E+00 0.00000000E+00 3.86511723E-01 0.00000000E+00
 8  6 0.00000000E+00 0.00000000E+00 2.13167575E-01 0.00000000E+00 0.00000000E+00
 8  7 0.00000000E+00 0.00000000E+00 2.61942398E-02 2.92682161E-02-2.17674340E-01
 8  8-1.89899225E-01 2.17674340E-01 1.89899225E-01 0.00000000E+00 0.00000000E+00
 9  1-6.25038380E-02-4.96137088E-02-6.25038380E-02-4.96137088E-02-5.26834292E-02
 9  2 1.25125975E-01-1.74403016E-01 4.94408766E-01 0.00000000E+00 2.24400925E-01
 9  3-1.73422627E-01 4.51455354E-01 0.00000000E+00 4.21770805E-03-2.18131816E-02
 9  4 6.62094335E-03 6.52695727E-03 0.00000000E+00 0.00000000E+00 1.02836773E-02
 9  5-2.52800740E-02 8.28546249E-02-1.62927475E-01 0.00000000E+00 1.01438634E-02
 9  6 2.04108043E-02-8.53603197E-02 0.00000000E+00 3.42450054E-04 1.24967101E-02
 9  7-1.17750677E-02-3.33602197E-02 0.00000000E+00 0.00000000E+00-6.76547079E-02
 9  8-7.44424061E-02-6.76547079E-02-7.44424061E-02 1.59202589E-01 1.96227756E-01
10  1-3.08668193E-01-5.36866187E-01-3.08668193E-01-5.36866187E-01-1.29153647E-01
10  2 5.94574574E-01-5.18494385E-02-2.89497380E-01 0.00000000E+00 7.80384383E-01
10  3-1.22377382E-02-2.35213082E-01 0.00000000E+00 7.72481236E-03-2.84239512E-03
10  4-1.37439017E-03 2.68435641E-04 0.00000000E+00 0.00000000E+00-2.68861073E-02
10  5 1.76481328E-01 3.94499138E-01-3.66349063E-02 0.00000000E+00 2.13775944E-01
10  6 3.30561112E-01-2.69005444E-02 0.00000000E+00-8.02856560E-03-3.57526112E-03
10  7-2.48975913E-03-2.06490970E-03 0.00000000E+00 0.00000000E+00-8.78951519E-02
10  8-1.65785647E-01-8.78951519E-02-1.65785647E-01-1.77148535E-01-2.85861125E-01
11  1 3.35900222E-01 4.54190068E-01-3.35900222E-01-4.54190068E-01 0.00000000E+00
11  2 0.00000000E+00 0.00000000E+00 0.00000000E+00 4.64576668E-01 0.00000000E+00
11  3 0.00000000E+00 0.00000000E+00 2.91423825E-01 0.00000000E+00 0.00000000E+00
11  4 0.00000000E+00 0.00000000E+00-7.87920807E-04 5.06363805E-04 0.00000000E+00
11  5 0.00000000E+00 0.00000000E+00 0.00000000E+00 5.62613082E-01 0.00000000E+00
11  6 0.00000000E+00 0.00000000E+00 4.00975796E-01 0.00000000E+00 0.00000000E+00
11  7 0.00000000E+00 0.00000000E+00-1.09460487E-03 5.95695106E-04 3.65876054E-01
11  8 4.79417630E-01-3.65876054E-01-4.79417630E-01 0.00000000E+00 0.00000000E+00
12  1 7.52934895E-02 1.20785429E-01 7.52934895E-02 1.20785429E-01 6.90852915E-02
12  2-2.89744444E-01-2.96911291E-01 1.00471397E-01 0.00000000E+00-3.67888018E-01
12  3-2.13185226E-01 6.39329502E-02 0.00000000E+00 2.27924370E-03 1.40340335E-05
12  4 1.88655377E-03 4.07548519E-04 0.00000000E+00 0.00000000E+00-1.79437290E-01
12  5 7.95253870E-01-4.58462751E-03-1.52585212E-01 0.00000000E+00 1.11614168E+00
12  6-3.93725372E-03-9.99579054E-02 0.00000000E+00-1.89525604E-02-1.76742946E-02
12  7-1.70973910E-02-2.87766595E-04 0.00000000E+00 0.00000000E+00-2.38250205E-01
12  8-4.20140882E-01-2.38250205E-01-4.20140882E-01-3.96517339E-01-6.22412241E-01
13  1 1.40007887E-01 1.74338617E-01 1.40007887E-01 1.74338617E-01 2.39825418E-03
13  2-3.26086754E-02 3.41581523E-01 1.44551314E-02 0.00000000E+00 1.79252855E-02
13  3 2.29954834E-01 6.60438298E-03 0.00000000E+00 9.87547822E-04-5.24618247E-03
13  4-3.65205555E-03 1.04034642E-03 0.00000000E+00 0.00000000E+00-2.31228067E-02
13  5 1.42488113E-01 3.71319310E-01 6.71400934E-01 0.00000000E+00 1.53148833E-01
13  6 2.82710489E-01 4.70351232E-01 0.00000000E+00-5.09624584E-03-2.61261912E-03
13  7-2.65198086E-03 5.24071588E-04 0.00000000E+00 0.00000000E+00-3.69482252E-01
13  8-4.97783052E-01-3.69482252E-01-4.97783052E-01 3.03773140E-01 3.72629139E-01
14  1 3.20792163E-01 4.71401379E-01-3.20792163E-01-4.71401379E-01 0.00000000E+00
14  2 0.00000000E+00 0.00000000E+00 0.00000000E+00 6.25156340E-01 0.00000000E+00
14  3 0.00000000E+00 0.00000000E+00 3.95668995E-01 0.00000000E+00 0.00000000E+00
14  4 0.00000000E+00 0.00000000E+00 5.57283979E-04 3.04396348E-03 0.00000000E+00
14  5 0.00000000E+00 0.00000000E+00 0.00000000E+00-5.89085217E-01 0.00000000E+00
14  6 0.00000000E+00 0.00000000E+00-4.01039426E-01 0.00000000E+00 0.00000000E+00
14  7 0.00000000E+00 0.00000000E+00-2.67174773E-03 5.82529415E-04-3.27663870E-01
14  8-4.18031666E-01 3.27663870E-01 4.18031666E-01 0.00000000E+00 0.00000000E+00
15  1 2.02600497E-01 2.84341398E-01 2.02600497E-01 2.84341398E-01-9.54676155E-03
15  2 1.17028386E-02 5.67601212E-01 3.00566839E-01 0.00000000E+00 5.77890055E-02
15  3 3.94265654E-01 1.75489386E-01 0.00000000E+00 7.20497271E-03-2.05345762E-03
15  4 1.51084702E-03 3.87152050E-04 0.00000000E+00 0.00000000E+00 3.63813272E-02
15  5-1.18070465E-01 5.80819492E-01-4.44358309E-01 0.00000000E+00-2.27365878E-01
15  6 4.33234072E-01-3.04660363E-01 0.00000000E+00-9.07154092E-04 2.29625457E-03
15  7 3.39965991E-03-2.16322497E-03 0.00000000E+00 0.00000000E+00 7.55532425E-02
15  8 1.14417629E-01 7.55532425E-02 1.14417629E-01-3.91268326E-01-4.85020729E-01
16  1-7.44741082E-02 3.12963589E-01-7.44741082E-02 3.12963589E-01-1.51482663E-02
16  2-1.44927921E-01-2.30035093E-02 6.47049686E-02 0.00000000E+00 1.41785377E+00
16  3 8.35766689E-01 4.18062722E-02 0.00000000E+00 1.20359499E-01-7.19111712E-02
16  4-7.12148495E-02 8.80708044E-03 0.00000000E+00 0.00000000E+00 1.68941729E-02
16  5 3.22139132E-01-7.27822471E-01-2.64410153E-02 0.00000000E+00-1.29989050E+00
16  6 2.16529080E+00 2.97674400E-02 0.00000000E+00 2.33129759E-03 5.37660502E-03
16  7 1.42436428E-02 4.08509772E-03 0.00000000E+00 0.00000000E+00-1.36186680E-01
16  8-1.27327714E-02-1.36186680E-01-1.27327714E-02-1.68121058E-01-9.08570946E-02
17  1 3.17894269E-01-6.75763958E-01-3.17894269E-01 6.75763958E-01 0.00000000E+00
17  2 0.00000000E+00 0.00000000E+00 0.00000000E+00 6.86650886E-02 0.00000000E+00
17  3 0.00000000E+00 0.00000000E+00-5.63440930E-01 0.00000000E+00 0.00000000E+00
17  4 0.00000000E+00 0.00000000E+00 5.01044590E-02 5.51972299E-02 0.00000000E+00
17  5 0.00000000E+00 0.00000000E+00 0.00000000E+00-6.11542492E-01 0.00000000E+00
17  6 0.00000000E+00 0.00000000E+00 1.34734648E+00 0.00000000E+00 0.00000000E+00
17  7 0.00000000E+00 0.00000000E+00-5.36120626E-02-8.34266957E-02 3.91500803E-01
17  8 1.70935813E-01-3.91500803E-01-1.70935813E-01 0.00000000E+00 0.00000000E+00
18  1 1.48597238E-01-2.58996439E-01 1.48597238E-01-2.58996439E-01 4.41746665E-03
18  2-1.73069041E-01 1.10031504E-01-1.56208121E-01 0.00000000E+00 3.78592980E-01
18  3-1.72873741E-01-2.56085332E-01 0.00000000E+00-4.43858878E-02-3.22195377E-02
18  4-2.96564367E-02 2.63774668E-02 0.00000000E+00 0.00000000E+00-4.35277261E-03
18  5 2.09359096E-02-5.13167865E-02-6.51858825E-01 0.00000000E+00 9.86008169E-02
18  6-4.47323210E-02 1.41860447E+00 0.00000000E+00 1.58603225E-02 8.77138387E-02
18  7-8.87686350E-02-5.69646561E-02 0.00000000E+00 0.00000000E+00-2.54440081E-01
18  8-8.34922463E-02-2.54440081E-01-8.34922463E-02 5.55477607E-01 7.73134181E-02
19  1-2.67540855E-01 3.67527439E-02 2.67540855E-01-3.67527439E-02 0.00000000E+00
19  2 0.00000000E+00 0.00000000E+00 0.00000000E+00 2.32206826E-01 0.00000000E+00
19  3 0.00000000E+00 0.00000000E+00-9.00969304E-01 0.00000000E+00 0.00000000E+00
19  4 0.00000000E+00 0.00000000E+00-5.83398870E-02-5.61966296E-02 0.00000000E+00
19  5 0.00000000E+00 0.00000000E+00 0.00000000E+00-5.86098487E-01 0.00000000E+00
19  6 0.00000000E+00 0.00000000E+00 2.22153634E+00 0.00000000E+00 0.00000000E+00
19  7 0.00000000E+00 0.00000000E+00 8.89755626E-02 5.43762702E-02-3.87864110E-01
19  8 1.90704369E+00 3.87864110E-01-1.90704369E+00 0.00000000E+00 0.00000000E+00
20  1-9.44014125E-02-1.95358026E-01-9.44014125E-02-1.95358026E-01-8.07761651E-03
20  2-3.24558276E-03 9.80418394E-02 2.92748598E-01 0.00000000E+00 2.39303957E-02
20  3-4.34150961E-01-8.32347430E-01 0.00000000E+00-1.81768873E-03 2.52930105E-02
20  4-2.61597697E-02-4.06187785E-02 0.00000000E+00 0.00000000E+00-2.97632761E-03
20  5-6.32612092E-02 3.17344950E-03-5.83301339E-01 0.00000000E+00 4.78221239E-01
20  6-3.65474260E-01 2.19024509E+00 0.00000000E+00 1.26831445E-02-4.99616509E-02
20  7 5.10892974E-02 8.55633952E-02 0.00000000E+00 0.00000000E+00 2.93518501E-01
20  8-1.22168605E+00 2.93518501E-01-1.22168605E+00-4.63024824E-01 2.23441833E+00
21  1-3.70821713E-01 5.07282301E-01-3.70821713E-01 5.07282301E-01 2.75077009E-02
21  2 3.51503529E-01 4.79323104E-01-3.06547454E-01 0.00000000E+00-1.57402655E+00
21  3-1.22697272E+00 3.16560448E-01 0.00000000E+00 9.26565724E-02 8.43909685E-02
21  4-1.33281553E-02-3.24374845E-02 0.00000000E+00 0.00000000E+00-9.16375591E-03
21  5-4.80245348E-01-2.44499084E-01 1.44909650E-02 0.00000000E+00 2.68685902E+00
21  6-1.30281216E-01-1.43015619E-01 0.00000000E+00 7.93498710E-02-2.64834500E-02
21  7-4.80038877E-02 2.18556312E-02 0.00000000E+00 0.00000000E+00 2.46721487E-01
21  8-7.10525487E-01 2.46721487E-01-7.10525487E-01 3.14928263E-01-9.81104003E-01
22  1 3.67235576E-01-5.55807366E-01 3.67235576E-01-5.55807366E-01-1.07538609E-02
22  2-1.76193210E-01-5.12729061E-02 4.05562823E-01 0.00000000E+00 7.55316140E-01
22  3 1.04308109E-01-3.72702386E-01 0.00000000E+00-5.27123223E-02-5.98521256E-02
22  4 5.20759720E-02 5.30299137E-02 0.00000000E+00 0.00000000E+00-2.34145137E-02
22  5-6.67808456E-01-3.00658405E-01 1.33511187E-01 0.00000000E+00 2.20014864E+00
22  6 7.38641519E-01-2.95177880E-01 0.00000000E+00-1.26548326E-01-1.15440912E-02
22  7 3.57343247E-03-5.37900466E-02 0.00000000E+00 0.00000000E+00 3.88008681E-01
22  8-8.86495164E-01 3.88008681E-01-8.86495164E-01 4.38960338E-01-1.33699425E+00
23  1-5.32293706E-01 1.50905908E+00 5.32293706E-01-1.50905908E+00 0.00000000E+00
23  2 0.00000000E+00 0.00000000E+00 0.00000000E+00-3.71535769E-01 0.00000000E+00
23  3 0.00000000E+00 0.00000000E+00 7.89813795E-01 0.00000000E+00 0.00000000E+00
23  4 0.00000000E+00 0.00000000E+00-6.13345565E-02-1.40039081E-01 0.00000000E+00
23  5 0.00000000E+00 0.00000000E+00 0.00000000E+00-2.29444215E-01 0.00000000E+00
23  6 0.00000000E+00 0.00000000E+00 4.61101362E-01 0.00000000E+00 0.00000000E+00
23  7 0.00000000E+00 0.00000000E+00 1.02998518E-02-1.09996156E-01 3.62504709E-01
23  8-2.94572375E-01-3.62504709E-01 2.94572375E-01 0.00000000E+00 0.00000000E+00
24  1-2.64526753E-01 1.33158250E+00-2.64526753E-01 1.33158250E+00 6.86433440E-03
24  2 5.53735794E-01-6.27579308E-01-8.29014673E-02 0.00000000E+00-1.47002416E+00
24  3 1.68408580E+00 4.46776816E-01 0.00000000E+00 1.11594608E-01 1.45894071E-01
24  4 7.26294618E-02-3.12262071E-02 0.00000000E+00 0.00000000E+00-9.64224717E-03
24  5-3.58042461E-01 3.57561360E-02-2.04753129E-01 0.00000000E+00 4.30440514E-01
24  6 8.72672702E-01 5.72454261E-01 0.00000000E+00-1.43800995E-01 3.04831360E-02
24  7-1.62973940E-02-7.16747320E-03 0.00000000E+00 0.00000000E+00 9.06388290E-02
24  8-7.11572899E-01 9.06388290E-02-7.11572899E-01 2.09308999E-01-3.20923807E-01
25  1 2.67716386E-01 9.64939054E-04 2.67716386E-01 9.64939054E-04-2.76236350E-03
25  2-4.61397965E-01-6.20944059E-02-7.16157370E-01 0.00000000E+00 9.55880258E-01
25  3 6.10691071E-01 1.08508519E+00 0.00000000E+00-1.55633041E-01-1.22851634E-01
25  4-2.12673468E-02-5.78023693E-02 0.00000000E+00 0.00000000E+00-2.49929695E-02
25  5-4.26002449E-01-6.98488283E-02-1.28952019E-01 0.00000000E+00 8.12855796E-01
25  6 7.95162445E-01-3.47128557E-02 0.00000000E+00-1.00313445E-01-9.94279297E-02
25  7 7.57402972E-02 5.95999185E-02 0.00000000E+00 0.00000000E+00 1.90024308E-01
25  8-7.51189366E-01 1.90024308E-01-7.51189366E-01-3.48189124E-01 9.47475804E-02
26  1 2.84504007E-01 8.51484207E-01-2.84504007E-01-8.51484207E-01 0.00000000E+00
26  2 0.00000000E+00 0.00000000E+00 0.00000000E+00-7.24009218E-01 0.00000000E+00
26  3 0.00000000E+00 0.00000000E+00 1.88275012E+00 0.00000000E+00 0.00000000E+00
26  4 0.00000000E+00 0.00000000E+00-8.98432292E-04 9.19614918E-02 0.00000000E+00
26  5 0.00000000E+00 0.00000000E+00 0.00000000E+00-3.01054199E-01 0.00000000E+00
26  6 0.00000000E+00 0.00000000E+00 2.51300668E-01 0.00000000E+00 0.00000000E+00
26  7 0.00000000E+00 0.00000000E+00-1.05739700E-02 1.33633714E-01-3.09706385E-01
26  8 7.56308930E-01 3.09706385E-01-7.56308930E-01 0.00000000E+00 0.00000000E+00
27  1-3.35592795E-01-5.85659725E-01-3.35592795E-01-5.85659725E-01-5.66860883E-02
27  2-7.61851913E-01-7.26875594E-02 1.94604299E-01 0.00000000E+00 1.70058915E+00
27  3-4.36024262E-01-7.54511319E-01 0.00000000E+00-2.29967286E-01-7.55470390E-03
27  4-2.44734623E-01-6.09506941E-02 0.00000000E+00 0.00000000E+00-8.55353589E-02
27  5-1.37226331E+00 7.60493868E-02 7.70225475E-02 0.00000000E+00 3.46485615E+00
27  6 2.92145211E-01 1.44966684E-01 0.00000000E+00-1.03165884E-01-2.68456466E-03
27  7-1.76578009E-01 5.26939991E-02 0.00000000E+00 0.00000000E+00-3.78489077E-01
27  8-6.11205229E-01-3.78489077E-01-6.11205229E-01-1.73172733E-01-8.51141395E-01
28  1 2.99714255E-01 1.44747824E-01 2.99714255E-01 1.44747824E-01 1.06045359E-01
28  2 1.07475390E+00 8.65837941E-02-2.50832552E-02 0.00000000E+00-4.15336630E+00
28  3-1.48746994E+00 2.27326978E-01 0.00000000E+00 2.69877522E-01-4.04167479E-02
28  4 3.52968858E-01 2.26511210E-01 0.00000000E+00 0.00000000E+00-1.12765787E-01
28  5-1.25494178E+00-1.68036043E-01-6.95079662E-02 0.00000000E+00 5.05660146E+00
28  6-1.10073854E+00 4.95351746E-02 0.00000000E+00 6.93428435E-02-2.45496893E-01
28  7 1.54010013E-02-1.62237761E-01 0.00000000E+00 0.00000000E+00-3.97427562E-01
28  8-5.88105621E-01-3.97427562E-01-5.88105621E-01-4.79332964E-01-3.70471672E-01
29  1 1.32982429E-01 7.13857116E-02-1.32982429E-01-7.13857116E-02 0.00000000E+00
29  2 0.00000000E+00 0.00000000E+00 0.00000000E+00-3.19391044E-03 0.00000000E+00
29  3 0.00000000E+00 0.00000000E+00 3.00902307E-01 0.00000000E+00 0.00000000E+00
29  4 0.00000000E+00 0.00000000E+00-5.90307533E-01 3.14131253E-01 0.00000000E+00
29  5 0.00000000E+00 0.00000000E+00 0.00000000E+00 6.47646742E-02 0.00000000E+00
29  6 0.00000000E+00 0.00000000E+00 3.67593176E-02 0.00000000E+00 0.00000000E+00
29  7 0.00000000E+00 0.00000000E+00 6.04939147E-01-2.42012639E-01 9.89547352E-02
29  8-1.13646551E-02-9.89547352E-02 1.13646551E-02 0.00000000E+00 0.00000000E+00
30  1-2.18480946E-01-1.14459176E-01-2.18480946E-01-1.14459176E-01-4.05533914E-02
30  2-4.42662449E-01-2.31457159E-02-5.81722284E-02 0.00000000E+00 1.52441588E+00
30  3 3.63728237E-01-1.95068115E-01 0.00000000E+00-9.47522864E-02 2.66193175E-01
30  4-3.88850533E-01 5.17863186E-01 0.00000000E+00 0.00000000E+00 2.36583968E-02
30  5 2.05944207E-01 8.55502606E-02-5.90214636E-02 0.00000000E+00-1.11760120E+00
30  6 3.47233271E-01-7.76273113E-02 0.00000000E+00 5.18848965E-03-2.79402735E-01
30  7 2.92205098E-01-5.52872164E-01 0.00000000E+00 0.00000000E+00 1.44090276E-01
30  8 8.14635298E-02 1.44090276E-01 8.14635298E-02-6.08065405E-02 9.82705260E-02
31  1-4.54244968E-01-1.92421312E-01-4.54244968E-01-1.92421312E-01-5.68262067E-02
31  2-6.81420415E-01-1.32815103E-01 6.67095035E-02 0.00000000E+00 2.08879483E+00
31  3 4.11540821E-01-6.75227135E-01 0.00000000E+00 6.96535962E-02-7.80152907E-01
31  4 4.53744039E-01-1.76456933E-01 0.00000000E+00 0.00000000E+00 3.02820750E-02
31  5 1.10048887E-01 2.19157313E-01-1.82729061E-02 0.00000000E+00-1.21246662E+00
31  6 2.34503351E-01 6.39035900E-01 0.00000000E+00 1.56091845E-01-5.63129141E-01
31  7 3.90083208E-01-1.64968945E-01 0.00000000E+00 0.00000000E+00-7.36418805E-03
31  8-8.29394598E-03-7.36418805E-03-8.29394598E-03 4.14911675E-01 2.77436561E-01
32  1 1.89123898E-01-1.20887490E-02 1.89123898E-01-1.20887490E-02 1.79729392E-02
32  2-3.15208083E-01-3.32506981E-01-4.56629813E-02 0.00000000E+00 1.36526974E-01
32  3 4.58725750E-01 2.78048540E-01 0.00000000E+00 4.84534317E-01-1.72718117E-01
32  4-3.77237899E-01 2.04861419E-01 0.00000000E+00 0.00000000E+00 9.53004911E-03
32  5-2.10879166E-01 2.75039449E-01-3.45680979E-04 0.00000000E+00-1.96977554E-01
32  6-2.43464817E-01-3.23293518E-01 0.00000000E+00 7.03878315E-01-1.48712512E-01
32  7-6.50569369E-01 1.51745847E-01 0.00000000E+00 0.00000000E+00 3.04625045E-01
32  8-3.39299221E-03 3.04625045E-01-3.39299221E-03 3.81105260E-02-8.68237351E-02
33  1 2.86454284E-01 1.28594184E-01-2.86454284E-01-1.28594184E-01 0.00000000E+00
33  2 0.00000000E+00 0.00000000E+00 0.00000000E+00-1.08503489E-01 0.00000000E+00
33  3 0.00000000E+00 0.00000000E+00 8.21282128E-01 0.00000000E+00 0.00000000E+00
33  4 0.00000000E+00 0.00000000E+00 4.50667178E-01-4.79994093E-01 0.00000000E+00
33  5 0.00000000E+00 0.00000000E+00 0.00000000E+00-1.19872018E-02 0.00000000E+00
33  6 0.00000000E+00 0.00000000E+00-8.18959041E-01 0.00000000E+00 0.00000000E+00
33  7 0.00000000E+00 0.00000000E+00 3.83396760E-01-7.80499741E-01-3.82355891E-01
33  8-1.49907251E-01 3.82355891E-01 1.49907251E-01 0.00000000E+00 0.00000000E+00
34  1-4.75811469E-01-4.31005883E-02-4.75811469E-01-4.31005883E-02-5.50925988E-02
34  2-3.90921964E-01 5.65012228E-02-8.08059313E-02 0.00000000E+00 1.69683544E+00
34  3 3.06192200E-01-1.06175179E-01 0.00000000E+00-1.14909875E-01-5.32563541E-01
34  4 4.93869081E-01 5.59490181E-01 0.00000000E+00 0.00000000E+00 2.74422517E-02
34  5 2.33141588E-01 6.65668616E-02-4.73990805E-02 0.00000000E+00-1.17080024E+00
34  6 5.29523202E-01-3.72024341E-01 0.00000000E+00-2.44201283E-01 7.25003053E-01
34  7-4.56890676E-01-1.15437499E-01 0.00000000E+00 0.00000000E+00 2.44516774E-01
34  8 8.49956611E-02 2.44516774E-01 8.49956611E-02-4.01164416E-01 8.26893808E-02
35  1 8.15323779E-02 8.83862732E-02-8.15323779E-02-8.83862732E-02 0.00000000E+00
35  2 0.00000000E+00 0.00000000E+00 0.00000000E+00-9.73173068E-04 0.00000000E+00
35  3 0.00000000E+00 0.00000000E+00 2.50727791E-01 0.00000000E+00 0.00000000E+00
35  4 0.00000000E+00 0.00000000E+00 3.90891131E-01-2.87832746E-01 0.00000000E+00
35  5 0.00000000E+00 0.00000000E+00 0.00000000E+00 4.70328371E-02 0.00000000E+00
35  6 0.00000000E+00 0.00000000E+00 1.10997129E-01 0.00000000E+00 0.00000000E+00
35  7 0.00000000E+00 0.00000000E+00 8.05721292E-01 7.34617025E-01 5.24613079E-01
35  8-1.85205843E-01-5.24613079E-01 1.85205843E-01 0.00000000E+00 0.00000000E+00
36  1-1.54327303E-01 3.70779772E-02-1.54327303E-01 3.70779772E-02-1.74362034E-02
36  2-6.85820674E-02 6.49223745E-03 1.13211224E-02 0.00000000E+00 4.04024444E-01
36  3 1.26921884E-01 7.57893393E-02 0.00000000E+00-4.38008598E-02-8.60514272E-03
36  4 9.11864570E-03 6.76833750E-01 0.00000000E+00 0.00000000E+00 1.13686684E-02
36  5 6.73836214E-02 1.47583346E-02 2.90099617E-02 0.00000000E+00-3.85765981E-01
36  6 1.32403561E-01 1.77740411E-02 0.00000000E+00-1.32492849E-01-2.94284930E-01
36  7 4.55338296E-01 9.07518102E-01 0.00000000E+00 0.00000000E+00-2.25116191E-01
36  8 1.34835855E-01-2.25116191E-01 1.34835855E-01 5.24636860E-01-1.98889922E-01
37  1-7.77787095E-01 6.69423134E-02 7.77787095E-01-6.69423134E-02 0.00000000E+00
37  2 0.00000000E+00 0.00000000E+00 0.00000000E+00-2.29706262E-02 0.00000000E+00
37  3 0.00000000E+00 0.00000000E+00-6.48290998E-01 0.00000000E+00 0.00000000E+00
37  4 0.00000000E+00 0.00000000E+00 7.36660418E-01 9.71334866E-01 0.00000000E+00
37  5 0.00000000E+00 0.00000000E+00 0.00000000E+00-4.81079664E-02 0.00000000E+00
37  6 0.00000000E+00 0.00000000E+00 1.27529880E-01 0.00000000E+00 0.00000000E+00
37  7 0.00000000E+00 0.00000000E+00 1.87485998E-01-1.49739840E-01-1.77110253E-02
37  8 3.63342860E-02 1.77110253E-02-3.63342860E-02 0.00000000E+00 0.00000000E+00
38  1 1.91673905E-01 6.25009732E-02 1.91673905E-01 6.25009732E-02-7.31796367E-02
38  2-2.28413521E-01 1.64950254E-01-1.62339510E-02 0.00000000E+00 1.71322679E+00
38  3 1.29619796E+00 1.84610246E-01 0.00000000E+00 1.08100760E+00-5.59500879E-01
38  4-7.42692785E-01-5.64750415E-02 0.00000000E+00 0.00000000E+00 6.10402682E-02
38  5-1.85893859E-01 5.57348518E-01 2.18035126E-02 0.00000000E+00-1.62531023E+00
38  6 9.11285768E-01-3.37314810E-02 0.00000000E+00-9.16615932E-01 4.84128369E-01
38  7 5.09079912E-01-3.95964026E-02 0.00000000E+00 0.00000000E+00-6.04625758E-02
38  8 8.24819001E-02-6.04625758E-02 8.24819001E-02-3.62533653E-02 2.54170591E-02
39  1 1.33287925E-01-5.60660986E-01 1.33287925E-01-5.60660986E-01-4.68827934E-01
39  2 1.03606985E+00-6.89663586E-02 9.65797073E-02 0.00000000E+00 3.52210845E+00
39  3 2.91244115E-01-2.83724154E-01 0.00000000E+00-1.50001882E+00-1.54828435E+00
39  4-1.51792760E+00 4.01072557E-03 0.00000000E+00 0.00000000E+00-9.77563060E-02
39  5 6.96045568E-01-1.18669060E-01 1.42321390E-02 0.00000000E+00-5.87120384E-01
39  6 4.07293685E-01-3.66213630E-03 0.00000000E+00-1.29871370E-01-4.31241557E-01
39  7-4.23445430E-01-1.54055654E-02 0.00000000E+00 0.00000000E+00 1.02232234E-01
39  8-4.31925426E-02 1.02232234E-01-4.31925426E-02 9.10125681E-02-6.05598282E-02
40  1 1.48158202E-03 1.07625113E-01 1.48158202E-03 1.07625113E-01 9.98286422E-02
40  2-2.13418704E-01 1.54081815E-01-1.67102977E-02 0.00000000E+00-1.14564489E+00
40  3-1.15330776E-01 7.39242563E-02 0.00000000E+00 6.44895580E-01 2.88274604E-01
40  4 2.68496706E-01 4.32495977E-03 0.00000000E+00 0.00000000E+00-4.73068373E-01
40  5 2.84771181E+00 8.97348823E-02-8.82334224E-03 0.00000000E+00 2.55657147E+00
40  6 1.01217699E-02 3.11339334E-02 0.00000000E+00-2.02151652E+00-1.82053359E+00
40  7-1.81528628E+00 4.20899069E-03 0.00000000E+00 0.00000000E+00 1.09133048E-01
40  8-5.25860675E-01 1.09133048E-01-5.25860675E-01 1.16199143E-01-5.03859141E-01
 $END   

! TRAVIS-CI SMALL

! TRAVIS-CI SKIP
