!  ortho-benzyne...1,3-cyclohexadien-5-yne...CAS # 462-80-6
!  "The benzyne story" C.Wentrop  Aust.J.Chem. 63, 979-986(2010)
!  CIS asked to predict both singlet and triplet roots, simultaneously
!  there are 270 AOs, 236 MOs in CCT basis set.  Created 4/2015
!
!   FINAL RHF E= -229.4611756084, 14 iters
!   ten Davidson iterations to find
!      EXCITED STATE   1  ENERGY= -229.4297489764  S=1.0  SPACE SYM=B2
!      EXCITED STATE   2  ENERGY= -229.3625460168  S=1.0  SPACE SYM=A2
!      EXCITED STATE   3  ENERGY= -229.3345233179  S=0.0  SPACE SYM=A2
!      EXCITED STATE   4  ENERGY= -229.3321841346  S=1.0  SPACE SYM=B2
!      EXCITED STATE   5  ENERGY= -229.3042399187  S=1.0  SPACE SYM=B1
!      STATE 1 z-DIPOLE =  -1.993918 DEBYE
!      STATE 2 z-DIPOLE =  -3.491396 DEBYE
!      STATE 3 z-DIPOLE =  -3.725793 DEBYE
!      STATE 4 z-DIPOLE =  -1.912363 DEBYE
!      STATE 5 z-DIPOLE =  -5.057181 DEBYE
!    TRANSITION FROM GROUND TO EXCITED STATE  3 has no oscillator strength
!
!    This run takes 986 seconds (14 Apr 2015)
!
 $contrl scftyp=rhf cityp=cis runtyp=energy ispher=1 $end
 $system mwords=20 $end
 $basis  gbasis=cct $end
 $guess  guess=huckel $end
 $cis    hamtyp=dets nacore=6 nstate=5 iroot=1 $end

 $data
ortho-benzyne...MCSCF/ACCT geometry
Cnv 2

C   6.0   0.0000000000   0.6248866430   1.1446064282
C   6.0   0.0000000000   1.4474467006   0.0144160436
H   1.0   0.0000000000   2.5177864553   0.0227427439
C   6.0   0.0000000000   0.7095251288  -1.1628699161
H   1.0   0.0000000000   1.2230732119  -2.1058952997
 $end

! TRAVIS-CI MEDIUM

