!  General MCSCF on H2CO at the experimental geometry.
!  Here we use cc-pVTZ basis of Dunning et al without H(d),O(f),C(f)
!  The wavefunction is single reference CI-SD but the orbitals will
!  be fully optimized (slowly) by the FULLNR converger.
!  It would be more natural to use ORMAS for this run, but the test
!  is to prove the far less commonly used GENCI code.
!
!      FINAL MCSCF ENERGY= -114.0342047968 after 66 iters
!
!  which isn't bad considering the energies below:
!  SCF = -113.9084362735, FORS = -114.0418318629
!
!  This run took 22 seconds on a 2.66 GHz Cloverton (10 Nov 2009)
!         answers haven't changed since August 2001
!
 $CONTRL SCFTYP=MCSCF RUNTYP=energy cityp=none $END
 $SYSTEM mwords=3 $END
 $MCSCF  CISTEP=GENCI FULLNR=.TRUE. MAXIT=100 $END
 $gen    GROUP=C2V STSYM=A1 ncore=2 nact=10 nels=12 GLIST=INPUT $END
 $GUESS  GUESS=MOREAD NORB=68 $END
 $DATA
H2CO, geometry and basis given above.
CNV 2

C           6.0      0.0         0.0         .0000000000
 S   8
  1        8236.000000         0.5310000000E-03
  2        1235.000000         0.4108000000E-02
  3        280.8000000         0.2108700000E-01
  4        79.27000000         0.8185300000E-01
  5        25.59000000         0.2348170000
  6        8.997000000         0.4344010000
  7        3.319000000         0.3461290000
  8       0.3643000000        -0.8983000000E-02
 S   8
  1        8236.000000        -0.1130000000E-03
  2        1235.000000        -0.8780000000E-03
  3        280.8000000        -0.4540000000E-02
  4        79.27000000        -0.1813300000E-01
  5        25.59000000        -0.5576000000E-01
  6        8.997000000        -0.1268950000
  7        3.319000000        -0.1703520000
  8       0.3643000000         0.5986840000
 S   1
  1       0.9059000000          1.000000000
 S   1
  1       0.1285000000          1.000000000
 P   3
  1        18.71000000         0.1403100000E-01
  2        4.133000000         0.8686600000E-01
  3        1.200000000         0.2902160000
 P   1
  1       0.3827000000          1.000000000
 P   1
  1       0.1209000000          1.000000000
 D   1
  1        1.097000000          1.000000000
 D   1
  1       0.3180000000          1.000000000

O           8.0     0.0        0.0     1.203 
 S   8
  1        15330.00000         0.5080000000E-03
  2        2299.000000         0.3929000000E-02
  3        522.4000000         0.2024300000E-01
  4        147.3000000         0.7918100000E-01
  5        47.55000000         0.2306870000
  6        16.76000000         0.4331180000
  7        6.207000000         0.3502600000
  8       0.6882000000        -0.8154000000E-02
 S   8
  1        15330.00000        -0.1150000000E-03
  2        2299.000000        -0.8950000000E-03
  3        522.4000000        -0.4636000000E-02
  4        147.3000000        -0.1872400000E-01
  5        47.55000000        -0.5846300000E-01
  6        16.76000000        -0.1364630000
  7        6.207000000        -0.1757400000
  8       0.6882000000         0.6034180000
 S   1
  1        1.752000000          1.000000000
 S   1
  1       0.2384000000          1.000000000
 P   3
  1        34.46000000         0.1592800000E-01
  2        7.749000000         0.9974000000E-01
  3        2.280000000         0.3104920000
 P   1
  1       0.7156000000          1.000000000
 P   1
  1       0.2140000000          1.000000000
 D   1
  1        2.314000000          1.000000000
 D   1
  1       0.6450000000          1.000000000

H           1.0      0.0        0.93454    -0.57831
 S   3
  1        33.87000000         0.6068000000E-02
  2        5.095000000         0.4530800000E-01
  3        1.159000000         0.2028220000
 S   1
  1       0.3258000000          1.000000000
 S   1
  1       0.1027000000          1.000000000
 P   1
  1        1.407000000          1.000000000
 P   1
  1       0.3880000000          1.000000000

 $END

 $GCILST
 80 
 2 2 2 2 2 2 0 0 0 0
 2 2 2 2 1 2 1 0 0 0
 2 2 2 1 2 2 0 1 0 0
 2 2 2 1 2 2 0 0 0 1
 2 2 1 2 2 2 0 0 1 0
 2 1 2 2 2 2 0 1 0 0
 2 1 2 2 2 2 0 0 0 1
 1 2 2 2 2 2 0 1 0 0
 1 2 2 2 2 2 0 0 0 1
 2 2 2 2 1 1 1 0 1 0
 2 2 2 1 2 1 0 1 1 0
 2 2 2 1 2 1 0 0 1 1
 2 2 2 1 1 2 1 1 0 0
 2 2 2 1 1 2 1 0 0 1
 2 2 1 2 2 1 0 1 0 1
 2 2 1 2 1 2 1 0 1 0
 2 2 1 1 2 2 0 1 1 0
 2 2 1 1 2 2 0 0 1 1
 2 1 2 2 2 1 0 1 1 0
 2 1 2 2 2 1 0 0 1 1
 2 1 2 2 1 2 1 1 0 0
 2 1 2 2 1 2 1 0 0 1
 2 1 2 1 2 2 0 1 0 1
 2 1 1 2 2 2 0 1 1 0
 2 1 1 2 2 2 0 0 1 1
 1 2 2 2 2 1 0 1 1 0
 1 2 2 2 2 1 0 0 1 1
 1 2 2 2 1 2 1 1 0 0
 1 2 2 2 1 2 1 0 0 1
 1 2 2 1 2 2 0 1 0 1
 1 2 1 2 2 2 0 1 1 0
 1 2 1 2 2 2 0 0 1 1
 1 1 2 2 2 2 0 1 0 1
 2 2 2 2 2 0 2 0 0 0
 2 2 1 2 2 1 2 0 0 0
 2 2 2 2 2 0 0 2 0 0
 2 2 2 2 2 0 0 1 0 1
 2 2 1 2 2 1 0 2 0 0
 2 2 2 2 2 1 0 0 1 0
 2 2 2 2 2 0 0 0 2 0
 2 2 1 2 2 1 0 0 2 0
 2 2 2 2 2 0 0 0 0 2
 2 2 1 2 2 1 0 0 0 2
 2 2 2 2 0 2 2 0 0 0
 2 2 2 2 0 2 0 2 0 0
 2 2 2 2 0 2 0 1 0 1
 2 2 2 2 0 2 0 0 2 0
 2 2 2 2 0 2 0 0 0 2
 2 2 2 0 2 2 2 0 0 0
 2 1 2 1 2 2 2 0 0 0
 1 2 2 1 2 2 2 0 0 0
 2 2 2 0 2 2 0 2 0 0
 2 2 2 0 2 2 0 1 0 1
 2 1 2 1 2 2 0 2 0 0
 1 2 2 1 2 2 0 2 0 0
 2 2 2 0 2 2 0 0 2 0
 2 1 2 1 2 2 0 0 2 0
 1 2 2 1 2 2 0 0 2 0
 2 2 2 0 2 2 0 0 0 2
 2 1 2 1 2 2 0 0 0 2
 1 2 2 1 2 2 0 0 0 2
 2 2 0 2 2 2 2 0 0 0
 2 2 0 2 2 2 0 2 0 0
 2 2 0 2 2 2 0 1 0 1
 2 2 0 2 2 2 0 0 2 0
 2 2 0 2 2 2 0 0 0 2
 2 0 2 2 2 2 2 0 0 0
 1 1 2 2 2 2 2 0 0 0
 2 0 2 2 2 2 0 2 0 0
 2 0 2 2 2 2 0 1 0 1
 1 1 2 2 2 2 0 2 0 0
 2 0 2 2 2 2 0 0 2 0
 1 1 2 2 2 2 0 0 2 0
 2 0 2 2 2 2 0 0 0 2
 1 1 2 2 2 2 0 0 0 2
 0 2 2 2 2 2 2 0 0 0
 0 2 2 2 2 2 0 2 0 0
 0 2 2 2 2 2 0 1 0 1
 0 2 2 2 2 2 0 0 2 0
 0 2 2 2 2 2 0 0 0 2
 $END

--- RHF ORBITALS --- GENERATED AT 14:26:20 CST 27-FEB-2001
H2CO, geometry and basis given above.                                           
E(RHF)=     -113.9084362735, E(NUC)=   31.3845660179,   11 ITERS
 $VEC
 1  1 5.29254224E-04 1.17605747E-03 1.23760012E-04 1.61977664E-03 0.00000000E+00
 1  2 0.00000000E+00 2.04017931E-04 0.00000000E+00 0.00000000E+00 1.70826326E-03
 1  3 0.00000000E+00 0.00000000E+00 1.06164809E-03-1.32253790E-04-2.12142271E-04
 1  4 4.26581649E-04 0.00000000E+00 0.00000000E+00 0.00000000E+00-5.88877086E-05
 1  5-1.91693462E-04 6.00640821E-04 0.00000000E+00 0.00000000E+00 0.00000000E+00
 1  6 9.71833519E-01-9.46137359E-03 4.61926586E-02-6.97255430E-03 0.00000000E+00
 1  7 0.00000000E+00-1.79733864E-03 0.00000000E+00 0.00000000E+00 1.36525029E-03
 1  8 0.00000000E+00 0.00000000E+00 1.17368910E-03 1.95134182E-03 2.19067064E-03
 1  9 2.38008046E-03 0.00000000E+00 0.00000000E+00 0.00000000E+00 4.50600738E-03
 1 10 4.71078855E-03 3.67635295E-03 0.00000000E+00 0.00000000E+00 0.00000000E+00
 1 11 4.86196669E-05 1.18056360E-04 4.28736002E-05 0.00000000E+00 1.94745461E-05
 1 12 5.49875730E-05 0.00000000E+00 1.01074565E-04-3.69493901E-05 4.86196669E-05
 1 13 1.18056360E-04 4.28736002E-05 0.00000000E+00-1.94745461E-05 5.49875730E-05
 1 14 0.00000000E+00-1.01074565E-04-3.69493901E-05
 2  1 9.75519164E-01-5.04818493E-03 4.48681489E-02-5.34118860E-03 0.00000000E+00
 2  2 0.00000000E+00 3.19659346E-04 0.00000000E+00 0.00000000E+00-4.42218409E-05
 2  3 0.00000000E+00 0.00000000E+00 6.79331797E-04 9.95637328E-04 1.41778856E-03
 2  4 1.94537429E-03 0.00000000E+00 0.00000000E+00 0.00000000E+00 4.17847840E-03
 2  5 5.01000645E-03 4.44933207E-03 0.00000000E+00 0.00000000E+00 0.00000000E+00
 2  6 2.66004297E-04 1.41694596E-03 1.44586828E-04-1.73101739E-03 0.00000000E+00
 2  7 0.00000000E+00-3.97019050E-04 0.00000000E+00 0.00000000E+00-5.47428320E-04
 2  8 0.00000000E+00 0.00000000E+00 1.02888843E-03-2.03596344E-04-1.82069691E-04
 2  9-6.34354281E-05 0.00000000E+00 0.00000000E+00 0.00000000E+00 7.67253280E-05
 2 10-1.94342805E-04-1.80788751E-04 0.00000000E+00 0.00000000E+00 0.00000000E+00
 2 11 5.56935113E-04-1.23098058E-03 8.28197523E-04 0.00000000E+00 8.03553170E-05
 2 12 9.36188127E-05 0.00000000E+00-3.27761981E-04-4.03008001E-04 5.56935113E-04
 2 13-1.23098058E-03 8.28197523E-04 0.00000000E+00-8.03553170E-05 9.36188127E-05
 2 14 0.00000000E+00 3.27761981E-04-4.03008001E-04
 3  1-3.40476214E-02 2.04265393E-01 5.20422095E-02 5.33643977E-02 0.00000000E+00
 3  2 0.00000000E+00 1.03712048E-01 0.00000000E+00 0.00000000E+00 8.44058887E-02
 3  3 0.00000000E+00 0.00000000E+00 4.92684082E-03-5.72682412E-03-3.44382497E-03
 3  4 2.74810186E-02 0.00000000E+00 0.00000000E+00 0.00000000E+00-8.35262049E-03
 3  5-9.45296532E-03-2.26017341E-04 0.00000000E+00 0.00000000E+00 0.00000000E+00
 3  6-7.18026292E-03 4.71299759E-01 1.24349833E-01 2.32256705E-01 0.00000000E+00
 3  7 0.00000000E+00-7.77320207E-02 0.00000000E+00 0.00000000E+00-1.05354816E-01
 3  8 0.00000000E+00 0.00000000E+00-1.37970486E-02-3.81921957E-03-3.27417186E-03
 3  9 1.06836998E-02 0.00000000E+00 0.00000000E+00 0.00000000E+00-4.30988527E-03
 3 10-5.43267661E-03 1.86462272E-02 0.00000000E+00 0.00000000E+00 0.00000000E+00
 3 11 1.64338317E-02 1.32873541E-02-2.48674368E-03 0.00000000E+00 1.66626449E-03
 3 12 2.15886189E-03 0.00000000E+00-9.62278151E-04-2.17757596E-03 1.64338317E-02
 3 13 1.32873541E-02-2.48674368E-03 0.00000000E+00-1.66626449E-03 2.15886189E-03
 3 14 0.00000000E+00 9.62278151E-04-2.17757596E-03
 4  1-1.66546015E-02 3.74339810E-01 9.53470859E-02 1.34407598E-01 0.00000000E+00
 4  2 0.00000000E+00-9.86438146E-02 0.00000000E+00 0.00000000E+00-1.21746880E-01
 4  3 0.00000000E+00 0.00000000E+00-4.96710421E-02-3.92387874E-03 1.87614663E-02
 4  4 4.84620410E-03 0.00000000E+00 0.00000000E+00 0.00000000E+00 2.06076110E-03
 4  5 1.48004327E-02-6.45553880E-04 0.00000000E+00 0.00000000E+00 0.00000000E+00
 4  6 1.31886689E-03-2.15052556E-01-6.14319281E-02-1.85826175E-01 0.00000000E+00
 4  7 0.00000000E+00-8.43951206E-02 0.00000000E+00 0.00000000E+00-1.01937662E-01
 4  8 0.00000000E+00 0.00000000E+00-5.49495716E-02-2.47980572E-03-2.41829825E-03
 4  9 2.21912746E-03 0.00000000E+00 0.00000000E+00 0.00000000E+00-6.76906185E-04
 4 10-5.64489272E-03 4.03684821E-03 0.00000000E+00 0.00000000E+00 0.00000000E+00
 4 11 1.07951482E-01 1.42650040E-01 2.10264691E-02 0.00000000E+00 1.16486122E-02
 4 12 5.51192632E-03 0.00000000E+00 7.87081745E-03 2.52638747E-03 1.07951482E-01
 4 13 1.42650040E-01 2.10264691E-02 0.00000000E+00-1.16486122E-02 5.51192632E-03
 4 14 0.00000000E+00-7.87081745E-03 2.52638747E-03
 5  1 0.00000000E+00 0.00000000E+00 0.00000000E+00 0.00000000E+00 0.00000000E+00
 5  2 2.22634559E-01 0.00000000E+00 0.00000000E+00 2.93228685E-01 0.00000000E+00
 5  3 0.00000000E+00 8.72983042E-02 0.00000000E+00 0.00000000E+00 0.00000000E+00
 5  4 0.00000000E+00 0.00000000E+00 0.00000000E+00-3.27498237E-03 0.00000000E+00
 5  5 0.00000000E+00 0.00000000E+00 0.00000000E+00 0.00000000E+00-1.32001720E-02
 5  6 0.00000000E+00 0.00000000E+00 0.00000000E+00 0.00000000E+00 0.00000000E+00
 5  7 1.88899080E-01 0.00000000E+00 0.00000000E+00 2.44062166E-01 0.00000000E+00
 5  8 0.00000000E+00 1.40502842E-01 0.00000000E+00 0.00000000E+00 0.00000000E+00
 5  9 0.00000000E+00 0.00000000E+00 0.00000000E+00-7.76544452E-03 0.00000000E+00
 5 10 0.00000000E+00 0.00000000E+00 0.00000000E+00 0.00000000E+00-2.10003377E-02
 5 11-1.09553401E-01-1.43541502E-01-4.73784280E-02 0.00000000E+00-8.67577108E-03
 5 12-7.70931496E-03 0.00000000E+00 6.63351128E-04 1.99538597E-03 1.09553401E-01
 5 13 1.43541502E-01 4.73784280E-02 0.00000000E+00-8.67577108E-03 7.70931496E-03
 5 14 0.00000000E+00 6.63351128E-04-1.99538597E-03
 6  1 1.26127692E-02-2.53728002E-02-2.30150560E-02 1.00218168E-01 0.00000000E+00
 6  2 0.00000000E+00-2.09698513E-01 0.00000000E+00 0.00000000E+00-2.24451361E-01
 6  3 0.00000000E+00 0.00000000E+00-1.98781806E-02-1.69781116E-03 1.00172139E-02
 6  4-2.46456501E-02 0.00000000E+00 0.00000000E+00 0.00000000E+00-1.29102104E-02
 6  5-3.27470872E-03-2.35179718E-03 0.00000000E+00 0.00000000E+00 0.00000000E+00
 6  6 1.91498886E-03 1.73804895E-01 5.06650182E-02 2.15761754E-01 0.00000000E+00
 6  7 0.00000000E+00 2.88155132E-01 0.00000000E+00 0.00000000E+00 3.56981825E-01
 6  8 0.00000000E+00 0.00000000E+00 2.15275063E-01 5.69158278E-03 6.49378019E-03
 6  9-1.28765156E-02 0.00000000E+00 0.00000000E+00 0.00000000E+00 1.04654204E-02
 6 10 1.23142826E-02-2.94872058E-02 0.00000000E+00 0.00000000E+00 0.00000000E+00
 6 11 5.79005109E-02 8.53343678E-02 3.08678994E-02 0.00000000E+00 5.65791886E-03
 6 12 1.21793089E-03 0.00000000E+00 7.41643935E-03-1.02998674E-03 5.79005109E-02
 6 13 8.53343678E-02 3.08678994E-02 0.00000000E+00-5.65791886E-03 1.21793089E-03
 6 14 0.00000000E+00-7.41643935E-03-1.02998674E-03
 7  1 0.00000000E+00 0.00000000E+00 0.00000000E+00 0.00000000E+00 1.77542430E-01
 7  2 0.00000000E+00 0.00000000E+00 2.40238292E-01 0.00000000E+00 0.00000000E+00
 7  3 1.37075625E-01 0.00000000E+00 0.00000000E+00 0.00000000E+00 0.00000000E+00
 7  4 0.00000000E+00 0.00000000E+00 2.29398812E-02 0.00000000E+00 0.00000000E+00
 7  5 0.00000000E+00 0.00000000E+00 0.00000000E+00 3.25899926E-02 0.00000000E+00
 7  6 0.00000000E+00 0.00000000E+00 0.00000000E+00 0.00000000E+00 2.72456594E-01
 7  7 0.00000000E+00 0.00000000E+00 3.58894227E-01 0.00000000E+00 0.00000000E+00
 7  8 2.54826179E-01 0.00000000E+00 0.00000000E+00 0.00000000E+00 0.00000000E+00
 7  9 0.00000000E+00 0.00000000E+00-9.99379339E-03 0.00000000E+00 0.00000000E+00
 7 10 0.00000000E+00 0.00000000E+00 0.00000000E+00-3.81499092E-02 0.00000000E+00
 7 11 0.00000000E+00 0.00000000E+00 0.00000000E+00 3.82221196E-03 0.00000000E+00
 7 12 0.00000000E+00 5.82275548E-03 0.00000000E+00 0.00000000E+00 0.00000000E+00
 7 13 0.00000000E+00 0.00000000E+00 3.82221196E-03 0.00000000E+00 0.00000000E+00
 7 14 5.82275548E-03 0.00000000E+00 0.00000000E+00
 8  1 0.00000000E+00 0.00000000E+00 0.00000000E+00 0.00000000E+00 0.00000000E+00
 8  2-1.05460782E-01 0.00000000E+00 0.00000000E+00-1.29283894E-01 0.00000000E+00
 8  3 0.00000000E+00-8.95638375E-03 0.00000000E+00 0.00000000E+00 0.00000000E+00
 8  4 0.00000000E+00 0.00000000E+00 0.00000000E+00 3.74454576E-02 0.00000000E+00
 8  5 0.00000000E+00 0.00000000E+00 0.00000000E+00 0.00000000E+00 3.58828378E-02
 8  6 0.00000000E+00 0.00000000E+00 0.00000000E+00 0.00000000E+00 0.00000000E+00
 8  7 3.07203112E-01 0.00000000E+00 0.00000000E+00 3.92583141E-01 0.00000000E+00
 8  8 0.00000000E+00 3.31797016E-01 0.00000000E+00 0.00000000E+00 0.00000000E+00
 8  9 0.00000000E+00 0.00000000E+00 0.00000000E+00-2.86871026E-03 0.00000000E+00
 8 10 0.00000000E+00 0.00000000E+00 0.00000000E+00 0.00000000E+00-1.85300643E-02
 8 11 1.04475837E-01 2.14862223E-01 1.43617278E-01 0.00000000E+00 5.24730209E-03
 8 12 4.19943578E-03 0.00000000E+00 1.21958682E-02 8.76971922E-03-1.04475837E-01
 8 13-2.14862223E-01-1.43617278E-01 0.00000000E+00 5.24730209E-03-4.19943578E-03
 8 14 0.00000000E+00 1.21958682E-02-8.76971922E-03
 9  1 0.00000000E+00 0.00000000E+00 0.00000000E+00 0.00000000E+00 2.07943407E-01
 9  2 0.00000000E+00 0.00000000E+00 2.65480549E-01 0.00000000E+00 0.00000000E+00
 9  3 7.31797253E-01 0.00000000E+00 0.00000000E+00 0.00000000E+00 0.00000000E+00
 9  4 0.00000000E+00 0.00000000E+00-1.79207228E-02 0.00000000E+00 0.00000000E+00
 9  5 0.00000000E+00 0.00000000E+00 0.00000000E+00-3.64900839E-02 0.00000000E+00
 9  6 0.00000000E+00 0.00000000E+00 0.00000000E+00 0.00000000E+00-2.12059500E-01
 9  7 0.00000000E+00 0.00000000E+00-2.38389645E-01 0.00000000E+00 0.00000000E+00
 9  8-5.07506722E-01 0.00000000E+00 0.00000000E+00 0.00000000E+00 0.00000000E+00
 9  9 0.00000000E+00 0.00000000E+00-4.49312151E-03 0.00000000E+00 0.00000000E+00
 9 10 0.00000000E+00 0.00000000E+00 0.00000000E+00 2.90519781E-03 0.00000000E+00
 9 11 0.00000000E+00 0.00000000E+00 0.00000000E+00 8.50558346E-03 0.00000000E+00
 9 12 0.00000000E+00 2.47475009E-02 0.00000000E+00 0.00000000E+00 0.00000000E+00
 9 13 0.00000000E+00 0.00000000E+00 8.50558346E-03 0.00000000E+00 0.00000000E+00
 9 14 2.47475009E-02 0.00000000E+00 0.00000000E+00
10  1 1.69827542E-03 2.00262443E-01-1.06343342E-01 3.33715406E+00 0.00000000E+00
10  2 0.00000000E+00-8.64073504E-02 0.00000000E+00 0.00000000E+00-1.45557665E-01
10  3 0.00000000E+00 0.00000000E+00-7.05364050E-01-2.08293064E-02-3.41857472E-02
10  4-2.65410887E-02 0.00000000E+00 0.00000000E+00 0.00000000E+00-2.86635849E-01
10  5-1.55966852E-01-1.78395832E-01 0.00000000E+00 0.00000000E+00 0.00000000E+00
10  6 3.10890660E-03 8.78926483E-03-1.61417157E-03-5.63108042E-02 0.00000000E+00
10  7 0.00000000E+00 2.89380871E-02 0.00000000E+00 0.00000000E+00 4.98882380E-02
10  8 0.00000000E+00 0.00000000E+00 1.03044270E-01-1.20462552E-03-1.90220346E-03
10  9-8.14941854E-04 0.00000000E+00 0.00000000E+00 0.00000000E+00 2.69899143E-03
10 10-7.66078855E-03-1.73450286E-02 0.00000000E+00 0.00000000E+00 0.00000000E+00
10 11-1.69931311E-02-6.62274837E-02-1.84287921E+00 0.00000000E+00 1.96740297E-02
10 12 5.57551746E-03 0.00000000E+00-1.10639534E-01-4.41079371E-02-1.69931311E-02
10 13-6.62274837E-02-1.84287921E+00 0.00000000E+00-1.96740297E-02 5.57551746E-03
10 14 0.00000000E+00 1.10639534E-01-4.41079371E-02
11  1 0.00000000E+00 0.00000000E+00 0.00000000E+00 0.00000000E+00 0.00000000E+00
11  2 1.57517182E-01 0.00000000E+00 0.00000000E+00 2.58193340E-01 0.00000000E+00
11  3 0.00000000E+00 1.62556834E+00 0.00000000E+00 0.00000000E+00 0.00000000E+00
11  4 0.00000000E+00 0.00000000E+00 0.00000000E+00-2.45593347E-03 0.00000000E+00
11  5 0.00000000E+00 0.00000000E+00 0.00000000E+00 0.00000000E+00 4.63305285E-03
11  6 0.00000000E+00 0.00000000E+00 0.00000000E+00 0.00000000E+00 0.00000000E+00
11  7-4.62432433E-02 0.00000000E+00 0.00000000E+00-2.94483426E-02 0.00000000E+00
11  8 0.00000000E+00-3.34329942E-01 0.00000000E+00 0.00000000E+00 0.00000000E+00
11  9 0.00000000E+00 0.00000000E+00 0.00000000E+00-6.76867095E-03 0.00000000E+00
11 10 0.00000000E+00 0.00000000E+00 0.00000000E+00 0.00000000E+00 1.05700509E-02
11 11-3.94312128E-03-1.29886292E-01 2.39730162E+00 0.00000000E+00-1.88452650E-02
11 12-1.96452884E-02 0.00000000E+00 6.58439011E-02 8.21475333E-02 3.94312128E-03
11 13 1.29886292E-01-2.39730162E+00 0.00000000E+00-1.88452650E-02 1.96452884E-02
11 14 0.00000000E+00 6.58439011E-02-8.21475333E-02
12  1-3.39413763E-02-1.09438622E-01 1.02075898E-01-2.30070461E+00 0.00000000E+00
12  2 0.00000000E+00 1.22311593E-02 0.00000000E+00 0.00000000E+00-3.31929445E-01
12  3 0.00000000E+00 0.00000000E+00-2.13640940E+00 1.11905552E-02 5.09177760E-03
12  4 5.82045954E-02 0.00000000E+00 0.00000000E+00 0.00000000E+00 1.89776618E-01
12  5 3.11128779E-01-4.94134813E-02 0.00000000E+00 0.00000000E+00 0.00000000E+00
12  6-3.30762703E-02 1.01159510E-01-1.95460377E-01 3.43728759E+00 0.00000000E+00
12  7 0.00000000E+00-3.14003399E-02 0.00000000E+00 0.00000000E+00-1.02265161E-01
12  8 0.00000000E+00 0.00000000E+00-8.14659632E-01-3.18981024E-02-3.05353358E-02
12  9-3.46505471E-02 0.00000000E+00 0.00000000E+00 0.00000000E+00-3.43042772E-01
12 10-3.51477074E-01-2.38696981E-01 0.00000000E+00 0.00000000E+00 0.00000000E+00
12 11 1.04757222E-02-1.80385299E-01-7.78687585E-02 0.00000000E+00 6.01622972E-03
12 12-1.27222798E-02 0.00000000E+00-4.65416455E-02-3.53758434E-02 1.04757222E-02
12 13-1.80385299E-01-7.78687585E-02 0.00000000E+00-6.01622972E-03-1.27222798E-02
12 14 0.00000000E+00 4.65416455E-02-3.53758434E-02
13  1-1.23195813E-02-3.93699666E-02-9.14852135E-01 6.62408099E+00 0.00000000E+00
13  2 0.00000000E+00 1.67852022E-03 0.00000000E+00 0.00000000E+00 1.52620256E-01
13  3 0.00000000E+00 0.00000000E+00-1.25024252E+00-1.66989139E-01-2.03753315E-01
13  4-1.40574649E-01 0.00000000E+00 0.00000000E+00 0.00000000E+00-1.16128179E+00
13  5-1.14056586E+00-1.24508606E+00 0.00000000E+00 0.00000000E+00 0.00000000E+00
13  6 2.14309469E-02-2.98444449E-03 1.35964325E-02-2.99855088E-01 0.00000000E+00
13  7 0.00000000E+00-1.06159135E-02 0.00000000E+00 0.00000000E+00 1.40828198E-02
13  8 0.00000000E+00 0.00000000E+00 1.40799821E-01-3.89348139E-03-2.02229558E-03
13  9 4.19276006E-04 0.00000000E+00 0.00000000E+00 0.00000000E+00 8.67841586E-02
13 10 3.40106413E-02-7.22660202E-02 0.00000000E+00 0.00000000E+00 0.00000000E+00
13 11-4.82722751E-02-7.74679347E-01-1.22071144E+00 0.00000000E+00-1.82226490E-02
13 12-1.37575659E-02 0.00000000E+00 1.82469846E-02-6.74263828E-02-4.82722751E-02
13 13-7.74679347E-01-1.22071144E+00 0.00000000E+00 1.82226490E-02-1.37575659E-02
13 14 0.00000000E+00-1.82469846E-02-6.74263828E-02
14  1 0.00000000E+00 0.00000000E+00 0.00000000E+00 0.00000000E+00-2.49538073E-01
14  2 0.00000000E+00 0.00000000E+00-8.75125010E-01 0.00000000E+00 0.00000000E+00
14  3 1.24956780E+00 0.00000000E+00 0.00000000E+00 0.00000000E+00 0.00000000E+00
14  4 0.00000000E+00 0.00000000E+00-3.55166531E-03 0.00000000E+00 0.00000000E+00
14  5 0.00000000E+00 0.00000000E+00 0.00000000E+00-2.71617435E-02 0.00000000E+00
14  6 0.00000000E+00 0.00000000E+00 0.00000000E+00 0.00000000E+00 2.12222505E-02
14  7 0.00000000E+00 0.00000000E+00 3.26889189E-02 0.00000000E+00 0.00000000E+00
14  8-3.82202613E-02 0.00000000E+00 0.00000000E+00 0.00000000E+00 0.00000000E+00
14  9 0.00000000E+00 0.00000000E+00 7.32169870E-03 0.00000000E+00 0.00000000E+00
14 10 0.00000000E+00 0.00000000E+00 0.00000000E+00 2.81805851E-02 0.00000000E+00
14 11 0.00000000E+00 0.00000000E+00 0.00000000E+00 1.23442560E-02 0.00000000E+00
14 12 0.00000000E+00-1.06766737E-01 0.00000000E+00 0.00000000E+00 0.00000000E+00
14 13 0.00000000E+00 0.00000000E+00 1.23442560E-02 0.00000000E+00 0.00000000E+00
14 14-1.06766737E-01 0.00000000E+00 0.00000000E+00
15  1 0.00000000E+00 0.00000000E+00 0.00000000E+00 0.00000000E+00 0.00000000E+00
15  2-7.54992919E-02 0.00000000E+00 0.00000000E+00 2.74742785E-01 0.00000000E+00
15  3 0.00000000E+00 3.57825168E+00 0.00000000E+00 0.00000000E+00 0.00000000E+00
15  4 0.00000000E+00 0.00000000E+00 0.00000000E+00 2.87713494E-02 0.00000000E+00
15  5 0.00000000E+00 0.00000000E+00 0.00000000E+00 0.00000000E+00-6.84656967E-01
15  6 0.00000000E+00 0.00000000E+00 0.00000000E+00 0.00000000E+00 0.00000000E+00
15  7-1.32908303E-01 0.00000000E+00 0.00000000E+00-1.16375542E-01 0.00000000E+00
15  8 0.00000000E+00-3.58932778E-01 0.00000000E+00 0.00000000E+00 0.00000000E+00
15  9 0.00000000E+00 0.00000000E+00 0.00000000E+00 4.91472563E-03 0.00000000E+00
15 10 0.00000000E+00 0.00000000E+00 0.00000000E+00 0.00000000E+00-4.24686265E-02
15 11 3.51710088E-03 1.50135972E+00 1.77764600E+00 0.00000000E+00 7.30960169E-03
15 12-1.08772043E-03 0.00000000E+00 3.43077064E-01 1.15349080E-01-3.51710088E-03
15 13-1.50135972E+00-1.77764600E+00 0.00000000E+00 7.30960169E-03 1.08772043E-03
15 14 0.00000000E+00 3.43077064E-01-1.15349080E-01
16  1-3.64583616E-02-3.98468688E-01-8.90022489E-01 6.89983665E+00 0.00000000E+00
16  2 0.00000000E+00 1.30887916E-01 0.00000000E+00 0.00000000E+00 3.19680334E-02
16  3 0.00000000E+00 0.00000000E+00-1.20377754E+00-1.67820669E-01-1.43917179E-01
16  4-1.38263680E-01 0.00000000E+00 0.00000000E+00 0.00000000E+00-1.37711670E+00
16  5-6.83473599E-01-1.07217208E+00 0.00000000E+00 0.00000000E+00 0.00000000E+00
16  6 2.05653925E-02 8.20094573E-02 8.91676783E-02-3.68014457E-01 0.00000000E+00
16  7 0.00000000E+00-3.28913670E-02 0.00000000E+00 0.00000000E+00-7.06283486E-03
16  8 0.00000000E+00 0.00000000E+00-1.11564538E-01 5.97630058E-03 1.19892398E-02
16  9 5.95654395E-03 0.00000000E+00 0.00000000E+00 0.00000000E+00 1.21663649E-01
16 10 9.76873877E-02 3.83867377E-02 0.00000000E+00 0.00000000E+00 0.00000000E+00
16 11 1.00787518E-01 8.26458677E-02-2.19418978E+00 0.00000000E+00 1.37423098E-02
16 12-6.33591882E-04 0.00000000E+00-4.72878305E-01-2.00686690E-01 1.00787518E-01
16 13 8.26458677E-02-2.19418978E+00 0.00000000E+00-1.37423098E-02-6.33591882E-04
16 14 0.00000000E+00 4.72878305E-01-2.00686690E-01
17  1 0.00000000E+00 0.00000000E+00 0.00000000E+00 0.00000000E+00 0.00000000E+00
17  2-2.97420853E-01 0.00000000E+00 0.00000000E+00-2.42812430E-01 0.00000000E+00
17  3 0.00000000E+00 1.34380908E+00 0.00000000E+00 0.00000000E+00 0.00000000E+00
17  4 0.00000000E+00 0.00000000E+00 0.00000000E+00-1.86896941E-02 0.00000000E+00
17  5 0.00000000E+00 0.00000000E+00 0.00000000E+00 0.00000000E+00-4.82667538E-01
17  6 0.00000000E+00 0.00000000E+00 0.00000000E+00 0.00000000E+00 0.00000000E+00
17  7 6.60679372E-02 0.00000000E+00 0.00000000E+00 1.00541005E-01 0.00000000E+00
17  8 0.00000000E+00 2.38331031E-01 0.00000000E+00 0.00000000E+00 0.00000000E+00
17  9 0.00000000E+00 0.00000000E+00 0.00000000E+00 1.34090617E-02 0.00000000E+00
17 10 0.00000000E+00 0.00000000E+00 0.00000000E+00 0.00000000E+00 3.36792064E-02
17 11-8.53555581E-02-2.17485007E-01 1.68006317E+00 0.00000000E+00-1.31384232E-02
17 12-1.85159223E-02 0.00000000E+00 3.36918992E-01 3.65702814E-01 8.53555581E-02
17 13 2.17485007E-01-1.68006317E+00 0.00000000E+00-1.31384232E-02 1.85159223E-02
17 14 0.00000000E+00 3.36918992E-01-3.65702814E-01
18  1 1.54756310E-01 3.00720567E-01 3.31779975E-01-1.30958793E-01 0.00000000E+00
18  2 0.00000000E+00 8.68895941E-03 0.00000000E+00 0.00000000E+00 1.13360728E+00
18  3 0.00000000E+00 0.00000000E+00 5.26580181E-01 2.59092535E-02 1.06731873E-02
18  4 9.80679398E-02 0.00000000E+00 0.00000000E+00 0.00000000E+00 7.34108212E-02
18  5 4.44616067E-03 9.83632638E-01 0.00000000E+00 0.00000000E+00 0.00000000E+00
18  6 4.45985377E-02-8.85340261E-04-3.16439189E-01-6.69815668E-01 0.00000000E+00
18  7 0.00000000E+00-1.94827118E-01 0.00000000E+00 0.00000000E+00-2.18015312E-01
18  8 0.00000000E+00 0.00000000E+00 1.78709386E+00-7.55049414E-02-7.63036543E-02
18  9-2.77894965E-02 0.00000000E+00 0.00000000E+00 0.00000000E+00-3.44807633E-01
18 10-3.31806569E-01-6.08090544E-01 0.00000000E+00 0.00000000E+00 0.00000000E+00
18 11 1.37038383E-02 4.33677535E-01 3.35736468E-02 0.00000000E+00 3.08647455E-03
18 12 1.78369072E-02 0.00000000E+00 2.06696038E-01-4.27342964E-02 1.37038383E-02
18 13 4.33677535E-01 3.35736468E-02 0.00000000E+00-3.08647455E-03 1.78369072E-02
18 14 0.00000000E+00-2.06696038E-01-4.27342964E-02
19  1 0.00000000E+00 0.00000000E+00 0.00000000E+00 0.00000000E+00 0.00000000E+00
19  2 0.00000000E+00 0.00000000E+00 0.00000000E+00 0.00000000E+00 0.00000000E+00
19  3 0.00000000E+00 0.00000000E+00 0.00000000E+00 0.00000000E+00 0.00000000E+00
19  4 0.00000000E+00-4.09033519E-03 0.00000000E+00 0.00000000E+00 0.00000000E+00
19  5 0.00000000E+00 0.00000000E+00 5.16271941E-01 0.00000000E+00 0.00000000E+00
19  6 0.00000000E+00 0.00000000E+00 0.00000000E+00 0.00000000E+00 0.00000000E+00
19  7 0.00000000E+00 0.00000000E+00 0.00000000E+00 0.00000000E+00 0.00000000E+00
19  8 0.00000000E+00 0.00000000E+00 0.00000000E+00 0.00000000E+00 0.00000000E+00
19  9 0.00000000E+00 2.93092809E-03 0.00000000E+00 0.00000000E+00 0.00000000E+00
19 10 0.00000000E+00 0.00000000E+00 4.72687063E-02 0.00000000E+00 0.00000000E+00
19 11 0.00000000E+00 0.00000000E+00 0.00000000E+00 3.93412832E-02 0.00000000E+00
19 12 0.00000000E+00-4.26313531E-01 0.00000000E+00 0.00000000E+00 0.00000000E+00
19 13 0.00000000E+00 0.00000000E+00-3.93412832E-02 0.00000000E+00 0.00000000E+00
19 14 4.26313531E-01 0.00000000E+00 0.00000000E+00
20  1-7.30850398E-02-3.29515940E-01-5.00528691E-01 1.12296185E+00 0.00000000E+00
20  2 0.00000000E+00-2.60533473E-01 0.00000000E+00 0.00000000E+00-5.79738176E-01
20  3 0.00000000E+00 0.00000000E+00 1.40247263E+00-8.97967156E-02-8.60999788E-02
20  4-5.80679832E-02 0.00000000E+00 0.00000000E+00 0.00000000E+00-7.44157430E-01
20  5-8.44414003E-01-2.59689388E-02 0.00000000E+00 0.00000000E+00 0.00000000E+00
20  6 1.35937737E-02 2.01958326E-01 2.19085738E-01-1.36385968E+00 0.00000000E+00
20  7 0.00000000E+00-1.61660447E-01 0.00000000E+00 0.00000000E+00-8.96237429E-02
20  8 0.00000000E+00 0.00000000E+00-7.27938233E-01 3.60846435E-02 3.53304177E-02
20  9 5.07887139E-03 0.00000000E+00 0.00000000E+00 0.00000000E+00 2.44412135E-01
20 10 2.44543658E-01 1.64522781E-01 0.00000000E+00 0.00000000E+00 0.00000000E+00
20 11-5.86575168E-03 3.02042396E-01 1.80924246E-01 0.00000000E+00-1.66909980E-02
20 12 8.06929816E-03 0.00000000E+00 1.66768422E-01-1.37623334E-01-5.86575168E-03
20 13 3.02042396E-01 1.80924246E-01 0.00000000E+00 1.66909980E-02 8.06929816E-03
20 14 0.00000000E+00-1.66768422E-01-1.37623334E-01
21  1 0.00000000E+00 0.00000000E+00 0.00000000E+00 0.00000000E+00 8.54835804E-02
21  2 0.00000000E+00 0.00000000E+00 7.33223264E-02 0.00000000E+00 0.00000000E+00
21  3-5.87671434E-01 0.00000000E+00 0.00000000E+00 0.00000000E+00 0.00000000E+00
21  4 0.00000000E+00 0.00000000E+00-2.91123077E-04 0.00000000E+00 0.00000000E+00
21  5 0.00000000E+00 0.00000000E+00 0.00000000E+00-3.96885130E-01 0.00000000E+00
21  6 0.00000000E+00 0.00000000E+00 0.00000000E+00 0.00000000E+00-2.41631188E-01
21  7 0.00000000E+00 0.00000000E+00-7.63922898E-01 0.00000000E+00 0.00000000E+00
21  8 1.61713231E+00 0.00000000E+00 0.00000000E+00 0.00000000E+00 0.00000000E+00
21  9 0.00000000E+00 0.00000000E+00 1.91659755E-02 0.00000000E+00 0.00000000E+00
21 10 0.00000000E+00 0.00000000E+00 0.00000000E+00-3.55847256E-02 0.00000000E+00
21 11 0.00000000E+00 0.00000000E+00 0.00000000E+00 1.62273102E-02 0.00000000E+00
21 12 0.00000000E+00-1.82008374E-01 0.00000000E+00 0.00000000E+00 0.00000000E+00
21 13 0.00000000E+00 0.00000000E+00 1.62273102E-02 0.00000000E+00 0.00000000E+00
21 14-1.82008374E-01 0.00000000E+00 0.00000000E+00
22  1 0.00000000E+00 0.00000000E+00 0.00000000E+00 0.00000000E+00 0.00000000E+00
22  2 1.11999230E-01 0.00000000E+00 0.00000000E+00 5.45092284E-01 0.00000000E+00
22  3 0.00000000E+00-1.94230575E+00 0.00000000E+00 0.00000000E+00 0.00000000E+00
22  4 0.00000000E+00 0.00000000E+00 0.00000000E+00 1.38894240E-02 0.00000000E+00
22  5 0.00000000E+00 0.00000000E+00 0.00000000E+00 0.00000000E+00-1.03132521E+00
22  6 0.00000000E+00 0.00000000E+00 0.00000000E+00 0.00000000E+00 0.00000000E+00
22  7-1.71182431E-01 0.00000000E+00 0.00000000E+00-5.57780326E-01 0.00000000E+00
22  8 0.00000000E+00 2.00849846E+00 0.00000000E+00 0.00000000E+00 0.00000000E+00
22  9 0.00000000E+00 0.00000000E+00 0.00000000E+00 2.92126137E-02 0.00000000E+00
22 10 0.00000000E+00 0.00000000E+00 0.00000000E+00 0.00000000E+00-8.42886784E-02
22 11-1.25744568E-02 6.69950040E-01-1.22004635E+00 0.00000000E+00 1.58740219E-02
22 12 7.01099486E-03 0.00000000E+00 9.08590399E-02 2.92891594E-03 1.25744568E-02