!     HF, 215 AOs and 167 MOs...only 6 total occupied in the CI
!     This run adds up the CI energy components from integrals/density.
!     Should work for GUGA, ALDET, and ORMAS runs.  GUGA results shown.
!
!     energies from MO basis integrals
!        one-electron:          -150.469404359
!        two-electron:            45.227718523
!        Vnn+constant:             5.148751614
!        Total energy:          -100.092934221
!
!     this run takes 43 seconds on 2.66 GHz Cloverton (17 Jun 2014)
!          answers unchanged since 2011.
!
 $contrl scftyp=none cityp=guga ispher=1 $end
 $system mwords=32 $end
 $basis  basnam(1)=haaccq,faaccq $end
 $GUESS  GUESS=MOREAD NORB=167 PRTMO=.F. PURIFY=.T. $END
 $trans  dirtrf=.t. $end

 $ciinp  nrnfg(8)=1 npflg(8)=1 nrnfg(5)=1 nrnfg(6)=1 $end

 $cidet  group=c2v stsym=a1 ncore=1 nact=5 nels=8 nstate=2 sz=0 $end

 $cidrt  group=c2v stsym=a1 fors=.true. nfzc=1 ndoc=4 nval=1 $end
 $gugdia nstate=2 $end

 $data
HF experimental bond distance
Cnv 2

H 1
F 9 0 0 0.925
 $end
!
!   basis sets are aug-cc-pVQZ plus one more diffuse augmentation
!   set intended to cover molecular polarizabilities very well.
 $haaccq
S   3
  1     82.6400000              0.0020060        
  2     12.4100000              0.0153430        
  3      2.8240000              0.0755790        
S   1
  1      0.7977000              1.0000000        
S   1
  1      0.2581000              1.0000000        
S   1
  1      0.0898900              1.0000000        
S   1
  1      0.0236300              1.0000000        
P   1
  1      2.2920000              1.0000000        
P   1
  1      0.8380000              1.0000000        
P   1
  1      0.2920000              1.0000000        
P   1
  1      0.0848000              1.0000000        
D   1
  1      2.0620000              1.0000000        
D   1
  1      0.6620000              1.0000000        
D   1
  1      0.1900000              1.0000000        
F   1
  1      1.3970000              1.0000000        
F   1
  1      0.3600000              1.0000000        
s 1 ; 1 0.006212 1.0
p 1 ; 1 0.024627 1.0
d 1 ; 1 0.054532 1.0
f 1 ; 1 0.092770 1.0

 $end
 $faaccq
S   9
  1  74530.0000000              0.0000950        
  2  11170.0000000              0.0007380        
  3   2543.0000000              0.0038580        
  4    721.0000000              0.0159260        
  5    235.9000000              0.0542890        
  6     85.6000000              0.1495130        
  7     33.5500000              0.3082520        
  8     13.9300000              0.3948530        
  9      5.9150000              0.2110310        
S   9
  1  74530.0000000             -0.0000220        
  2  11170.0000000             -0.0001720        
  3   2543.0000000             -0.0008910        
  4    721.0000000             -0.0037480        
  5    235.9000000             -0.0128620        
  6     85.6000000             -0.0380610        
  7     33.5500000             -0.0862390        
  8     13.9300000             -0.1558650        
  9      5.9150000             -0.1109140        
S   1
  1      1.8430000              1.0000000        
S   1
  1      0.7124000              1.0000000        
S   1
  1      0.2637000              1.0000000        
S   1
  1      0.0859400              1.0000000        
P   3
  1     80.3900000              0.0063470        
  2     18.6300000              0.0442040        
  3      5.6940000              0.1685140        
P   1
  1      1.9530000              1.0000000        
P   1
  1      0.6702000              1.0000000        
P   1
  1      0.2166000              1.0000000        
P   1
  1      0.0656800              1.0000000        
D   1
  1      5.0140000              1.0000000        
D   1
  1      1.7250000              1.0000000        
D   1
  1      0.5860000              1.0000000        
D   1
  1      0.2070000              1.0000000        
F   1
  1      3.5620000              1.0000000        
F   1
  1      1.1480000              1.0000000        
F   1
  1      0.4600000              1.0000000        
G   1
  1      2.3760000              1.0000000        
G   1
  1      0.9240000              1.0000000        
s 1 ; 1 0.028 1.0
p 1 ; 1 0.020 1.0
d 1 ; 1 0.073 1.0
f 1 ; 1 0.18  1.0
g 1 ; 1 0.36  1.0

 $end

--- OPTIMIZED MCSCF MO-S --- GENERATED AT Fri Jan 21 14:44:13 2011
 HF experimental                                                                
E(MCSCF)=     -100.0929342215, E(NUC)=        5.1487516142
 $VEC   
 1  1-6.32368505E-04-8.60684350E-04 1.83064854E-04 6.59949337E-04-7.98168037E-04
 1  2 0.00000000E+00 0.00000000E+00-2.96276915E-04 0.00000000E+00 0.00000000E+00
 1  3-2.58983256E-04 0.00000000E+00 0.00000000E+00 6.16017660E-04 0.00000000E+00
 1  4 0.00000000E+00 1.55173509E-03 4.75572645E-05 4.75572645E-05-9.51145291E-05
 1  5 0.00000000E+00 0.00000000E+00 0.00000000E+00-1.55646157E-04-1.55646157E-04
 1  6 3.11292314E-04 0.00000000E+00 0.00000000E+00 0.00000000E+00-3.09839466E-04
 1  7-3.09839466E-04 6.19678932E-04 0.00000000E+00 0.00000000E+00 0.00000000E+00
 1  8 0.00000000E+00 0.00000000E+00 1.18265793E-05 0.00000000E+00-7.93351058E-06
 1  9 0.00000000E+00-7.93351058E-06 0.00000000E+00 0.00000000E+00 0.00000000E+00
 1 10 0.00000000E+00 0.00000000E+00 1.87159093E-04 0.00000000E+00-1.25550136E-04
 1 11 0.00000000E+00-1.25550136E-04 0.00000000E+00 0.00000000E+00 0.00000000E+00
 1 12 3.05421342E-05 0.00000000E+00 0.00000000E+00 1.11923693E-04-1.58744778E-04
 1 13-1.58744778E-04 3.17489555E-04 0.00000000E+00 0.00000000E+00 0.00000000E+00
 1 14 0.00000000E+00 0.00000000E+00 4.35248440E-05 0.00000000E+00-2.91973530E-05
 1 15 0.00000000E+00-2.91973530E-05 0.00000000E+00 0.00000000E+00 0.00000000E+00
 1 16 9.89130863E-01-2.73693619E-02-4.88768798E-03-4.91353288E-02-2.06452579E-02
 1 17-9.83099967E-04 0.00000000E+00 0.00000000E+00-4.65133878E-03 0.00000000E+00
 1 18 0.00000000E+00-5.80181407E-03 0.00000000E+00 0.00000000E+00-7.07976294E-03
 1 19 0.00000000E+00 0.00000000E+00-6.29990591E-03 0.00000000E+00 0.00000000E+00
 1 20-1.70652927E-03-6.02903790E-05-6.02903790E-05 1.20580758E-04 0.00000000E+00
 1 21 0.00000000E+00 0.00000000E+00 1.43375794E-04 1.43375794E-04-2.86751587E-04
 1 22 0.00000000E+00 0.00000000E+00 0.00000000E+00-1.22477182E-04-1.22477182E-04
 1 23 2.44954364E-04 0.00000000E+00 0.00000000E+00 0.00000000E+00-5.92809584E-04
 1 24-5.92809584E-04 1.18561917E-03 0.00000000E+00 0.00000000E+00 0.00000000E+00
 1 25 0.00000000E+00 0.00000000E+00-2.47998590E-05 0.00000000E+00 1.66362512E-05
 1 26 0.00000000E+00 1.66362512E-05 0.00000000E+00 0.00000000E+00 0.00000000E+00
 1 27 0.00000000E+00 0.00000000E+00 4.71490184E-05 0.00000000E+00-3.16285231E-05
 1 28 0.00000000E+00-3.16285231E-05 0.00000000E+00 0.00000000E+00 0.00000000E+00
 1 29 0.00000000E+00 0.00000000E+00-1.85413949E-04 0.00000000E+00 1.24379458E-04
 1 30 0.00000000E+00 1.24379458E-04 0.00000000E+00 0.00000000E+00 0.00000000E+00
 1 31 2.60431376E-06 2.60431376E-06 6.94479537E-06 0.00000000E+00 0.00000000E+00
 1 32 0.00000000E+00 0.00000000E+00 0.00000000E+00 0.00000000E+00 1.52489371E-06
 1 33-6.09968368E-06-6.09968368E-06 0.00000000E+00 0.00000000E+00 0.00000000E+00
 1 34-4.08174036E-06-4.08174035E-06-1.08846146E-05 0.00000000E+00 0.00000000E+00
 1 35 0.00000000E+00 0.00000000E+00 0.00000000E+00 0.00000000E+00-2.38999932E-06
 1 36 9.56006660E-06 9.56006660E-06 0.00000000E+00 0.00000000E+00 0.00000000E+00
 1 37 1.20494548E-03 0.00000000E+00 0.00000000E+00-1.80413310E-04-1.83422974E-04
 1 38-1.83422974E-04 3.66845948E-04 0.00000000E+00 0.00000000E+00 0.00000000E+00
 1 39 0.00000000E+00 0.00000000E+00-2.06303635E-04 0.00000000E+00 1.38392685E-04
 1 40 0.00000000E+00 1.38392685E-04 0.00000000E+00 0.00000000E+00 0.00000000E+00
 1 41 2.51886651E-05 2.51886651E-05 6.71697741E-05 0.00000000E+00 0.00000000E+00
 1 42 0.00000000E+00 0.00000000E+00 0.00000000E+00 0.00000000E+00 1.47489725E-05
 1 43-5.89958887E-05-5.89958887E-05 0.00000000E+00 0.00000000E+00 0.00000000E+00
 2  1 3.28343285E-02 6.98237688E-02-3.84723949E-02-1.54372445E-02-3.64835869E-03
 2  2 0.00000000E+00 0.00000000E+00 6.93608257E-03 0.00000000E+00 0.00000000E+00
 2  3 8.35124453E-03 0.00000000E+00 0.00000000E+00-7.19044043E-03 0.00000000E+00
 2  4 0.00000000E+00 8.64428452E-03-1.29016501E-03-1.29016501E-03 2.58033003E-03
 2  5 0.00000000E+00 0.00000000E+00 0.00000000E+00-5.41383895E-04-5.41383896E-04
 2  6 1.08276779E-03 0.00000000E+00 0.00000000E+00 0.00000000E+00-1.45402791E-03
 2  7-1.45402792E-03 2.90805583E-03 0.00000000E+00 0.00000000E+00 0.00000000E+00
 2  8 0.00000000E+00 0.00000000E+00 1.11149301E-03 0.00000000E+00-7.45612179E-04
 2  9 0.00000000E+00-7.45612179E-04 0.00000000E+00 0.00000000E+00 0.00000000E+00
 2 10 0.00000000E+00 0.00000000E+00 2.02268810E-04 0.00000000E+00-1.35686042E-04
 2 11 0.00000000E+00-1.35686043E-04 0.00000000E+00 0.00000000E+00 0.00000000E+00
 2 12 1.90672965E-04 0.00000000E+00 0.00000000E+00 7.71777937E-04-9.47817334E-04
 2 13-9.47817335E-04 1.89563467E-03 0.00000000E+00 0.00000000E+00 0.00000000E+00
 2 14 0.00000000E+00 0.00000000E+00 4.17315999E-05 0.00000000E+00-2.79944079E-05
 2 15 0.00000000E+00-2.79944086E-05 0.00000000E+00 0.00000000E+00 0.00000000E+00
 2 16 7.24728155E-02 3.40825863E-01 2.79974820E-01 5.33772892E-01 2.94856228E-01
 2 17 2.91424739E-02 0.00000000E+00 0.00000000E+00-1.76758625E-02 0.00000000E+00
 2 18 0.00000000E+00-3.29458472E-02 0.00000000E+00 0.00000000E+00-4.40146865E-02
 2 19 0.00000000E+00 0.00000000E+00-5.34776633E-02 0.00000000E+00 0.00000000E+00
 2 20-1.34469071E-02-3.70613150E-04-3.70613150E-04 7.41226300E-04 0.00000000E+00
 2 21 0.00000000E+00 0.00000000E+00-2.36223545E-03-2.36223545E-03 4.72447089E-03
 2 22 0.00000000E+00 0.00000000E+00 0.00000000E+00-5.08162184E-03-5.08162184E-03
 2 23 1.01632437E-02 0.00000000E+00 0.00000000E+00 0.00000000E+00-8.37829380E-03
 2 24-8.37829380E-03 1.67565876E-02 0.00000000E+00 0.00000000E+00 0.00000000E+00
 2 25 0.00000000E+00 0.00000000E+00-5.72721783E-04 0.00000000E+00 3.84193452E-04
 2 26 0.00000000E+00 3.84193452E-04 0.00000000E+00 0.00000000E+00 0.00000000E+00
 2 27 0.00000000E+00 0.00000000E+00-2.27701738E-03 0.00000000E+00 1.52746969E-03
 2 28 0.00000000E+00 1.52746969E-03 0.00000000E+00 0.00000000E+00 0.00000000E+00
 2 29 0.00000000E+00 0.00000000E+00-2.45547738E-03 0.00000000E+00 1.64718430E-03
 2 30 0.00000000E+00 1.64718430E-03 0.00000000E+00 0.00000000E+00 0.00000000E+00
 2 31 7.19489600E-05 7.19489600E-05 1.91863889E-04 0.00000000E+00 0.00000000E+00
 2 32 0.00000000E+00 0.00000000E+00 0.00000000E+00 0.00000000E+00 4.21289937E-05
 2 33-1.68515985E-04-1.68515985E-04 0.00000000E+00 0.00000000E+00 0.00000000E+00
 2 34 2.60244625E-04 2.60244625E-04 6.93985672E-04 0.00000000E+00 0.00000000E+00
 2 35 0.00000000E+00 0.00000000E+00 0.00000000E+00 0.00000000E+00 1.52383653E-04
 2 36-6.09534601E-04-6.09534601E-04 0.00000000E+00 0.00000000E+00 0.00000000E+00
 2 37 5.38970880E-03 0.00000000E+00 0.00000000E+00-8.09645529E-04-1.65679263E-03
 2 38-1.65679263E-03 3.31358525E-03 0.00000000E+00 0.00000000E+00 0.00000000E+00
 2 39 0.00000000E+00 0.00000000E+00-3.73082372E-03 0.00000000E+00 2.50271264E-03
 2 40 0.00000000E+00 2.50271264E-03 0.00000000E+00 0.00000000E+00 0.00000000E+00
 2 41 3.90817821E-05 3.90817819E-05 1.04218084E-04 0.00000000E+00 0.00000000E+00
 2 42 0.00000000E+00 0.00000000E+00 0.00000000E+00 0.00000000E+00 2.28839476E-05
 2 43-9.15357928E-05-9.15357924E-05 0.00000000E+00 0.00000000E+00 0.00000000E+00
 3  1-6.01034285E-02-1.44396655E-01-1.84922397E-01-2.75404380E-02 2.42190471E-02
 3  2 0.00000000E+00 0.00000000E+00-7.79486772E-03 0.00000000E+00 0.00000000E+00
 3  3-9.27353968E-03 0.00000000E+00 0.00000000E+00-4.85597032E-02 0.00000000E+00
 3  4 0.00000000E+00-3.16734560E-02 1.66147790E-03 1.66147790E-03-3.32295581E-03
 3  5 0.00000000E+00 0.00000000E+00 0.00000000E+00 3.20494323E-03 3.20494323E-03
 3  6-6.40988645E-03 0.00000000E+00 0.00000000E+00 0.00000000E+00 8.34902872E-03
 3  7 8.34902871E-03-1.66980574E-02 0.00000000E+00 0.00000000E+00 0.00000000E+00
 3  8 0.00000000E+00 0.00000000E+00-2.02773310E-03 0.00000000E+00 1.36024472E-03
 3  9 0.00000000E+00 1.36024472E-03 0.00000000E+00 0.00000000E+00 0.00000000E+00
 3 10 0.00000000E+00 0.00000000E+00-7.95675055E-04 0.00000000E+00 5.33755054E-04
 3 11 0.00000000E+00 5.33755052E-04 0.00000000E+00 0.00000000E+00 0.00000000E+00
 3 12-1.03041483E-03 0.00000000E+00 0.00000000E+00-1.70927589E-03 3.66711207E-03
 3 13 3.66711207E-03-7.33422413E-03 0.00000000E+00 0.00000000E+00 0.00000000E+00
 3 14 0.00000000E+00 0.00000000E+00-2.88974539E-03 0.00000000E+00 1.93850014E-03
 3 15 0.00000000E+00 1.93850014E-03 0.00000000E+00 0.00000000E+00 0.00000000E+00
 3 16 3.06330499E-02 8.18726765E-02 6.85164111E-02 1.58219117E-01 2.00503121E-01
 3 17 2.50006726E-02 0.00000000E+00 0.00000000E+00 1.67004258E-01 0.00000000E+00
 3 18 0.00000000E+00 2.98534112E-01 0.00000000E+00 0.00000000E+00 3.46671040E-01
 3 19 0.00000000E+00 0.00000000E+00 1.75153975E-01 0.00000000E+00 0.00000000E+00
 3 20 3.81617008E-02 1.67807429E-03 1.67807429E-03-3.35614859E-03 0.00000000E+00
 3 21 0.00000000E+00 0.00000000E+00 5.54260300E-03 5.54260300E-03-1.10852060E-02
 3 22 0.00000000E+00 0.00000000E+00 0.00000000E+00 1.10023909E-02 1.10023909E-02
 3 23-2.20047817E-02 0.00000000E+00 0.00000000E+00 0.00000000E+00 9.62943093E-03
 3 24 9.62943094E-03-1.92588619E-02 0.00000000E+00 0.00000000E+00 0.00000000E+00
 3 25 0.00000000E+00 0.00000000E+00 1.72098018E-03 0.00000000E+00-1.15446860E-03
 3 26 0.00000000E+00-1.15446860E-03 0.00000000E+00 0.00000000E+00 0.00000000E+00
 3 27 0.00000000E+00 0.00000000E+00 3.79379999E-03 0.00000000E+00-2.54495840E-03
 3 28 0.00000000E+00-2.54495840E-03 0.00000000E+00 0.00000000E+00 0.00000000E+00
 3 29 0.00000000E+00 0.00000000E+00 7.35463661E-03 0.00000000E+00-4.93364023E-03
 3 30 0.00000000E+00-4.93364023E-03 0.00000000E+00 0.00000000E+00 0.00000000E+00
 3 31-7.65625024E-05-7.65625024E-05-2.04166663E-04 0.00000000E+00 0.00000000E+00
 3 32 0.00000000E+00 0.00000000E+00 0.00000000E+00 0.00000000E+00-4.48304020E-05
 3 33 1.79321635E-04 1.79321635E-04 0.00000000E+00 0.00000000E+00 0.00000000E+00
 3 34-4.97954948E-04-4.97954948E-04-1.32787988E-03 0.00000000E+00 0.00000000E+00
 3 35 0.00000000E+00 0.00000000E+00 0.00000000E+00 0.00000000E+00-2.91572575E-04
 3 36 1.16629026E-03 1.16629026E-03 0.00000000E+00 0.00000000E+00 0.00000000E+00
 3 37-3.34378077E-02 0.00000000E+00 0.00000000E+00 4.52438248E-03 3.10040844E-03
 3 38 3.10040844E-03-6.20081687E-03 0.00000000E+00 0.00000000E+00 0.00000000E+00
 3 39 0.00000000E+00 0.00000000E+00 3.47411742E-03 0.00000000E+00-2.33050881E-03
 3 40 0.00000000E+00-2.33050881E-03 0.00000000E+00 0.00000000E+00 0.00000000E+00
 3 41-6.09916630E-04-6.09916631E-04-1.62644432E-03 0.00000000E+00 0.00000000E+00
 3 42 0.00000000E+00 0.00000000E+00 0.00000000E+00 0.00000000E+00-3.57130582E-04
 3 43 1.42852241E-03 1.42852241E-03 0.00000000E+00 0.00000000E+00 0.00000000E+00
 4  1 0.00000000E+00 0.00000000E+00 0.00000000E+00 0.00000000E+00 0.00000000E+00
 4  2 0.00000000E+00 3.84133455E-03 0.00000000E+00 0.00000000E+00 1.45872305E-02
 4  3 0.00000000E+00 0.00000000E+00 1.28063032E-03 0.00000000E+00 0.00000000E+00
 4  4-4.11157317E-02 0.00000000E+00 0.00000000E+00 0.00000000E+00 0.00000000E+00
 4  5 0.00000000E+00 0.00000000E+00 2.33359978E-03 0.00000000E+00 0.00000000E+00
 4  6 0.00000000E+00 0.00000000E+00 0.00000000E+00 4.74145319E-03 0.00000000E+00
 4  7 0.00000000E+00 0.00000000E+00 0.00000000E+00 0.00000000E+00-3.94878692E-03
 4  8 0.00000000E+00-8.69107821E-04 0.00000000E+00-3.88676820E-04 0.00000000E+00
 4  9 0.00000000E+00 0.00000000E+00 0.00000000E+00 1.55470732E-03 0.00000000E+00
 4 10 0.00000000E+00-4.84742358E-04 0.00000000E+00-2.16783383E-04 0.00000000E+00
 4 11 0.00000000E+00 0.00000000E+00 0.00000000E+00 8.67133501E-04 0.00000000E+00
 4 12 0.00000000E+00 0.00000000E+00-1.22983323E-02 0.00000000E+00 0.00000000E+00
 4 13 0.00000000E+00 0.00000000E+00 0.00000000E+00 0.00000000E+00-9.44824293E-03
 4 14 0.00000000E+00 3.90528776E-04 0.00000000E+00 1.74649788E-04 0.00000000E+00
 4 15 0.00000000E+00 0.00000000E+00 0.00000000E+00-6.98599123E-04 0.00000000E+00
 4 16 0.00000000E+00 0.00000000E+00 0.00000000E+00 0.00000000E+00 0.00000000E+00
 4 17 0.00000000E+00 0.00000000E+00 1.94496751E-01 0.00000000E+00 0.00000000E+00
 4 18 3.45978928E-01 0.00000000E+00 0.00000000E+00 4.28242969E-01 0.00000000E+00
 4 19 0.00000000E+00 2.72198712E-01 0.00000000E+00 0.00000000E+00 6.07698636E-02
 4 20 0.00000000E+00 0.00000000E+00 0.00000000E+00 0.00000000E+00 0.00000000E+00
 4 21 0.00000000E+00-1.27954370E-03 0.00000000E+00 0.00000000E+00 0.00000000E+00
 4 22 0.00000000E+00 0.00000000E+00-5.79361921E-03 0.00000000E+00 0.00000000E+00
 4 23 0.00000000E+00 0.00000000E+00 0.00000000E+00-1.04270225E-02 0.00000000E+00
 4 24 0.00000000E+00 0.00000000E+00 0.00000000E+00 0.00000000E+00-1.82380141E-02
 4 25 0.00000000E+00-5.90103576E-04 0.00000000E+00-2.63902338E-04 0.00000000E+00
 4 26 0.00000000E+00 0.00000000E+00 0.00000000E+00 1.05560936E-03 0.00000000E+00
 4 27 0.00000000E+00-1.28120605E-03 0.00000000E+00-5.72972766E-04 0.00000000E+00
 4 28 0.00000000E+00 0.00000000E+00 0.00000000E+00 2.29189107E-03 0.00000000E+00
 4 29 0.00000000E+00-1.84454263E-03 0.00000000E+00-8.24904541E-04 0.00000000E+00
 4 30 0.00000000E+00 0.00000000E+00 0.00000000E+00 3.29961816E-03 0.00000000E+00
 4 31 0.00000000E+00 0.00000000E+00 0.00000000E+00 0.00000000E+00 0.00000000E+00
 4 32 0.00000000E+00 2.79269108E-04 0.00000000E+00-3.72358809E-04 0.00000000E+00
 4 33 0.00000000E+00 0.00000000E+00 1.24892940E-04 0.00000000E+00 0.00000000E+00
 4 34 0.00000000E+00 0.00000000E+00 0.00000000E+00 0.00000000E+00 0.00000000E+00
 4 35 0.00000000E+00-1.44629816E-04 0.00000000E+00 1.92839750E-04 0.00000000E+00
 4 36 0.00000000E+00 0.00000000E+00-6.46804132E-05 0.00000000E+00 0.00000000E+00
 4 37 0.00000000E+00 0.00000000E+00 6.11194500E-03 0.00000000E+00 0.00000000E+00
 4 38 0.00000000E+00 0.00000000E+00 0.00000000E+00 0.00000000E+00-1.14617506E-02
 4 39 0.00000000E+00-3.19932954E-03 0.00000000E+00-1.43078367E-03 0.00000000E+00
 4 40 0.00000000E+00 0.00000000E+00 0.00000000E+00 5.72313466E-03 0.00000000E+00
 4 41 0.00000000E+00 0.00000000E+00 0.00000000E+00 0.00000000E+00 0.00000000E+00
 4 42 0.00000000E+00 1.20321794E-03 0.00000000E+00-1.60429059E-03 0.00000000E+00
 4 43 0.00000000E+00 0.00000000E+00 5.38095430E-04 0.00000000E+00 0.00000000E+00
 5  1 0.00000000E+00 0.00000000E+00 0.00000000E+00 0.00000000E+00 0.00000000E+00
 5  2 3.84133455E-03 0.00000000E+00 0.00000000E+00 1.45872305E-02 0.00000000E+00
 5  3 0.00000000E+00 1.28063032E-03 0.00000000E+00 0.00000000E+00-4.11157317E-02
 5  4 0.00000000E+00 0.00000000E+00 0.00000000E+00 0.00000000E+00 0.00000000E+00
 5  5 0.00000000E+00 2.33359978E-03 0.00000000E+00 0.00000000E+00 0.00000000E+00
 5  6 0.00000000E+00 0.00000000E+00 4.74145319E-03 0.00000000E+00 0.00000000E+00
 5  7 0.00000000E+00 0.00000000E+00 0.00000000E+00-3.94878692E-03 0.00000000E+00
 5  8-8.69107814E-04 0.00000000E+00 0.00000000E+00 0.00000000E+00 0.00000000E+00
 5  9-3.88676829E-04 0.00000000E+00 1.55470732E-03 0.00000000E+00 0.00000000E+00
 5 10-4.84742352E-04 0.00000000E+00 0.00000000E+00 0.00000000E+00 0.00000000E+00
 5 11-2.16783390E-04 0.00000000E+00 8.67133501E-04 0.00000000E+00 0.00000000E+00
 5 12 0.00000000E+00-1.22983323E-02 0.00000000E+00 0.00000000E+00 0.00000000E+00
 5 13 0.00000000E+00 0.00000000E+00 0.00000000E+00-9.44824293E-03 0.00000000E+00
 5 14 3.90528777E-04 0.00000000E+00 0.00000000E+00 0.00000000E+00 0.00000000E+00
 5 15 1.74649787E-04 0.00000000E+00-6.98599123E-04 0.00000000E+00 0.00000000E+00
 5 16 0.00000000E+00 0.00000000E+00 0.00000000E+00 0.00000000E+00 0.00000000E+00
 5 17 0.00000000E+00 1.94496751E-01 0.00000000E+00 0.00000000E+00 3.45978928E-01
 5 18 0.00000000E+00 0.00000000E+00 4.28242969E-01 0.00000000E+00 0.00000000E+00
 5 19 2.72198712E-01 0.00000000E+00 0.00000000E+00 6.07698636E-02 0.00000000E+00
 5 20 0.00000000E+00 0.00000000E+00 0.00000000E+00 0.00000000E+00 0.00000000E+00
 5 21-1.27954370E-03 0.00000000E+00 0.00000000E+00 0.00000000E+00 0.00000000E+00
 5 22 0.00000000E+00-5.79361921E-03 0.00000000E+00 0.00000000E+00 0.00000000E+00
 5 23 0.00000000E+00 0.00000000E+00-1.04270225E-02 0.00000000E+00 0.00000000E+00
 5 24 0.00000000E+00 0.00000000E+00 0.00000000E+00-1.82380141E-02 0.00000000E+00
 5 25-5.90103571E-04 0.00000000E+00 0.00000000E+00 0.00000000E+00 0.00000000E+00
 5 26-2.63902344E-04 0.00000000E+00 1.05560936E-03 0.00000000E+00 0.00000000E+00
 5 27-1.28120606E-03 0.00000000E+00 0.00000000E+00 0.00000000E+00 0.00000000E+00
 5 28-5.72972760E-04 0.00000000E+00 2.29189107E-03 0.00000000E+00 0.00000000E+00
 5 29-1.84454263E-03 0.00000000E+00 0.00000000E+00 0.00000000E+00 0.00000000E+00
 5 30-8.24904541E-04 0.00000000E+00 3.29961816E-03 0.00000000E+00 0.00000000E+00
 5 31 0.00000000E+00 0.00000000E+00 0.00000000E+00 0.00000000E+00 2.79269106E-04
 5 32 0.00000000E+00 0.00000000E+00-3.72358809E-04 0.00000000E+00 0.00000000E+00
 5 33 0.00000000E+00 0.00000000E+00 0.00000000E+00 1.24892943E-04 0.00000000E+00
 5 34 0.00000000E+00 0.00000000E+00 0.00000000E+00 0.00000000E+00-1.44629813E-04
 5 35 0.00000000E+00 0.00000000E+00 1.92839750E-04 0.00000000E+00 0.00000000E+00
 5 36 0.00000000E+00 0.00000000E+00 0.00000000E+00-6.46804172E-05 0.00000000E+00
 5 37 0.00000000E+00 6.11194500E-03 0.00000000E+00 0.00000000E+00 0.00000000E+00
 5 38 0.00000000E+00 0.00000000E+00 0.00000000E+00-1.14617506E-02 0.00000000E+00
 5 39-3.19932954E-03 0.00000000E+00 0.00000000E+00 0.00000000E+00 0.00000000E+00
 5 40-1.43078366E-03 0.00000000E+00 5.72313466E-03 0.00000000E+00 0.00000000E+00
 5 41 0.00000000E+00 0.00000000E+00 0.00000000E+00 0.00000000E+00 1.20321794E-03
 5 42 0.00000000E+00 0.00000000E+00-1.60429059E-03 0.00000000E+00 0.00000000E+00
 5 43 0.00000000E+00 0.00000000E+00 0.00000000E+00 5.38095428E-04 0.00000000E+00
 6  1 1.23395222E-01 5.85650017E-01 6.39808789E-01 4.67078725E-02-1.32454707E-01
 6  2 0.00000000E+00 0.00000000E+00 4.83017074E-03 0.00000000E+00 0.00000000E+00
 6  3 1.10976273E-01 0.00000000E+00 0.00000000E+00 1.45414161E-01 0.00000000E+00
 6  4 0.00000000E+00 6.42312691E-02-2.07367671E-03-2.07367671E-03 4.14735342E-03
 6  5 0.00000000E+00 0.00000000E+00 0.00000000E+00-1.55522067E-02-1.55522067E-02
 6  6 3.11044133E-02 0.00000000E+00 0.00000000E+00 0.00000000E+00-1.30847427E-02
 6  7-1.30847427E-02 2.61694853E-02 0.00000000E+00 0.00000000E+00 0.00000000E+00
 6  8 0.00000000E+00 0.00000000E+00 2.66202051E-03 0.00000000E+00-1.78573765E-03
 6  9 0.00000000E+00-1.78573765E-03 0.00000000E+00 0.00000000E+00 0.00000000E+00
 6 10 0.00000000E+00 0.00000000E+00 2.69060227E-03 0.00000000E+00-1.80491087E-03
 6 11 0.00000000E+00-1.80491087E-03 0.00000000E+00 0.00000000E+00 0.00000000E+00
 6 12 4.00698839E-03 0.00000000E+00 0.00000000E+00-1.65716372E-02-4.66455861E-03
 6 13-4.66455861E-03 9.32911721E-03 0.00000000E+00 0.00000000E+00 0.00000000E+00
 6 14 0.00000000E+00 0.00000000E+00 1.77512150E-03 0.00000000E+00-1.19078770E-03
 6 15 0.00000000E+00-1.19078770E-03 0.00000000E+00 0.00000000E+00 0.00000000E+00
 6 16-1.90032266E-02-1.56550851E-01-1.77354443E-01-3.18393881E-01-3.73328387E-01
 6 17-1.00356218E-01 0.00000000E+00 0.00000000E+00 2.18541209E-01 0.00000000E+00
 6 18 0.00000000E+00 4.44081571E-01 0.00000000E+00 0.00000000E+00 3.34464106E-01
 6 19 0.00000000E+00 0.00000000E+00 2.35234094E-02 0.00000000E+00 0.00000000E+00
 6 20-6.40662340E-02 4.23894268E-03 4.23894268E-03-8.47788535E-03 0.00000000E+00
 6 21 0.00000000E+00 0.00000000E+00 1.31480590E-02 1.31480590E-02-2.62961181E-02
 6 22 0.00000000E+00 0.00000000E+00 0.00000000E+00 1.28214058E-02 1.28214058E-02
 6 23-2.56428116E-02 0.00000000E+00 0.00000000E+00 0.00000000E+00-9.70732867E-04
 6 24-9.70732872E-04 1.94146574E-03 0.00000000E+00 0.00000000E+00 0.00000000E+00
 6 25 0.00000000E+00 0.00000000E+00 1.26756624E-02 0.00000000E+00-8.50309285E-03
 6 26 0.00000000E+00-8.50309285E-03 0.00000000E+00 0.00000000E+00 0.00000000E+00
 6 27 0.00000000E+00 0.00000000E+00 1.70650750E-02 0.00000000E+00-1.14476004E-02
 6 28 0.00000000E+00-1.14476004E-02 0.00000000E+00 0.00000000E+00 0.00000000E+00
 6 29 0.00000000E+00 0.00000000E+00 6.28854247E-03 0.00000000E+00-4.21848253E-03
 6 30 0.00000000E+00-4.21848253E-03 0.00000000E+00 0.00000000E+00 0.00000000E+00
 6 31-2.06658697E-04-2.06658697E-04-5.51089752E-04 0.00000000E+00 0.00000000E+00
 6 32 0.00000000E+00 0.00000000E+00 0.00000000E+00 0.00000000E+00-1.21006848E-04
 6 33 4.84027676E-04 4.84027676E-04 0.00000000E+00 0.00000000E+00 0.00000000E+00
 6 34-4.79602982E-04-4.79602982E-04-1.27894137E-03 0.00000000E+00 0.00000000E+00
 6 35 0.00000000E+00 0.00000000E+00 0.00000000E+00 0.00000000E+00-2.80826824E-04
 6 36 1.12330708E-03 1.12330708E-03 0.00000000E+00 0.00000000E+00 0.00000000E+00
 6 37 1.68582034E-01 0.00000000E+00 0.00000000E+00-1.34354319E-02-6.21509557E-03
 6 38-6.21509557E-03 1.24301911E-02 0.00000000E+00 0.00000000E+00 0.00000000E+00
 6 39 0.00000000E+00 0.00000000E+00-4.69747567E-03 0.00000000E+00 3.15116248E-03
 6 40 0.00000000E+00 3.15116248E-03 0.00000000E+00 0.00000000E+00 0.00000000E+00
 6 41-1.25350084E-04-1.25350084E-04-3.34267292E-04 0.00000000E+00 0.00000000E+00
 6 42 0.00000000E+00 0.00000000E+00 0.00000000E+00 0.00000000E+00-7.33978461E-05
 6 43 2.93590327E-04 2.93590326E-04 0.00000000E+00 0.00000000E+00 0.00000000E+00
 7  1 2.90418852E-03 5.95462737E-03-1.41556269E-01 4.29216064E-01 3.72973096E+00
 7  2 0.00000000E+00 0.00000000E+00 1.22781708E-03 0.00000000E+00 0.00000000E+00
 7  3-1.26930649E-02 0.00000000E+00 0.00000000E+00-4.31237124E-02 0.00000000E+00
 7  4 0.00000000E+00-1.18787799E-01 2.32071806E-04 2.32071806E-04-4.64143612E-04
 7  5 0.00000000E+00 0.00000000E+00 0.00000000E+00 3.84839119E-03 3.84839119E-03
 7  6-7.69678238E-03 0.00000000E+00 0.00000000E+00 0.00000000E+00 9.61849696E-03
 7  7 9.61849696E-03-1.92369939E-02 0.00000000E+00 0.00000000E+00 0.00000000E+00
 7  8 0.00000000E+00 0.00000000E+00-8.65626331E-04 0.00000000E+00 5.80679796E-04
 7  9 0.00000000E+00 5.80679796E-04 0.00000000E+00 0.00000000E+00 0.00000000E+00
 7 10 0.00000000E+00 0.00000000E+00-3.17043847E-03 0.00000000E+00 2.12679478E-03
 7 11 0.00000000E+00 2.12679478E-03 0.00000000E+00 0.00000000E+00 0.00000000E+00
 7 12-1.49420496E+00 0.00000000E+00 0.00000000E+00 4.73396030E-01 2.60456507E-02
 7 13 2.60456507E-02-5.20913013E-02 0.00000000E+00 0.00000000E+00 0.00000000E+00
 7 14 0.00000000E+00 0.00000000E+00-2.21284612E-03 0.00000000E+00 1.48442230E-03
 7 15 0.00000000E+00 1.48442230E-03 0.00000000E+00 0.00000000E+00 0.00000000E+00
 7 16-3.75360837E-04 2.47439027E-03-2.91063962E-04 1.41837792E-02 1.18184700E-01
 7 17 3.70039683E-02 0.00000000E+00 0.00000000E+00 2.26965424E-03 0.00000000E+00
 7 18 0.00000000E+00 5.66731526E-03 0.00000000E+00 0.00000000E+00-1.34651583E-02
 7 19 0.00000000E+00 0.00000000E+00-6.60380001E-02 0.00000000E+00 0.00000000E+00
 7 20 3.44731316E-01 2.73514919E-05 2.73514919E-05-5.47029838E-05 0.00000000E+00
 7 21 0.00000000E+00 0.00000000E+00-7.14771793E-04-7.14771793E-04 1.42954359E-03
 7 22 0.00000000E+00 0.00000000E+00 0.00000000E+00-5.08350473E-03-5.08350473E-03
 7 23 1.01670095E-02 0.00000000E+00 0.00000000E+00 0.00000000E+00-1.04501583E-02
 7 24-1.04501583E-02 2.09003166E-02 0.00000000E+00 0.00000000E+00 0.00000000E+00
 7 25 0.00000000E+00 0.00000000E+00-9.82608352E-05 0.00000000E+00 6.59153721E-05
 7 26 0.00000000E+00 6.59153721E-05 0.00000000E+00 0.00000000E+00 0.00000000E+00
 7 27 0.00000000E+00 0.00000000E+00-7.66786626E-04 0.00000000E+00 5.14376106E-04
 7 28 0.00000000E+00 5.14376106E-04 0.00000000E+00 0.00000000E+00 0.00000000E+00
 7 29 0.00000000E+00 0.00000000E+00-3.64949473E-03 0.00000000E+00 2.44815549E-03
 7 30 0.00000000E+00 2.44815549E-03 0.00000000E+00 0.00000000E+00 0.00000000E+00
 7 31 6.41275220E-05 6.41275220E-05 1.71006713E-04 0.00000000E+00 0.00000000E+00
 7 32 0.00000000E+00 0.00000000E+00 0.00000000E+00 0.00000000E+00 3.75492210E-05
 7 33-1.50196917E-04-1.50196917E-04 0.00000000E+00 0.00000000E+00 0.00000000E+00
 7 34-5.61342260E-06-5.61342261E-06-1.49690964E-05 0.00000000E+00 0.00000000E+00
 7 35 0.00000000E+00 0.00000000E+00 0.00000000E+00 0.00000000E+00-3.28685690E-06
 7 36 1.31475080E-05 1.31475081E-05 0.00000000E+00 0.00000000E+00 0.00000000E+00
 7 37-3.39728402E+00 0.00000000E+00 0.00000000E+00 5.27076412E-01 3.91002211E-02
 7 38 3.91002211E-02-7.82004422E-02 0.00000000E+00 0.00000000E+00 0.00000000E+00
 7 39 0.00000000E+00 0.00000000E+00-1.50968144E-03 0.00000000E+00 1.01272510E-03
 7 40 0.00000000E+00 1.01272510E-03 0.00000000E+00 0.00000000E+00 0.00000000E+00
 7 41 4.18432530E-04 4.18432530E-04 1.11581996E-03 0.00000000E+00 0.00000000E+00
 7 42 0.00000000E+00 0.00000000E+00 0.00000000E+00 0.00000000E+00 2.45008900E-04
 7 43-9.80035906E-04-9.80035906E-04 0.00000000E+00 0.00000000E+00 0.00000000E+00
 8  1 2.17875491E-03 2.49363397E-02-8.80211017E-01-1.57181847E+00 1.01964881E+01
 8  2 0.00000000E+00 0.00000000E+00 3.83748999E-03 0.00000000E+00 0.00000000E+00
 8  3-4.21835630E-02 0.00000000E+00 0.00000000E+00-4.57011451E-01 0.00000000E+00
 8  4 0.00000000E+00-1.49910964E+00 3.51851808E-04 3.51851808E-04-7.03703616E-04
 8  5 0.00000000E+00 0.00000000E+00 0.00000000E+00 2.59602604E-02 2.59602604E-02
 8  6-5.19205209E-02 0.00000000E+00 0.00000000E+00 0.00000000E+00 8.03893349E-02
 8  7 8.03893349E-02-1.60778670E-01 0.00000000E+00 0.00000000E+00 0.00000000E+00
 8  8 0.00000000E+00 0.00000000E+00-5.47502237E-03 0.00000000E+00 3.67275666E-03
 8  9 0.00000000E+00 3.67275666E-03 0.00000000E+00 0.00000000E+00 0.00000000E+00
 8 10 0.00000000E+00 0.00000000E+00-1.10888129E-02 0.00000000E+00 7.43860183E-03
 8 11 0.00000000E+00 7.43860183E-03 0.00000000E+00 0.00000000E+00 0.00000000E+00
 8 12-7.65174808E-01 0.00000000E+00 0.00000000E+00 9.26444575E-01 1.82305848E-01
 8 13 1.82305848E-01-3.64611697E-01 0.00000000E+00 0.00000000E+00 0.00000000E+00