!   single reference CISD on CH3OH, using ORMAS' CI-X option.
!          counting: 2 core, 7 occ. valence, 39 empty MOs (50 AOs, 48 MOs)
!          the resulting CI-SD has 53,964 Sz=0 A' determinants
!
!   E(RHF) = -115.0495964060, 11 iters
!   37 Davidson iterations find three roots:
!     STATE   1  ENERGY= -115.3830636097  S=  0.00  SPACE SYM=A'
!     STATE   2  ENERGY= -114.7902719332  S=  1.00  SPACE SYM=A'
!     STATE   3  ENERGY= -114.7564985304  S=  1.00  SPACE SYM=A'
!   dipoles are RHF= 1.739576 and CISD= 1.628771 debye
!
!   This run takes 80 seconds on a 2.66 GHz Cloverton (13 Apr 2015)
!
 $contrl scftyp=rhf cityp=ormas runtyp=energy ispher=1 $end
 $system mwords=50 $end
 $basis  gbasis=ccd $end
 $guess  guess=huckel $end
 $scf    dirscf=.true. $end
 $trans  dirtrf=.true. $end
 $cidet  group=Cs stsym=Ap ncore=2 nact=46 nels=14 nstate=3 $end
 $ormas  nspace=2 mstart(1)=3,10 mine(1)=12,0
                                 maxe(1)=14,2 $end
 $data
Methanol...CISD...RHF/6-31G(d) geometry
Cs

H     1.0  -1.0616171503   0.8036449245   0.0000000000
O     8.0  -0.6870131482  -0.0653470836   0.0000000000
C     6.0   0.7093551399   0.0291827007   0.0000000000
H     1.0   1.0836641283   0.5408321444   0.8835398105
H     1.0   1.0975386849  -0.9797829903   0.0000000000
 $end

! TRAVIS-CI SMALL

! TRAVIS-CI SKIP
