!   ozone...TCSCF plus CISD...aug-cc-pVTZ basis set
!   there are 105 AOs, 90 MOs, and 829,005 determinants
!  
!   starting orbitals are RHF.  The TCSCF will excite the HOMO A2
!   at eigenvalue -0.4846 into virtual B2 at eigenvalue -0.0334,
!   whose negative value is RHF's way of telling us that ozone
!   is not a closed shell.
!
!   GVB FINAL E= -224.4342744325, 20 iters
!   TCSCF CI coefs are 0.895884, -0.444288, so NOON= 1.60522, 0.39697
!   1-A-1 state CI-SD energy is -225.0355618199 in 18 Davidson iters
!   dipole moment is 0.233754 at TCSCF level, and 0.410718 at CI-SD level
!   The CISD yields NOON values of 1.7134 and 0.2916 for NOs 12&13.
!
!   this run takes 1617 seconds on 2.66 GHz Cloverton (15 Apr 2015)
!         (answers unchanged since 2009)
!
 $contrl scftyp=gvb runtyp=energy cityp=ormas coord=zmt ispher=1 $end
 $system mwords=100 $end
 $basis  gbasis=cct $end
 $scf    nco=11 nseto=0 npair=1 $end
 $scf    dirscf=.true. $end
 $trans  dirtrf=.true. $end
 $guess  guess=moread norb=13 $end
 $cidet  ncore=3 nact=87 nels=18 $end
 $ormas  nspace=3 mstart(1)=4,12,14
                    mine(1)=14,0,0
                    maxe(1)=16,4,2 $end
 $data
Ozone...TCSCF/aug-cc-pVTZ...followed by two reference CISD
Cnv 2
 
O
O 1 rOO
O 1 rOO 2 aOOO

rOO=1.2557467
aOOO=115.148614
 $end

--- CLOSED SHELL ORBITALS --- GENERATED AT Tue Nov 10 19:22:03 2009
to save disk space, we drop all but the first virtual orbital.
E(RHF)= -224.3455649174
 $VEC   
 1  1 9.76040694E-01-1.07779465E-03 4.29111975E-02 2.17024939E-03 0.00000000E+00
 1  2 0.00000000E+00 2.23272749E-03 0.00000000E+00 0.00000000E+00-1.86594887E-03
 1  3 0.00000000E+00 0.00000000E+00 6.32943170E-04 8.34190876E-05-1.94159278E-04
 1  4 1.10740190E-04 0.00000000E+00 0.00000000E+00 0.00000000E+00-6.23972148E-04
 1  5 4.38165852E-04 1.85806297E-04 0.00000000E+00 0.00000000E+00 0.00000000E+00
 1  6 0.00000000E+00 0.00000000E+00 7.52782223E-05 0.00000000E+00-2.13904675E-04
 1  7 0.00000000E+00 1.12908341E-04 0.00000000E+00 0.00000000E+00 0.00000000E+00
 1  8 2.14829573E-03 8.73004334E-04-2.29942517E-04-1.77293317E-04-8.68749150E-06
 1  9 0.00000000E+00-8.75543888E-06 8.78014819E-04 0.00000000E+00-5.58039639E-04
 1 10-8.30865396E-05 0.00000000E+00-9.69871923E-05 6.44526109E-05-4.42850499E-05
 1 11-2.01675610E-05 0.00000000E+00-9.60903295E-05 0.00000000E+00 3.16749110E-04
 1 12-2.93670957E-04-2.30781531E-05 0.00000000E+00-4.43923217E-04 0.00000000E+00
 1 13 5.08335846E-05 0.00000000E+00 4.32310496E-05 0.00000000E+00-8.14466951E-05
 1 14-5.62105636E-05 2.34461557E-05-1.19898467E-05 0.00000000E+00 0.00000000E+00
 1 15 2.14829573E-03 8.73004334E-04-2.29942517E-04-1.77293317E-04 8.68749150E-06
 1 16 0.00000000E+00-8.75543888E-06-8.78014819E-04 0.00000000E+00-5.58039639E-04
 1 17 8.30865396E-05 0.00000000E+00-9.69871923E-05 6.44526109E-05-4.42850499E-05
 1 18-2.01675610E-05 0.00000000E+00 9.60903295E-05 0.00000000E+00 3.16749110E-04
 1 19-2.93670957E-04-2.30781531E-05 0.00000000E+00 4.43923217E-04 0.00000000E+00
 1 20-5.08335846E-05 0.00000000E+00 4.32310496E-05 0.00000000E+00-8.14466951E-05
 1 21 5.62105636E-05 2.34461557E-05 1.19898467E-05 0.00000000E+00 0.00000000E+00
 2  1 0.00000000E+00 0.00000000E+00 0.00000000E+00 0.00000000E+00 1.38196332E-04
 2  2 0.00000000E+00 0.00000000E+00-1.99022857E-03 0.00000000E+00 0.00000000E+00
 2  3 1.86556287E-04 0.00000000E+00 0.00000000E+00 0.00000000E+00 0.00000000E+00
 2  4 0.00000000E+00 0.00000000E+00-1.62530540E-04 0.00000000E+00 0.00000000E+00
 2  5 0.00000000E+00 0.00000000E+00 0.00000000E+00-1.00554963E-03 0.00000000E+00
 2  6-5.23134824E-05 0.00000000E+00 0.00000000E+00 0.00000000E+00 0.00000000E+00
 2  7 1.30415763E-04 0.00000000E+00-6.02298610E-05 0.00000000E+00 0.00000000E+00
 2  8 6.90046370E-01-7.87230935E-04 3.05015865E-02 1.84867462E-03 1.36086274E-03
 2  9 0.00000000E+00-8.24470139E-04-1.35488098E-03 0.00000000E+00 8.14229797E-04
 2 10 4.28332363E-04 0.00000000E+00-1.56254406E-04-6.09274448E-07-7.03426093E-05
 2 11 7.09518837E-05 0.00000000E+00 4.79416727E-05 0.00000000E+00-3.30255484E-04
 2 12 2.24559385E-04 1.05696099E-04 0.00000000E+00 5.98730585E-04 0.00000000E+00
 2 13-2.77575436E-05 0.00000000E+00-9.20495071E-05 0.00000000E+00 1.88931781E-04
 2 14 9.59986044E-05-6.54344077E-05-5.87579518E-05 0.00000000E+00 0.00000000E+00
 2 15-6.90046370E-01 7.87230935E-04-3.05015865E-02-1.84867462E-03 1.36086274E-03
 2 16 0.00000000E+00 8.24470139E-04-1.35488098E-03 0.00000000E+00-8.14229797E-04
 2 17 4.28332363E-04 0.00000000E+00 1.56254406E-04 6.09274448E-07 7.03426093E-05
 2 18-7.09518837E-05 0.00000000E+00 4.79416727E-05 0.00000000E+00 3.30255484E-04
 2 19-2.24559385E-04-1.05696099E-04 0.00000000E+00 5.98730585E-04 0.00000000E+00
 2 20-2.77575436E-05 0.00000000E+00 9.20495071E-05 0.00000000E+00-1.88931781E-04
 2 21 9.59986044E-05 6.54344077E-05-5.87579518E-05 0.00000000E+00 0.00000000E+00
 3  1-1.67581878E-03 1.45994795E-03-7.04171036E-04 1.99450541E-03 0.00000000E+00
 3  2 0.00000000E+00-7.00877587E-05 0.00000000E+00 0.00000000E+00 1.31662022E-03
 3  3 0.00000000E+00 0.00000000E+00 7.69268878E-04 1.04592756E-04-5.96836275E-05
 3  4-4.49091287E-05 0.00000000E+00 0.00000000E+00 0.00000000E+00 7.29758777E-04
 3  5-7.40766864E-04 1.10080871E-05 0.00000000E+00 0.00000000E+00 0.00000000E+00
 3  6 0.00000000E+00 0.00000000E+00-9.39316259E-05 0.00000000E+00 2.20939201E-04
 3  7 0.00000000E+00-9.49167001E-05 0.00000000E+00 0.00000000E+00 0.00000000E+00
 3  8 6.90296241E-01-3.51748841E-04 3.04566672E-02 4.04193247E-04 1.38200165E-03
 3  9 0.00000000E+00-8.39447116E-04-1.40254727E-03 0.00000000E+00 8.34245772E-04
 3 10-2.94773116E-04 0.00000000E+00 3.75729647E-05 4.63669340E-05-1.03481984E-04
 3 11 5.71150500E-05 0.00000000E+00 4.29750496E-05 0.00000000E+00-4.89384950E-04
 3 12 3.45500381E-04 1.43884569E-04 0.00000000E+00 5.88206223E-04 0.00000000E+00
 3 13-7.30831367E-05 0.00000000E+00-4.85941043E-05 0.00000000E+00 1.46423210E-04
 3 14 1.28251201E-04-8.12273779E-05-3.01998839E-05 0.00000000E+00 0.00000000E+00
 3 15 6.90296241E-01-3.51748841E-04 3.04566672E-02 4.04193247E-04-1.38200165E-03
 3 16 0.00000000E+00-8.39447116E-04 1.40254727E-03 0.00000000E+00 8.34245772E-04
 3 17 2.94773116E-04 0.00000000E+00 3.75729647E-05 4.63669340E-05-1.03481984E-04
 3 18 5.71150500E-05 0.00000000E+00-4.29750496E-05 0.00000000E+00-4.89384950E-04
 3 19 3.45500381E-04 1.43884569E-04 0.00000000E+00-5.88206223E-04 0.00000000E+00
 3 20 7.30831367E-05 0.00000000E+00-4.85941043E-05 0.00000000E+00 1.46423210E-04
 3 21-1.28251201E-04-8.12273779E-05 3.01998839E-05 0.00000000E+00 0.00000000E+00
 4  1-1.05493318E-04 4.39413404E-01 1.16746983E-01 1.76053917E-01 0.00000000E+00
 4  2 0.00000000E+00 5.69148705E-02 0.00000000E+00 0.00000000E+00 7.90056780E-02
 4  3 0.00000000E+00 0.00000000E+00 1.62304437E-02 5.47391361E-03-5.95933132E-03
 4  4 4.85417705E-04 0.00000000E+00 0.00000000E+00 0.00000000E+00 1.07045646E-02
 4  5-1.12663197E-02 5.61755078E-04 0.00000000E+00 0.00000000E+00 0.00000000E+00
 4  6 0.00000000E+00 0.00000000E+00-3.96942974E-03 0.00000000E+00 7.93749079E-03
 4  7 0.00000000E+00-2.61194195E-03 0.00000000E+00 0.00000000E+00 0.00000000E+00
 4  8-2.54583824E-03 2.19600901E-01 5.56056774E-02 7.60828830E-02 4.87366756E-02
 4  9 0.00000000E+00-2.60722122E-02 6.54579001E-02 0.00000000E+00-3.46040021E-02
 4 10 6.35489573E-03 0.00000000E+00-4.57972343E-03 4.64880625E-03-3.68637456E-03
 4 11-9.62431691E-04 0.00000000E+00-5.17228718E-03 0.00000000E+00 9.20536596E-03
 4 12-6.31365528E-03-2.89171068E-03 0.00000000E+00-1.12064811E-02 0.00000000E+00
 4 13 1.29841729E-03 0.00000000E+00 2.49088859E-03 0.00000000E+00-4.42774013E-03
 4 14-2.07492531E-03 1.08586241E-03 3.32915708E-04 0.00000000E+00 0.00000000E+00
 4 15-2.54583824E-03 2.19600901E-01 5.56056774E-02 7.60828830E-02-4.87366756E-02
 4 16 0.00000000E+00-2.60722122E-02-6.54579001E-02 0.00000000E+00-3.46040021E-02
 4 17-6.35489573E-03 0.00000000E+00-4.57972343E-03 4.64880625E-03-3.68637456E-03
 4 18-9.62431691E-04 0.00000000E+00 5.17228718E-03 0.00000000E+00 9.20536596E-03
 4 19-6.31365528E-03-2.89171068E-03 0.00000000E+00 1.12064811E-02 0.00000000E+00
 4 20-1.29841729E-03 0.00000000E+00 2.49088859E-03 0.00000000E+00-4.42774013E-03
 4 21 2.07492531E-03 1.08586241E-03-3.32915708E-04 0.00000000E+00 0.00000000E+00
 5  1 0.00000000E+00 0.00000000E+00 0.00000000E+00 0.00000000E+00-1.59447923E-01
 5  2 0.00000000E+00 0.00000000E+00-2.01254518E-01 0.00000000E+00 0.00000000E+00
 5  3-3.70461056E-02 0.00000000E+00 0.00000000E+00 0.00000000E+00 0.00000000E+00
 5  4 0.00000000E+00 0.00000000E+00-1.28125283E-02 0.00000000E+00 0.00000000E+00
 5  5 0.00000000E+00 0.00000000E+00 0.00000000E+00-2.87894087E-02 0.00000000E+00
 5  6-2.10516787E-03 0.00000000E+00 0.00000000E+00 0.00000000E+00 0.00000000E+00
 5  7 3.79615506E-03 0.00000000E+00-9.71775985E-04 0.00000000E+00 0.00000000E+00
 5  8-2.87654797E-03 3.54490204E-01 9.47313673E-02 1.99441052E-01 2.95848647E-02
 5  9 0.00000000E+00-3.00326224E-02 4.30816716E-02 0.00000000E+00-4.22250055E-02
 5 10 1.46296757E-02 0.00000000E+00-1.17072690E-02 2.05833640E-03-2.57343886E-03
 5 11 5.15102455E-04 0.00000000E+00-4.30717501E-03 0.00000000E+00 4.39974150E-03
 5 12-5.64310653E-03 1.24336502E-03 0.00000000E+00-9.90234062E-03 0.00000000E+00
 5 13 9.48236847E-05 0.00000000E+00 1.95933468E-03 0.00000000E+00-4.08449530E-03
 5 14-1.94462551E-03 1.45577198E-03 1.81740618E-03 0.00000000E+00 0.00000000E+00
 5 15 2.87654797E-03-3.54490204E-01-9.47313673E-02-1.99441052E-01 2.95848647E-02
 5 16 0.00000000E+00 3.00326224E-02 4.30816716E-02 0.00000000E+00 4.22250055E-02
 5 17 1.46296757E-02 0.00000000E+00 1.17072690E-02-2.05833640E-03 2.57343886E-03
 5 18-5.15102455E-04 0.00000000E+00-4.30717501E-03 0.00000000E+00-4.39974150E-03
 5 19 5.64310653E-03-1.24336502E-03 0.00000000E+00-9.90234062E-03 0.00000000E+00
 5 20 9.48236847E-05 0.00000000E+00-1.95933468E-03 0.00000000E+00 4.08449530E-03
 5 21-1.94462551E-03-1.45577198E-03 1.81740618E-03 0.00000000E+00 0.00000000E+00
 6  1 8.99522732E-03 3.70516558E-01 1.07022865E-01 2.99995804E-01 0.00000000E+00
 6  2 0.00000000E+00-1.21545800E-01 0.00000000E+00 0.00000000E+00-1.45510180E-01
 6  3 0.00000000E+00 0.00000000E+00-4.89795379E-02-8.59960303E-04 2.73762365E-03
 6  4-1.87766334E-03 0.00000000E+00 0.00000000E+00 0.00000000E+00 9.43657354E-04
 6  5 4.13226974E-03-5.07592710E-03 0.00000000E+00 0.00000000E+00 0.00000000E+00
 6  6 0.00000000E+00 0.00000000E+00-1.73774003E-04 0.00000000E+00 1.36438296E-05
 6  7 0.00000000E+00 2.19498461E-04 0.00000000E+00 0.00000000E+00 0.00000000E+00
 6  8-1.21290200E-03-3.11776521E-01-8.77943135E-02-2.58085711E-01 3.57918971E-02
 6  9 0.00000000E+00-5.30360997E-02 3.75113174E-02 0.00000000E+00-6.24955489E-02
 6 10 7.16121649E-03 0.00000000E+00-1.88169104E-02 6.44777229E-04-1.48163329E-03
 6 11 8.36856061E-04 0.00000000E+00-3.92476213E-03 0.00000000E+00 2.58210748E-06
 6 12-1.71109001E-03 1.70850790E-03 0.00000000E+00-8.25517539E-03 0.00000000E+00
 6 13-9.53828171E-04 0.00000000E+00 7.06168143E-04 0.00000000E+00-1.42505040E-03
 6 14-3.38098925E-04 4.77626414E-04 1.61779370E-03 0.00000000E+00 0.00000000E+00
 6 15-1.21290200E-03-3.11776521E-01-8.77943135E-02-2.58085711E-01-3.57918971E-02
 6 16 0.00000000E+00-5.30360997E-02-3.75113174E-02 0.00000000E+00-6.24955489E-02
 6 17-7.16121649E-03 0.00000000E+00-1.88169104E-02 6.44777229E-04-1.48163329E-03
 6 18 8.36856061E-04 0.00000000E+00 3.92476213E-03 0.00000000E+00 2.58210748E-06
 6 19-1.71109001E-03 1.70850790E-03 0.00000000E+00 8.25517539E-03 0.00000000E+00
 6 20 9.53828171E-04 0.00000000E+00 7.06168143E-04 0.00000000E+00-1.42505040E-03
 6 21 3.38098925E-04 4.77626414E-04-1.61779370E-03 0.00000000E+00 0.00000000E+00
 7  1 3.62945754E-03-1.82958834E-02-1.07747229E-02-3.14441607E-02 0.00000000E+00
 7  2 0.00000000E+00 2.68568481E-01 0.00000000E+00 0.00000000E+00 3.47121870E-01
 7  3 0.00000000E+00 0.00000000E+00 1.80621622E-01-2.96676215E-03-4.10306191E-03
 7  4 7.06982407E-03 0.00000000E+00 0.00000000E+00 0.00000000E+00-1.20242211E-02
 7  5-1.21266920E-02 2.41509131E-02 0.00000000E+00 0.00000000E+00 0.00000000E+00
 7  6 0.00000000E+00 0.00000000E+00-1.17802782E-03 0.00000000E+00 3.78072120E-03
 7  7 0.00000000E+00-2.20023103E-03 0.00000000E+00 0.00000000E+00 0.00000000E+00
 7  8 2.70120660E-03-1.28344558E-01-3.98834857E-02-1.78130686E-01 1.52198615E-01
 7  9 0.00000000E+00 4.80538897E-02 1.92360671E-01 0.00000000E+00 6.28412737E-02
 7 10 8.19500276E-02 0.00000000E+00 3.60316524E-02 7.70518873E-03-2.87697806E-03
 7 11-4.82821067E-03 0.00000000E+00-2.32757678E-03 0.00000000E+00 1.93027510E-02
 7 12-6.96010323E-03-1.23426477E-02 0.00000000E+00-4.54249982E-03 0.00000000E+00
 7 13 4.32981379E-03 0.00000000E+00 2.17844230E-03 0.00000000E+00-3.48393448E-03
 7 14-1.84119516E-03 5.61247431E-04-3.96785961E-03 0.00000000E+00 0.00000000E+00
 7 15 2.70120660E-03-1.28344558E-01-3.98834857E-02-1.78130686E-01-1.52198615E-01
 7 16 0.00000000E+00 4.80538897E-02-1.92360671E-01 0.00000000E+00 6.28412737E-02
 7 17-8.19500276E-02 0.00000000E+00 3.60316524E-02 7.70518873E-03-2.87697806E-03
 7 18-4.82821067E-03 0.00000000E+00 2.32757678E-03 0.00000000E+00 1.93027510E-02
 7 19-6.96010323E-03-1.23426477E-02 0.00000000E+00 4.54249982E-03 0.00000000E+00
 7 20-4.32981379E-03 0.00000000E+00 2.17844230E-03 0.00000000E+00-3.48393448E-03
 7 21 1.84119516E-03 5.61247431E-04 3.96785961E-03 0.00000000E+00 0.00000000E+00
 8  1 0.00000000E+00 0.00000000E+00 0.00000000E+00 0.00000000E+00 2.29027309E-01
 8  2 0.00000000E+00 0.00000000E+00 3.02070251E-01 0.00000000E+00 0.00000000E+00
 8  3 1.10023597E-01 0.00000000E+00 0.00000000E+00 0.00000000E+00 0.00000000E+00
 8  4 0.00000000E+00 0.00000000E+00 8.92604650E-03 0.00000000E+00 0.00000000E+00
 8  5 0.00000000E+00 0.00000000E+00 0.00000000E+00 1.53473299E-02 0.00000000E+00
 8  6 3.79926276E-03 0.00000000E+00 0.00000000E+00 0.00000000E+00 0.00000000E+00
 8  7-3.32197586E-03 0.00000000E+00-1.77527001E-03 0.00000000E+00 0.00000000E+00
 8  8 7.80574183E-04 1.90788899E-01 5.77918078E-02 2.14952716E-01-1.09523351E-01
 8  9 0.00000000E+00 1.39354706E-01-1.36471899E-01 0.00000000E+00 1.78725993E-01
 8 10-7.10773909E-02 0.00000000E+00 8.87677087E-02-3.35075904E-03 4.36870806E-03
 8 11-1.01794903E-03 0.00000000E+00 8.26161329E-03 0.00000000E+00-6.65257754E-03
 8 12 1.08344411E-02-4.18186353E-03 0.00000000E+00 2.12101823E-02 0.00000000E+00
 8 13 8.68549156E-04 0.00000000E+00-2.72717931E-03 0.00000000E+00 5.34029120E-03
 8 14 2.35797797E-03-1.68139620E-03-3.52325894E-03 0.00000000E+00 0.00000000E+00
 8 15-7.80574183E-04-1.90788899E-01-5.77918078E-02-2.14952716E-01-1.09523351E-01
 8 16 0.00000000E+00-1.39354706E-01-1.36471899E-01 0.00000000E+00-1.78725993E-01
 8 17-7.10773909E-02 0.00000000E+00-8.87677087E-02 3.35075904E-03-4.36870806E-03
 8 18 1.01794903E-03 0.00000000E+00 8.26161329E-03 0.00000000E+00 6.65257754E-03
 8 19-1.08344411E-02 4.18186353E-03 0.00000000E+00 2.12101823E-02 0.00000000E+00
 8 20 8.68549156E-04 0.00000000E+00 2.72717931E-03 0.00000000E+00-5.34029120E-03
 8 21 2.35797797E-03 1.68139620E-03-3.52325894E-03 0.00000000E+00 0.00000000E+00
 9  1 0.00000000E+00 0.00000000E+00 0.00000000E+00 0.00000000E+00 0.00000000E+00
 9  2 2.74135676E-01 0.00000000E+00 0.00000000E+00 3.65441936E-01 0.00000000E+00
 9  3 0.00000000E+00 2.05383552E-01 0.00000000E+00 0.00000000E+00 0.00000000E+00
 9  4 0.00000000E+00 0.00000000E+00 0.00000000E+00 7.79158575E-03 0.00000000E+00
 9  5 0.00000000E+00 0.00000000E+00 0.00000000E+00 0.00000000E+00 2.92815495E-02
 9  6 0.00000000E+00-4.82889769E-03 0.00000000E+00 6.34065262E-03 0.00000000E+00
 9  7 0.00000000E+00 0.00000000E+00 0.00000000E+00 1.37993483E-04 0.00000000E+00
 9  8 0.00000000E+00 0.00000000E+00 0.00000000E+00 0.00000000E+00 0.00000000E+00
 9  9 1.45016722E-01 0.00000000E+00 0.00000000E+00 1.92499997E-01 0.00000000E+00
 9 10 0.00000000E+00 1.05962484E-01 0.00000000E+00 0.00000000E+00 0.00000000E+00
 9 11 0.00000000E+00 6.46731914E-03 0.00000000E+00-3.89952169E-03 0.00000000E+00
 9 12 0.00000000E+00 0.00000000E+00 2.23506445E-02 0.00000000E+00-1.47714171E-02
 9 13 0.00000000E+00-2.91474165E-03 0.00000000E+00 3.87234137E-03 0.00000000E+00
 9 14 0.00000000E+00 0.00000000E+00 0.00000000E+00 3.81949027E-05-4.77108820E-03
 9 15 0.00000000E+00 0.00000000E+00 0.00000000E+00 0.00000000E+00 0.00000000E+00
 9 16 1.45016722E-01 0.00000000E+00 0.00000000E+00 1.92499997E-01 0.00000000E+00
 9 17 0.00000000E+00 1.05962484E-01 0.00000000E+00 0.00000000E+00 0.00000000E+00
 9 18 0.00000000E+00-6.46731914E-03 0.00000000E+00-3.89952169E-03 0.00000000E+00
 9 19 0.00000000E+00 0.00000000E+00-2.23506445E-02 0.00000000E+00-1.47714171E-02
 9 20 0.00000000E+00-2.91474165E-03 0.00000000E+00 3.87234137E-03 0.00000000E+00
 9 21 0.00000000E+00 0.00000000E+00 0.00000000E+00 3.81949027E-05 4.77108820E-03
10  1 0.00000000E+00 0.00000000E+00 0.00000000E+00 0.00000000E+00-5.05112256E-02
10  2 0.00000000E+00 0.00000000E+00-6.82582006E-02 0.00000000E+00 0.00000000E+00
10  3-5.20124940E-03 0.00000000E+00 0.00000000E+00 0.00000000E+00 0.00000000E+00
10  4 0.00000000E+00 0.00000000E+00-1.01085866E-02 0.00000000E+00 0.00000000E+00
10  5 0.00000000E+00 0.00000000E+00 0.00000000E+00-2.57909988E-02 0.00000000E+00
10  6 5.28231722E-03 0.00000000E+00 0.00000000E+00 0.00000000E+00 0.00000000E+00
10  7 4.80803563E-04 0.00000000E+00-7.56777579E-03 0.00000000E+00 0.00000000E+00
10  8 1.26605761E-03-2.57949425E-03-2.77709775E-03-4.72294273E-03 1.98814385E-01
10  9 0.00000000E+00 1.93359246E-01 2.55828830E-01 0.00000000E+00 2.45067853E-01
10 10 1.91138703E-01 0.00000000E+00 1.82109085E-01 4.14929408E-03-1.27089137E-03
10 11-2.87840271E-03 0.00000000E+00-1.16220730E-03 0.00000000E+00 1.54214551E-02
10 12-3.07584877E-03-1.23456063E-02 0.00000000E+00-2.07548191E-03 0.00000000E+00
10 13 3.39027247E-03 0.00000000E+00 1.49403384E-03 0.00000000E+00-3.00397851E-03
10 14-3.96994912E-04 9.99521783E-04-4.15153291E-03 0.00000000E+00 0.00000000E+00
10 15-1.26605761E-03 2.57949425E-03 2.77709775E-03 4.72294273E-03 1.98814385E-01
10 16 0.00000000E+00-1.93359246E-01 2.55828830E-01 0.00000000E+00-2.45067853E-01
10 17 1.91138703E-01 0.00000000E+00-1.82109085E-01-4.14929408E-03 1.27089137E-03
10 18 2.87840271E-03 0.00000000E+00-1.16220730E-03 0.00000000E+00-1.54214551E-02
10 19 3.07584877E-03 1.23456063E-02 0.00000000E+00-2.07548191E-03 0.00000000E+00
10 20 3.39027247E-03 0.00000000E+00-1.49403384E-03 0.00000000E+00 3.00397851E-03
10 21-3.96994912E-04-9.99521783E-04-4.15153291E-03 0.00000000E+00 0.00000000E+00
11  1-2.03534085E-03 8.28701209E-02 2.99354574E-02 1.46437367E-01 0.00000000E+00
11  2 0.00000000E+00-1.85121106E-01 0.00000000E+00 0.00000000E+00-2.33570232E-01
11  3 0.00000000E+00 0.00000000E+00-1.74286154E-01-9.59441124E-03 4.72050830E-03
11  4 4.87390293E-03 0.00000000E+00 0.00000000E+00 0.00000000E+00-3.50114807E-02
11  5 1.44975825E-02 2.05138982E-02 0.00000000E+00 0.00000000E+00 0.00000000E+00
11  6 0.00000000E+00 0.00000000E+00 4.31372886E-03 0.00000000E+00-5.85218632E-03
11  7 0.00000000E+00 6.47117419E-05 0.00000000E+00 0.00000000E+00 0.00000000E+00
11  8-5.29054455E-03-7.62399420E-03 1.11543626E-03 5.41969052E-02 4.97911608E-02
11  9 0.00000000E+00 2.41978714E-01 6.06480086E-02 0.00000000E+00 3.05800553E-01
11 10 7.41796241E-02 0.00000000E+00 2.32449295E-01-1.31891459E-03 1.64985897E-03
11 11-3.30944380E-04 0.00000000E+00 3.72290956E-03 0.00000000E+00 1.16352983E-03
11 12 3.19213825E-03-4.35566807E-03 0.00000000E+00 1.04719934E-02 0.00000000E+00
11 13 1.21931556E-03 0.00000000E+00-1.68538501E-03 0.00000000E+00 2.14637148E-03
11 14 1.13010068E-03 1.14809783E-04-2.76598417E-03 0.00000000E+00 0.00000000E+00
11 15-5.29054455E-03-7.62399420E-03 1.11543626E-03 5.41969052E-02-4.97911608E-02
11 16 0.00000000E+00 2.41978714E-01-6.06480086E-02 0.00000000E+00 3.05800553E-01
11 17-7.41796241E-02 0.00000000E+00 2.32449295E-01-1.31891459E-03 1.64985897E-03
11 18-3.30944380E-04 0.00000000E+00-3.72290956E-03 0.00000000E+00 1.16352983E-03
11 19 3.19213825E-03-4.35566807E-03 0.00000000E+00-1.04719934E-02 0.00000000E+00
11 20-1.21931556E-03 0.00000000E+00-1.68538501E-03 0.00000000E+00 2.14637148E-03
11 21-1.13010068E-03 1.14809783E-04 2.76598417E-03 0.00000000E+00 0.00000000E+00
12  1 0.00000000E+00 0.00000000E+00 0.00000000E+00 0.00000000E+00 0.00000000E+00
12  2 0.00000000E+00 0.00000000E+00 0.00000000E+00 0.00000000E+00 0.00000000E+00
12  3 0.00000000E+00 0.00000000E+00 0.00000000E+00 0.00000000E+00 0.00000000E+00
12  4 0.00000000E+00 1.09160447E-02 0.00000000E+00 0.00000000E+00 0.00000000E+00
12  5 0.00000000E+00 0.00000000E+00 4.65884944E-02 0.00000000E+00 0.00000000E+00
12  6 0.00000000E+00 0.00000000E+00 0.00000000E+00 0.00000000E+00 0.00000000E+00
12  7 0.00000000E+00 0.00000000E+00 0.00000000E+00 0.00000000E+00 6.48092513E-03
12  8 0.00000000E+00 0.00000000E+00 0.00000000E+00 0.00000000E+00 0.00000000E+00
12  9-2.54994578E-01 0.00000000E+00 0.00000000E+00-3.30425879E-01 0.00000000E+00
12 10 0.00000000E+00-2.82405244E-01 0.00000000E+00 0.00000000E+00 0.00000000E+00
12 11 0.00000000E+00-3.53589532E-03 0.00000000E+00 2.36827411E-03 0.00000000E+00
12 12 0.00000000E+00 0.00000000E+00-1.95275972E-02 0.00000000E+00 1.29352236E-02
12 13 0.00000000E+00 1.18341787E-03 0.00000000E+00-2.37141378E-03 0.00000000E+00
12 14 0.00000000E+00 0.00000000E+00 0.00000000E+00 7.83692088E-04 3.69647860E-03
12 15 0.00000000E+00 0.00000000E+00 0.00000000E+00 0.00000000E+00 0.00000000E+00
12 16 2.54994578E-01 0.00000000E+00 0.00000000E+00 3.30425879E-01 0.00000000E+00
12 17 0.00000000E+00 2.82405244E-01 0.00000000E+00 0.00000000E+00 0.00000000E+00
12 18 0.00000000E+00-3.53589532E-03 0.00000000E+00-2.36827411E-03 0.00000000E+00
12 19 0.00000000E+00 0.00000000E+00-1.95275972E-02 0.00000000E+00-1.29352236E-02
12 20 0.00000000E+00-1.18341787E-03 0.00000000E+00 2.37141378E-03 0.00000000E+00
12 21 0.00000000E+00 0.00000000E+00 0.00000000E+00-7.83692088E-04 3.69647860E-03
13  1 0.00000000E+00 0.00000000E+00 0.00000000E+00 0.00000000E+00 0.00000000E+00
13  2 2.69185270E-01 0.00000000E+00 0.00000000E+00 3.48548526E-01 0.00000000E+00
13  3 0.00000000E+00 3.99526867E-01 0.00000000E+00 0.00000000E+00 0.00000000E+00
13  4 0.00000000E+00 0.00000000E+00 0.00000000E+00-2.09288400E-03 0.00000000E+00
13  5 0.00000000E+00 0.00000000E+00 0.00000000E+00 0.00000000E+00-5.54279489E-03
13  6 0.00000000E+00 1.62681192E-03 0.00000000E+00-4.35491121E-04 0.00000000E+00
13  7 0.00000000E+00 0.00000000E+00 0.00000000E+00-1.74710610E-03 0.00000000E+00
13  8 0.00000000E+00 0.00000000E+00 0.00000000E+00 0.00000000E+00 0.00000000E+00
13  9-2.10022361E-01 0.00000000E+00 0.00000000E+00-2.60247496E-01 0.00000000E+00
13 10 0.00000000E+00-3.42539455E-01 0.00000000E+00 0.00000000E+00 0.00000000E+00
13 11 0.00000000E+00 2.88071706E-03 0.00000000E+00-2.06829748E-03 0.00000000E+00
13 12 0.00000000E+00 0.00000000E+00 3.77061189E-03 0.00000000E+00-3.85732205E-03
13 13 0.00000000E+00-1.23343092E-03 0.00000000E+00 5.39167400E-04 0.00000000E+00
13 14 0.00000000E+00 0.00000000E+00 0.00000000E+00 1.11565383E-03 1.53258587E-05
13 15 0.00000000E+00 0.00000000E+00 0.00000000E+00 0.00000000E+00 0.00000000E+00
13 16-2.10022361E-01 0.00000000E+00 0.00000000E+00-2.60247496E-01 0.00000000E+00
13 17 0.00000000E+00-3.42539455E-01 0.00000000E+00 0.00000000E+00 0.00000000E+00
13 18 0.00000000E+00-2.88071706E-03 0.00000000E+00-2.06829748E-03 0.00000000E+00
13 19 0.00000000E+00 0.00000000E+00-3.77061189E-03 0.00000000E+00-3.85732205E-03
13 20 0.00000000E+00-1.23343092E-03 0.00000000E+00 5.39167400E-04 0.00000000E+00
13 21 0.00000000E+00 0.00000000E+00 0.00000000E+00 1.11565383E-03-1.53258587E-05
 $end

! TRAVIS-CI MEDIUM

