!  Multi-reference CEPA-style calculation.
!  The reference here is the 1-A-1 state of CH2: 26 AOs, 56 CSFs
!  This is a famous test case in the literature, see another
!  test case for single and multi-reference MP2 type calculations
!  with this same basis.
!
!   FINAL MCSCF E= -38.9455289892, in 11 iterations
!          E(REF)= -38.9455289892, 104 determinants
!  STATE 1 ENERGY= -39.0269068275, 34,051 determinants, 18 CI iters
!  The MR-AQCC has C0= 0.9530695, dipole= 1.822913,
!           G-VALUE = (Ne-3)(Ne-2)/(Ne(Ne-1)) = 0.4
!
!  We can infer the following energies from Table 1 of
!  P.G.Szalay, T.Muller, H.Lischka  Phys.Chem.Chem.Phys. 2, 2067-2073(2000)
!    MCSCF= -38.945 532 (typed badly in paper, note FCI is correct)
!  MR-CISD= -39.025 804
!  MR-AQCC= -39.026 907   <--- perfect match to this run.
!  MR-ACPF= -39.027 681
!      FCI= -39.027 183
!
!  This run takes 4 seconds on 2.66 GHz Cloverton (22 Oct 2014)
!
 $CONTRL SCFTYP=mcscf MULT=1 RUNTYP=energy cityp=ormas units=bohr $END
 $SYSTEM mwords=1  memddi=1 $END
 $guess  guess=moread norb=26 $END

!      Next lines carry out multireference calculation with determinants
 $det    ncore=1 nact=6 nels=6 $end
 $mcscf  fullnr=.true. $end
 $cidet  ncore=1 nact=25 nels=6 $end
 $ormas  nspace=2 mstart(1)=2,8 mine(1)=4,0 maxe(1)=6,2 cepa=aqcc $end

 $data
Methylene...1-A-1 state...DZP basis of Bauschlicher/Taylor
Cnv  2

Carbon     6.0
  S  6
    1 4232.61    0.002029
    2  634.882   0.015535
    3  146.097   0.075411
    4   42.4974  0.257121
    5   14.1892  0.596555
    6    1.9666  0.242517
  S  1
    1    5.1477  1.0
  S  1
    1    0.4962  1.0
  S  1
    1    0.1533  1.0
  P  4
    1   18.1557  0.018534
    2    3.9864  0.115442
    3    1.1429  0.386206
    4    0.3594  0.640089
  P  1
    1    0.1146  1.0
  D  1
    1    0.51    1.0

Hydrogen   1.0  0.0  1.644403  1.32213
  S  3
    1  19.2406  0.032828
    2   2.8992  0.231208
    3   0.6534  0.817238
  S  1
    1   0.1776  1.0
  P  1
    1   1.0     1.0

 $END

--- RHF ORBITALS --- GENERATED AT 11:01:18 CST 28-OCT-1996
Methylene...1-A-1 state
E(RHF)=      -38.8862971542, E(NUC)=    5.9912725580,    9 ITERS
 $VEC
 1  1 6.01313498E-01 4.37746972E-01 2.72347471E-03 7.99145581E-04 0.00000000E+00
 1  2 0.00000000E+00 2.13462226E-03 0.00000000E+00 0.00000000E+00-4.07812714E-04
 1  3-6.89230599E-04 6.33863620E-04 7.85104853E-04 0.00000000E+00 0.00000000E+00
 1  4 0.00000000E+00-3.07634702E-05-3.99129312E-04 0.00000000E+00-3.10480043E-04
 1  5 7.22078175E-05-3.07634702E-05-3.99129312E-04 0.00000000E+00 3.10480043E-04
 1  6 7.22078175E-05
 2  1-1.16840221E-01-1.54988254E-01 4.45299458E-01 3.03075499E-01 0.00000000E+00
 2  2 0.00000000E+00 1.58773850E-01 0.00000000E+00 0.00000000E+00 1.19165316E-02
 2  3-1.01713086E-02 1.94344889E-02 2.14743675E-02 0.00000000E+00 0.00000000E+00
 2  4 0.00000000E+00 1.77115999E-01 8.60576281E-02 0.00000000E+00 1.46352402E-02
 2  5-9.64552002E-03 1.77115999E-01 8.60576281E-02 0.00000000E+00-1.46352402E-02
 2  6-9.64552002E-03
 3  1 0.00000000E+00 0.00000000E+00 0.00000000E+00 0.00000000E+00 0.00000000E+00
 3  2 5.21055313E-01 0.00000000E+00 0.00000000E+00 9.93668673E-02 0.00000000E+00
 3  3 0.00000000E+00 0.00000000E+00 0.00000000E+00 0.00000000E+00 0.00000000E+00
 3  4 6.02485109E-02-2.26352995E-01-2.21614131E-01 0.00000000E+00-6.17442419E-03
 3  5 1.10161656E-02 2.26352995E-01 2.21614131E-01 0.00000000E+00-6.17442419E-03
 3  6-1.10161656E-02
 4  1 6.00618440E-02 8.26987567E-02-2.41612756E-01-3.95683289E-01 0.00000000E+00
 4  2 0.00000000E+00 5.92380889E-01 0.00000000E+00 0.00000000E+00 2.77644587E-01
 4  3-2.44853921E-02-5.55264903E-03 3.78383353E-02 0.00000000E+00 0.00000000E+00
 4  4 0.00000000E+00 1.08689464E-01 1.10918657E-01 0.00000000E+00 7.67849867E-03
 4  5 5.71147150E-03 1.08689464E-01 1.10918657E-01 0.00000000E+00-7.67849867E-03
 4  6 5.71147150E-03
 5  1 0.00000000E+00 0.00000000E+00 0.00000000E+00 0.00000000E+00 4.97567373E-01
 5  2 0.00000000E+00 0.00000000E+00 6.32507760E-01 0.00000000E+00 0.00000000E+00
 5  3 0.00000000E+00 0.00000000E+00 0.00000000E+00 0.00000000E+00 3.17193676E-02
 5  4 0.00000000E+00 0.00000000E+00 0.00000000E+00 1.38756909E-02 0.00000000E+00
 5  5 0.00000000E+00 0.00000000E+00 0.00000000E+00 1.38756909E-02 0.00000000E+00
 5  6 0.00000000E+00
 6  1-7.04219036E-02-9.44882860E-02 2.96286418E-01 1.99450547E+00 0.00000000E+00
 6  2 0.00000000E+00 2.69599424E-01 0.00000000E+00 0.00000000E+00 1.27125098E+00
 6  3 1.42462831E-02 3.77861797E-02 5.60033963E-02 0.00000000E+00 0.00000000E+00
 6  4 0.00000000E+00-2.29081046E-02-1.70911772E+00 0.00000000E+00-2.41578595E-03
 6  5 9.11686322E-03-2.29081046E-02-1.70911772E+00 0.00000000E+00 2.41578595E-03
 6  6 9.11686322E-03
 7  1 0.00000000E+00 0.00000000E+00 0.00000000E+00 0.00000000E+00 0.00000000E+00
 7  2 2.33631188E-01 0.00000000E+00 0.00000000E+00 1.76641733E+00 0.00000000E+00
 7  3 0.00000000E+00 0.00000000E+00 0.00000000E+00 0.00000000E+00 0.00000000E+00
 7  4 8.37349747E-03 1.02908711E-01 1.52670486E+00 0.00000000E+00 1.72728896E-02
 7  5 6.73795434E-04-1.02908711E-01-1.52670486E+00 0.00000000E+00 1.72728896E-02
 7  6-6.73795434E-04
 8  1 1.92219873E-02 1.35222411E-02-5.17174921E-01 1.71338340E+00 0.00000000E+00
 8  2 0.00000000E+00-7.75346777E-01 0.00000000E+00 0.00000000E+00 1.48948095E+00
 8  3-1.58099669E-01-1.67840970E-01-1.64848294E-01 0.00000000E+00 0.00000000E+00
 8  4 0.00000000E+00-1.08145461E-01-5.68518541E-01 0.00000000E+00-2.26131935E-02
 8  5 5.55126516E-03-1.08145461E-01-5.68518541E-01 0.00000000E+00 2.26131935E-02
 8  6 5.55126516E-03
 9  1 0.00000000E+00 0.00000000E+00 0.00000000E+00 0.00000000E+00 0.00000000E+00
 9  2 9.17446240E-01 0.00000000E+00 0.00000000E+00-7.78233763E-01 0.00000000E+00
 9  3 0.00000000E+00 0.00000000E+00 0.00000000E+00 0.00000000E+00 0.00000000E+00
 9  4-3.24517570E-02-9.63237862E-02 3.43366700E-01 0.00000000E+00-2.79803795E-02
 9  5 3.94686945E-02 9.63237862E-02-3.43366700E-01 0.00000000E+00-2.79803795E-02
 9  6-3.94686945E-02
10  1 0.00000000E+00 0.00000000E+00 0.00000000E+00 0.00000000E+00 1.06824497E+00
10  2 0.00000000E+00 0.00000000E+00-1.00812288E+00 0.00000000E+00 0.00000000E+00
10  3 0.00000000E+00 0.00000000E+00 0.00000000E+00 0.00000000E+00 1.65428607E-02
10  4 0.00000000E+00 0.00000000E+00 0.00000000E+00 2.50989139E-02 0.00000000E+00
10  5 0.00000000E+00 0.00000000E+00 0.00000000E+00 2.50989139E-02 0.00000000E+00
10  6 0.00000000E+00
11  1 6.31437588E-02 5.10541910E-02-1.34252121E+00 3.77214184E+00 0.00000000E+00
11  2 0.00000000E+00 4.66316216E-01 0.00000000E+00 0.00000000E+00 4.57046234E-01
11  3-3.52690759E-01-5.65057829E-01-4.47675767E-01 0.00000000E+00 0.00000000E+00
11  4 0.00000000E+00-1.05246871E-01-1.08219504E+00 0.00000000E+00 5.22519519E-02
11  5-1.57536860E-02-1.05246871E-01-1.08219504E+00 0.00000000E+00-5.22519519E-02
11  6-1.57536860E-02
12  1 0.00000000E+00 0.00000000E+00 0.00000000E+00 0.00000000E+00 0.00000000E+00
12  2-2.58062602E-01 0.00000000E+00 0.00000000E+00 1.23756859E+00 0.00000000E+00
12  3 0.00000000E+00 0.00000000E+00 0.00000000E+00 0.00000000E+00 0.00000000E+00
12  4 6.49394744E-01-6.17168325E-01 1.69585814E+00 0.00000000E+00 6.63239087E-02
12  5-9.95209634E-02 6.17168325E-01-1.69585814E+00 0.00000000E+00 6.63239087E-02
12  6 9.95209634E-02
13  1 6.89452524E-02 9.82391490E-02-9.18112487E-01 2.76337451E+00 0.00000000E+00
13  2 0.00000000E+00-1.06922483E-01 0.00000000E+00 0.00000000E+00 9.68975097E-01
13  3-4.46334940E-01 5.11985621E-01-3.09983756E-01 0.00000000E+00 0.00000000E+00
13  4 0.00000000E+00 6.04808805E-01-1.69264194E+00 0.00000000E+00-1.31490499E-01
13  5-2.62970112E-03 6.04808805E-01-1.69264194E+00 0.00000000E+00 1.31490499E-01
13  6-2.62970112E-03
14  1 0.00000000E+00 0.00000000E+00 0.00000000E+00 0.00000000E+00 0.00000000E+00
14  2 0.00000000E+00 0.00000000E+00 0.00000000E+00 0.00000000E+00 0.00000000E+00
14  3 0.00000000E+00 0.00000000E+00 0.00000000E+00 8.91512056E-01 0.00000000E+00
14  4 0.00000000E+00 0.00000000E+00 0.00000000E+00-1.49678214E-01 0.00000000E+00
14  5 0.00000000E+00 0.00000000E+00 0.00000000E+00 1.49678214E-01 0.00000000E+00
14  6 0.00000000E+00
15  1 2.65031934E-02 4.02976668E-02-3.09983911E-01 8.82390496E-01 0.00000000E+00
15  2 0.00000000E+00-1.42158549E-01 0.00000000E+00 0.00000000E+00 2.96387865E-01
15  3-5.12103422E-01-3.37683460E-01 8.35420285E-01 0.00000000E+00 0.00000000E+00
15  4 0.00000000E+00 2.67587331E-01-6.02460546E-01 0.00000000E+00 3.93611889E-02
15  5 1.38727541E-01 2.67587331E-01-6.02460546E-01 0.00000000E+00-3.93611889E-02
15  6 1.38727541E-01
16  1 0.00000000E+00 0.00000000E+00 0.00000000E+00 0.00000000E+00-8.38086710E-02
16  2 0.00000000E+00 0.00000000E+00-2.04729014E-02 0.00000000E+00 0.00000000E+00
16  3 0.00000000E+00 0.00000000E+00 0.00000000E+00 0.00000000E+00 9.30507903E-01
16  4 0.00000000E+00 0.00000000E+00 0.00000000E+00 1.17684146E-01 0.00000000E+00
16  5 0.00000000E+00 0.00000000E+00 0.00000000E+00 1.17684146E-01 0.00000000E+00
16  6 0.00000000E+00
17  1 4.82494589E-02 9.41709958E-02-8.35990807E-02-9.38065958E-01 0.00000000E+00
17  2 0.00000000E+00-2.04688737E-01 0.00000000E+00 0.00000000E+00-2.94485750E-01
17  3 1.15654685E+00-4.57674182E-01 3.82659512E-02 0.00000000E+00 0.00000000E+00
17  4 0.00000000E+00 6.73482150E-01 8.12092800E-03 0.00000000E+00-7.24218599E-02
17  5 9.59329206E-02 6.73482150E-01 8.12092800E-03 0.00000000E+00 7.24218599E-02
17  6 9.59329206E-02
18  1 0.00000000E+00 0.00000000E+00 0.00000000E+00 0.00000000E+00 0.00000000E+00
18  2 2.61098475E-01 0.00000000E+00 0.00000000E+00 5.97999580E-02 0.00000000E+00
18  3 0.00000000E+00 0.00000000E+00 0.00000000E+00 0.00000000E+00 0.00000000E+00
18  4 1.02613132E+00 9.25933387E-01-4.79669269E-01 0.00000000E+00-1.68859172E-01
18  5 5.98738106E-02-9.25933387E-01 4.79669269E-01 0.00000000E+00-1.68859172E-01
18  6-5.98738106E-02
19  1 0.00000000E+00 0.00000000E+00 0.00000000E+00 0.00000000E+00 0.00000000E+00
19  2-7.29084230E-02 0.00000000E+00 0.00000000E+00-1.29629358E-01 0.00000000E+00
19  3 0.00000000E+00 0.00000000E+00 0.00000000E+00 0.00000000E+00 0.00000000E+00
19  4 2.62795529E-01 7.64944574E-02-5.04855179E-02 0.00000000E+00 4.89586055E-01
19  5 5.40926496E-01-7.64944574E-02 5.04855179E-02 0.00000000E+00 4.89586055E-01
19  6-5.40926496E-01
20  1 0.00000000E+00 0.00000000E+00 0.00000000E+00 0.00000000E+00 0.00000000E+00
20  2 0.00000000E+00 0.00000000E+00 0.00000000E+00 0.00000000E+00 0.00000000E+00
20  3 0.00000000E+00 0.00000000E+00 0.00000000E+00 6.53847790E-01 0.00000000E+00
20  4 0.00000000E+00 0.00000000E+00 0.00000000E+00 7.69091734E-01 0.00000000E+00
20  5 0.00000000E+00 0.00000000E+00 0.00000000E+00-7.69091734E-01 0.00000000E+00
20  6 0.00000000E+00
21  1 0.00000000E+00 0.00000000E+00 0.00000000E+00 0.00000000E+00-2.19211182E-01
21  2 0.00000000E+00 0.00000000E+00-1.64968419E-01 0.00000000E+00 0.00000000E+00
21  3 0.00000000E+00 0.00000000E+00 0.00000000E+00 0.00000000E+00-5.28127741E-01
21  4 0.00000000E+00 0.00000000E+00 0.00000000E+00 7.80509594E-01 0.00000000E+00
21  5 0.00000000E+00 0.00000000E+00 0.00000000E+00 7.80509594E-01 0.00000000E+00
21  6 0.00000000E+00
22  1-1.93993862E-01-4.42279645E-01 1.02558176E+00 2.95564270E+00 0.00000000E+00
22  2 0.00000000E+00-2.17843354E-01 0.00000000E+00 0.00000000E+00 4.32048415E-01
22  3-1.31064278E+00-1.60255103E+00-1.51441069E+00 0.00000000E+00 0.00000000E+00
22  4 0.00000000E+00 5.61129590E-01-8.08793097E-01 0.00000000E+00 7.55180052E-02
22  5-5.17250649E-02 5.61129590E-01-8.08793097E-01 0.00000000E+00-7.55180052E-02
22  6-5.17250649E-02
23  1-2.55639128E-03-4.06948171E-04 9.41421435E-02-2.43835719E-01 0.00000000E+00
23  2 0.00000000E+00-8.10515979E-02 0.00000000E+00 0.00000000E+00-2.22868790E-01
23  3 4.44320690E-02 7.99194282E-01-6.42622058E-01 0.00000000E+00 0.00000000E+00
23  4 0.00000000E+00-6.78890512E-02 8.75540173E-02 0.00000000E+00 4.39030682E-01
23  5 7.20326419E-01-6.78890512E-02 8.75540173E-02 0.00000000E+00-4.39030682E-01
23  6 7.20326419E-01
24  1 0.00000000E+00 0.00000000E+00 0.00000000E+00 0.00000000E+00 0.00000000E+00
24  2 1.20721146E+00 0.00000000E+00 0.00000000E+00 4.35200180E-01 0.00000000E+00
24  3 0.00000000E+00 0.00000000E+00 0.00000000E+00 0.00000000E+00 0.00000000E+00
24  4 1.12475827E+00 7.02924020E-01 6.57399992E-01 0.00000000E+00 7.84348133E-01
24  5-6.87839925E-01-7.02924020E-01-6.57399992E-01 0.00000000E+00 7.84348133E-01
24  6 6.87839925E-01
25  1-5.19262020E-02-7.41615377E-02 5.06301063E-01 8.74247891E-01 0.00000000E+00
25  2 0.00000000E+00 9.08789342E-01 0.00000000E+00 0.00000000E+00 3.19934659E-01
25  3-3.65160189E-01 6.09073794E-01 3.88679130E-01 0.00000000E+00 0.00000000E+00
25  4 0.00000000E+00-5.30175688E-01-6.67458885E-01 0.00000000E+00-8.53566422E-01
25  5 5.59915921E-01-5.30175688E-01-6.67458885E-01 0.00000000E+00 8.53566422E-01
25  6 5.59915921E-01
26  1-1.77645416E+00 2.09105326E+00-5.60530016E-01-7.00554375E-01 0.00000000E+00
26  2 0.00000000E+00-1.01183306E-02 0.00000000E+00 0.00000000E+00-1.08852973E-01
26  3 4.02621261E-01 3.80205454E-01 3.84908469E-01 0.00000000E+00 0.00000000E+00
26  4 0.00000000E+00-4.83865412E-02 1.82297169E-01 0.00000000E+00 2.21146175E-02
26  5-1.40341306E-02-4.83865412E-02 1.82297169E-01 0.00000000E+00-2.21146175E-02
26  6-1.40341306E-02
 $END

! TRAVIS-CI SMALL

