!   Mn2: a test case from Joe, July 2008.
!   It has a very high spin, so tests the code for Sz.ne.0
!   238 AOs and 182 MOs, with 31 alpha and 19 beta electrons, 920 determinants
!           The DM1+DM2 code is requested, as well as the DM1 code
!   We need the latter to get a AO density matrix onto DAF for properties,
!   and the former is just to make sure we can execute that pathway.
!
!   12 Davidson iterations, STATE 1 ENERGY= -2299.7078319442, S= 6.00, SYM=Ag
!        each Mn's s,p,d populations are 7.33, 12.67, 5.00 electrons
!
!   this run takes 30 seconds on 2.66 GHz Cloverton (13 Apr 2015)
!        answers have not changed appreciably since 2008
!
 $contrl scftyp=none cityp=ormas runtyp=energy mult=13
         units=bohr ispher=1 $end
 $system mwords=10 $end
 $guess  guess=moread norb=182 purify=.true.  $end

!           the calculation (NACT/MINE/MAXE) is hard to understand
 $ciinp  nrnfg(1)=1,1,1,0,1,1 $end
 $cidet  group=d2h stsym=Ag ncore=18 nact=18 nels=14 nstate=1 cvgtol=1e-6 $end
 $ormas  nspace=2 mstart(1)=19,27 mine(1)=4,10 maxe(1)=4,10  $end

 $DATA
Mn2...T8-QZ4f2g...sa11 ORMAS full valence 2 groups
Dnh  2

Mn         25.0                  0.0   0.0   3.00
         S    8
    1 268427.9329648   0.0002517
    2  40239.4169105   0.0019511
    3   9157.9407603   0.0101405
    4   2592.2575130   0.0411487
    5    844.0336583   0.1332671
    6    302.5853924   0.3135677
    7    117.3472527   0.4333546
    8     46.4294084   0.2133942
         S    4
    1     312.6335655  -0.0233319
    2      95.8671373  -0.1152245
    3      14.3732679   0.5915724
    4       5.8281853   0.4969598
         S    2
    1       9.4890501  -0.2246899
    2       1.5532203   0.7174934
         S    1
    1       0.6272083   0.4144354
         S    1
    1       0.7446372  -0.1354627
         S    1
    1       0.1009484   0.6223736
         S    1
    1       0.0373267   0.4739122
         P    8
    1    4210.3920292   0.0004356
    2     997.8219695   0.0037668
    3     323.1561251   0.0202023
    4     122.4853622   0.0774291
    5      51.1508563   0.2111495
    6      22.5423856   0.3760223
    7      10.3686239   0.3702188
    8       4.6340739   0.1309700
         P    3
    1      25.6446494  -0.0164328
    2       3.4598063   0.3179786
    3       1.3774746   0.5553345
         P    1
    1       0.5182933   0.2456105
         P    1
    1       0.1793631   0.2757239
         P    1
    1       0.0708056   0.5556419
         P    1
    1       0.0282640   0.2796586
         D    5
    1     133.5445122   0.0020902
    2      39.7924311   0.0162946
    3      14.8160579   0.0665372
    4       6.0928770   0.1809049
    5       2.6306511   0.3159815
         D    1
    1       1.1256468   0.3721924
         D    1
    1       0.4629245   0.2894585
         D    1
    1       0.1734386   0.1054871
         F    1
    1       12.38965900 0.05439000
         F    1
    1       3.77942900  0.36714900
         F    1
    1       1.35970400  0.72878100
         F    1
    1       0.46212100  1.0
         G    1
    1       2.65699700  0.41308800
         G    1
    1       0.69574100  0.78944100

 $END

--- OPTIMIZED MCSCF MO-S --- GENERATED AT Mon Jan 21 10:45:37 2008
E(MCSCF)=    -2299.7563542221, E(NUC)=      104.1666666667
 $VEC
 1  1 7.05727964E-01 3.84524196E-03-2.86148085E-03-8.10857284E-03 1.02049640E-02
 1  2 4.44592468E-04-2.82099753E-04 0.00000000E+00 0.00000000E+00-1.45149388E-06
 1  3 0.00000000E+00 0.00000000E+00 7.34415139E-06 0.00000000E+00 0.00000000E+00
 1  4-2.47236767E-05 0.00000000E+00 0.00000000E+00 2.00263854E-05 0.00000000E+00
 1  5 0.00000000E+00 1.31139407E-04 0.00000000E+00 0.00000000E+00-1.17899965E-04
 1  6 1.73886537E-06 1.73886755E-06-3.47773291E-06 0.00000000E+00 0.00000000E+00
 1  7 0.00000000E+00-7.49517645E-06-7.49517776E-06 1.49903542E-05 0.00000000E+00
 1  8 0.00000000E+00 0.00000000E+00 2.01163277E-05 2.01163356E-05-4.02326633E-05
 1  9 0.00000000E+00 0.00000000E+00 0.00000000E+00-4.54010793E-05-4.54010914E-05
 1 10 9.08021707E-05 0.00000000E+00 0.00000000E+00 0.00000000E+00 0.00000000E+00
 1 11 0.00000000E+00-1.61780358E-06 0.00000000E+00 1.08525285E-06 0.00000000E+00
 1 12 1.08525842E-06 0.00000000E+00 0.00000000E+00 0.00000000E+00 0.00000000E+00
 1 13 0.00000000E+00 5.77606953E-06 0.00000000E+00-3.87470468E-06 0.00000000E+00
 1 14-3.87470579E-06 0.00000000E+00 0.00000000E+00 0.00000000E+00 0.00000000E+00
 1 15 0.00000000E+00-1.36428580E-05 0.00000000E+00 9.15190734E-06 0.00000000E+00
 1 16 9.15190739E-06 0.00000000E+00 0.00000000E+00 0.00000000E+00 0.00000000E+00
 1 17 0.00000000E+00 2.47663472E-05 0.00000000E+00-1.66137748E-05 0.00000000E+00
 1 18-1.66137668E-05 0.00000000E+00 0.00000000E+00 0.00000000E+00-4.63152297E-07
 1 19-4.63151388E-07-1.23507104E-06 0.00000000E+00 0.00000000E+00 0.00000000E+00
 1 20 0.00000000E+00 0.00000000E+00 0.00000000E+00-2.71193473E-07 1.08477612E-06
 1 21 1.08477452E-06 0.00000000E+00 0.00000000E+00 0.00000000E+00 1.73383270E-06
 1 22 1.73383725E-06 4.62355947E-06 0.00000000E+00 0.00000000E+00 0.00000000E+00
 1 23 0.00000000E+00 0.00000000E+00 0.00000000E+00 1.01522940E-06-4.06091484E-06
 1 24-4.06092281E-06 0.00000000E+00 0.00000000E+00 0.00000000E+00-7.05727964E-01
 1 25-3.84524196E-03 2.86148085E-03 8.10857284E-03-1.02049640E-02-4.44592468E-04
 1 26 2.82099753E-04 0.00000000E+00 0.00000000E+00-1.45149388E-06 0.00000000E+00
 1 27 0.00000000E+00 7.34415139E-06 0.00000000E+00 0.00000000E+00-2.47236767E-05
 1 28 0.00000000E+00 0.00000000E+00 2.00263854E-05 0.00000000E+00 0.00000000E+00
 1 29 1.31139407E-04 0.00000000E+00 0.00000000E+00-1.17899965E-04-1.73886537E-06
 1 30-1.73886755E-06 3.47773291E-06 0.00000000E+00 0.00000000E+00 0.00000000E+00
 1 31 7.49517645E-06 7.49517776E-06-1.49903542E-05 0.00000000E+00 0.00000000E+00
 1 32 0.00000000E+00-2.01163277E-05-2.01163356E-05 4.02326633E-05 0.00000000E+00
 1 33 0.00000000E+00 0.00000000E+00 4.54010793E-05 4.54010914E-05-9.08021707E-05
 1 34 0.00000000E+00 0.00000000E+00 0.00000000E+00 0.00000000E+00 0.00000000E+00
 1 35-1.61780358E-06 0.00000000E+00 1.08525285E-06 0.00000000E+00 1.08525842E-06
 1 36 0.00000000E+00 0.00000000E+00 0.00000000E+00 0.00000000E+00 0.00000000E+00
 1 37 5.77606953E-06 0.00000000E+00-3.87470468E-06 0.00000000E+00-3.87470579E-06
 1 38 0.00000000E+00 0.00000000E+00 0.00000000E+00 0.00000000E+00 0.00000000E+00
 1 39-1.36428580E-05 0.00000000E+00 9.15190734E-06 0.00000000E+00 9.15190739E-06
 1 40 0.00000000E+00 0.00000000E+00 0.00000000E+00 0.00000000E+00 0.00000000E+00
 1 41 2.47663472E-05 0.00000000E+00-1.66137748E-05 0.00000000E+00-1.66137668E-05
 1 42 0.00000000E+00 0.00000000E+00 0.00000000E+00 4.63152297E-07 4.63151388E-07
 1 43 1.23507104E-06 0.00000000E+00 0.00000000E+00 0.00000000E+00 0.00000000E+00
 1 44 0.00000000E+00 0.00000000E+00 2.71193473E-07-1.08477612E-06-1.08477452E-06
 1 45 0.00000000E+00 0.00000000E+00 0.00000000E+00-1.73383270E-06-1.73383725E-06
 1 46-4.62355947E-06 0.00000000E+00 0.00000000E+00 0.00000000E+00 0.00000000E+00
 1 47 0.00000000E+00 0.00000000E+00-1.01522940E-06 4.06091484E-06 4.06092281E-06
 1 48 0.00000000E+00 0.00000000E+00 0.00000000E+00
 2  1 7.05731281E-01 3.86878746E-03-2.77558155E-03-7.33030896E-03 9.40404506E-03
 2  2 2.54853213E-04-9.44527952E-05 0.00000000E+00 0.00000000E+00-1.01832489E-07
 2  3 0.00000000E+00 0.00000000E+00-1.82299240E-07 0.00000000E+00 0.00000000E+00
 2  4 3.92907476E-06 0.00000000E+00 0.00000000E+00-1.27718215E-05 0.00000000E+00
 2  5 0.00000000E+00 5.60418120E-06 0.00000000E+00 0.00000000E+00-7.24109691E-06
 2  6 6.31296901E-07 6.31297436E-07-1.26259434E-06 0.00000000E+00 0.00000000E+00
 2  7 0.00000000E+00-1.99802165E-06-1.99802090E-06 3.99604255E-06 0.00000000E+00
 2  8 0.00000000E+00 0.00000000E+00 2.72371616E-06 2.72371482E-06-5.44743097E-06
 2  9 0.00000000E+00 0.00000000E+00 0.00000000E+00 2.10290921E-06 2.10290997E-06
 2 10-4.20581917E-06 0.00000000E+00 0.00000000E+00 0.00000000E+00 0.00000000E+00
 2 11 0.00000000E+00 3.19615323E-08 0.00000000E+00-2.14364942E-08 0.00000000E+00
 2 12-2.14444011E-08 0.00000000E+00 0.00000000E+00 0.00000000E+00 0.00000000E+00
 2 13 0.00000000E+00-3.15347766E-07 0.00000000E+00 2.11539301E-07 0.00000000E+00
 2 14 2.11544124E-07 0.00000000E+00 0.00000000E+00 0.00000000E+00 0.00000000E+00
 2 15 0.00000000E+00 8.57170964E-07 0.00000000E+00-5.75000223E-07 0.00000000E+00
 2 16-5.75015302E-07 0.00000000E+00 0.00000000E+00 0.00000000E+00 0.00000000E+00
 2 17 0.00000000E+00-2.31026075E-06 0.00000000E+00 1.54976299E-06 0.00000000E+00
 2 18 1.54977706E-06 0.00000000E+00 0.00000000E+00 0.00000000E+00-5.74194280E-09
 2 19-5.74076761E-09-1.53102687E-08 0.00000000E+00 0.00000000E+00 0.00000000E+00
 2 20 0.00000000E+00 0.00000000E+00 0.00000000E+00-3.36178295E-09 1.34481953E-08
 2 21 1.34461309E-08 0.00000000E+00 0.00000000E+00 0.00000000E+00-1.77808095E-08
 2 22-1.77868683E-08-4.74241034E-08 0.00000000E+00 0.00000000E+00 0.00000000E+00
 2 23 0.00000000E+00 0.00000000E+00 0.00000000E+00-1.04136180E-08 4.16477459E-08
 2 24 4.16583888E-08 0.00000000E+00 0.00000000E+00 0.00000000E+00 7.05731281E-01
 2 25 3.86878746E-03-2.77558155E-03-7.33030896E-03 9.40404506E-03 2.54853213E-04
 2 26-9.44527952E-05 0.00000000E+00 0.00000000E+00 1.01832489E-07 0.00000000E+00
 2 27 0.00000000E+00 1.82299240E-07 0.00000000E+00 0.00000000E+00-3.92907476E-06
 2 28 0.00000000E+00 0.00000000E+00 1.27718215E-05 0.00000000E+00 0.00000000E+00
 2 29-5.60418120E-06 0.00000000E+00 0.00000000E+00 7.24109691E-06 6.31296901E-07
 2 30 6.31297436E-07-1.26259434E-06 0.00000000E+00 0.00000000E+00 0.00000000E+00
 2 31-1.99802165E-06-1.99802090E-06 3.99604255E-06 0.00000000E+00 0.00000000E+00
 2 32 0.00000000E+00 2.72371616E-06 2.72371482E-06-5.44743097E-06 0.00000000E+00
 2 33 0.00000000E+00 0.00000000E+00 2.10290921E-06 2.10290997E-06-4.20581917E-06
 2 34 0.00000000E+00 0.00000000E+00 0.00000000E+00 0.00000000E+00 0.00000000E+00
 2 35-3.19615323E-08 0.00000000E+00 2.14364942E-08 0.00000000E+00 2.14444011E-08
 2 36 0.00000000E+00 0.00000000E+00 0.00000000E+00 0.00000000E+00 0.00000000E+00
 2 37 3.15347766E-07 0.00000000E+00-2.11539301E-07 0.00000000E+00-2.11544124E-07
 2 38 0.00000000E+00 0.00000000E+00 0.00000000E+00 0.00000000E+00 0.00000000E+00
 2 39-8.57170964E-07 0.00000000E+00 5.75000223E-07 0.00000000E+00 5.75015302E-07
 2 40 0.00000000E+00 0.00000000E+00 0.00000000E+00 0.00000000E+00 0.00000000E+00
 2 41 2.31026075E-06 0.00000000E+00-1.54976299E-06 0.00000000E+00-1.54977706E-06
 2 42 0.00000000E+00 0.00000000E+00 0.00000000E+00-5.74194280E-09-5.74076761E-09
 2 43-1.53102687E-08 0.00000000E+00 0.00000000E+00 0.00000000E+00 0.00000000E+00
 2 44 0.00000000E+00 0.00000000E+00-3.36178295E-09 1.34481953E-08 1.34461309E-08
 2 45 0.00000000E+00 0.00000000E+00 0.00000000E+00-1.77808095E-08-1.77868683E-08
 2 46-4.74241034E-08 0.00000000E+00 0.00000000E+00 0.00000000E+00 0.00000000E+00
 2 47 0.00000000E+00 0.00000000E+00-1.04136180E-08 4.16477459E-08 4.16583888E-08
 2 48 0.00000000E+00 0.00000000E+00 0.00000000E+00
 3  1-2.21756315E-01 7.34521542E-01 4.93158445E-03-2.96275837E-02 3.48442585E-02
 3  2 2.19062876E-03-1.22978855E-03 0.00000000E+00 0.00000000E+00-1.77788080E-05
 3  3 0.00000000E+00 0.00000000E+00 4.35329969E-05 0.00000000E+00 0.00000000E+00
 3  4-1.13693621E-04 0.00000000E+00 0.00000000E+00 8.65734941E-05 0.00000000E+00
 3  5 0.00000000E+00 6.22284953E-04 0.00000000E+00 0.00000000E+00-5.61732763E-04
 3  6 1.14008930E-05 1.14008781E-05-2.28017711E-05 0.00000000E+00 0.00000000E+00
 3  7 0.00000000E+00-3.36930158E-05-3.36930391E-05 6.73860550E-05 0.00000000E+00
 3  8 0.00000000E+00 0.00000000E+00 9.80483840E-05 9.80484033E-05-1.96096787E-04
 3  9 0.00000000E+00 0.00000000E+00 0.00000000E+00-2.15272698E-04-2.15272691E-04
 3 10 4.30545389E-04 0.00000000E+00 0.00000000E+00 0.00000000E+00 0.00000000E+00
 3 11 0.00000000E+00-4.99770919E-06 0.00000000E+00 3.35256269E-06 0.00000000E+00
 3 12 3.35256779E-06 0.00000000E+00 0.00000000E+00 0.00000000E+00 0.00000000E+00
 3 13 0.00000000E+00 2.17123659E-05 0.00000000E+00-1.45650984E-05 0.00000000E+00
 3 14-1.45650973E-05 0.00000000E+00 0.00000000E+00 0.00000000E+00 0.00000000E+00
 3 15 0.00000000E+00-5.71325256E-05 0.00000000E+00 3.83256631E-05 0.00000000E+00
 3 16 3.83256635E-05 0.00000000E+00 0.00000000E+00 0.00000000E+00 0.00000000E+00
 3 17 0.00000000E+00 1.12537561E-04 0.00000000E+00-7.54924937E-05 0.00000000E+00
 3 18-7.54924877E-05 0.00000000E+00 0.00000000E+00 0.00000000E+00-1.78077997E-06
 3 19-1.78076381E-06-4.74873060E-06 0.00000000E+00 0.00000000E+00 0.00000000E+00
 3 20 0.00000000E+00 0.00000000E+00 0.00000000E+00-1.04271813E-06 4.17087208E-06
 3 21 4.17084369E-06 0.00000000E+00 0.00000000E+00 0.00000000E+00 7.82241588E-06
 3 22 7.82241469E-06 2.08597757E-05 0.00000000E+00 0.00000000E+00 0.00000000E+00
 3 23 0.00000000E+00 0.00000000E+00 0.00000000E+00 4.58033881E-06-1.83213520E-05
 3 24-1.83213499E-05 0.00000000E+00 0.00000000E+00 0.00000000E+00 2.21756315E-01
 3 25-7.34521542E-01-4.93158445E-03 2.96275837E-02-3.48442585E-02-2.19062876E-03
 3 26 1.22978855E-03 0.00000000E+00 0.00000000E+00-1.77788080E-05 0.00000000E+00
 3 27 0.00000000E+00 4.35329969E-05 0.00000000E+00 0.00000000E+00-1.13693621E-04
 3 28 0.00000000E+00 0.00000000E+00 8.65734941E-05 0.00000000E+00 0.00000000E+00
 3 29 6.22284953E-04 0.00000000E+00 0.00000000E+00-5.61732763E-04-1.14008930E-05
 3 30-1.14008781E-05 2.28017711E-05 0.00000000E+00 0.00000000E+00 0.00000000E+00
 3 31 3.36930158E-05 3.36930391E-05-6.73860550E-05 0.00000000E+00 0.00000000E+00
 3 32 0.00000000E+00-9.80483840E-05-9.80484033E-05 1.96096787E-04 0.00000000E+00
 3 33 0.00000000E+00 0.00000000E+00 2.15272698E-04 2.15272691E-04-4.30545389E-04
 3 34 0.00000000E+00 0.00000000E+00 0.00000000E+00 0.00000000E+00 0.00000000E+00
 3 35-4.99770919E-06 0.00000000E+00 3.35256269E-06 0.00000000E+00 3.35256779E-06
 3 36 0.00000000E+00 0.00000000E+00 0.00000000E+00 0.00000000E+00 0.00000000E+00
 3 37 2.17123659E-05 0.00000000E+00-1.45650984E-05 0.00000000E+00-1.45650973E-05
 3 38 0.00000000E+00 0.00000000E+00 0.00000000E+00 0.00000000E+00 0.00000000E+00
 3 39-5.71325256E-05 0.00000000E+00 3.83256631E-05 0.00000000E+00 3.83256635E-05
 3 40 0.00000000E+00 0.00000000E+00 0.00000000E+00 0.00000000E+00 0.00000000E+00
 3 41 1.12537561E-04 0.00000000E+00-7.54924937E-05 0.00000000E+00-7.54924877E-05
 3 42 0.00000000E+00 0.00000000E+00 0.00000000E+00 1.78077997E-06 1.78076381E-06
 3 43 4.74873060E-06 0.00000000E+00 0.00000000E+00 0.00000000E+00 0.00000000E+00
 3 44 0.00000000E+00 0.00000000E+00 1.04271813E-06-4.17087208E-06-4.17084369E-06
 3 45 0.00000000E+00 0.00000000E+00 0.00000000E+00-7.82241588E-06-7.82241469E-06
 3 46-2.08597757E-05 0.00000000E+00 0.00000000E+00 0.00000000E+00 0.00000000E+00
 3 47 0.00000000E+00 0.00000000E+00-4.58033881E-06 1.83213520E-05 1.83213499E-05
 3 48 0.00000000E+00 0.00000000E+00 0.00000000E+00
 4  1-2.21744560E-01 7.34633514E-01 5.28389587E-03-2.61346048E-02 3.12535825E-02
 4  2 1.36045033E-03-3.73316034E-04 0.00000000E+00 0.00000000E+00-5.10267086E-06
 4  3 0.00000000E+00 0.00000000E+00-1.14641693E-05 0.00000000E+00 0.00000000E+00
 4  4 1.62589739E-05 0.00000000E+00 0.00000000E+00-4.97487347E-05 0.00000000E+00
 4  5 0.00000000E+00 3.25745343E-05 0.00000000E+00 0.00000000E+00-3.62244407E-05
 4  6 1.25485274E-06 1.25485323E-06-2.50970597E-06 0.00000000E+00 0.00000000E+00
 4  7 0.00000000E+00-1.04461834E-05-1.04461987E-05 2.08923821E-05 0.00000000E+00
 4  8 0.00000000E+00 0.00000000E+00 9.32531017E-06 9.32529837E-06-1.86506085E-05
 4  9 0.00000000E+00 0.00000000E+00 0.00000000E+00 9.63370625E-06 9.63371488E-06
 4 10-1.92674211E-05 0.00000000E+00 0.00000000E+00 0.00000000E+00 0.00000000E+00
 4 11 0.00000000E+00-3.60370614E-07 0.00000000E+00 2.41742252E-07 0.00000000E+00
 4 12 2.41745662E-07 0.00000000E+00 0.00000000E+00 0.00000000E+00 0.00000000E+00
 4 13 0.00000000E+00-8.45496155E-07 0.00000000E+00 5.67179150E-07 0.00000000E+00
 4 14 5.67172976E-07 0.00000000E+00 0.00000000E+00 0.00000000E+00 0.00000000E+00
 4 15 0.00000000E+00 5.03672895E-06 0.00000000E+00-3.37874464E-06 0.00000000E+00
 4 16-3.37873635E-06 0.00000000E+00 0.00000000E+00 0.00000000E+00 0.00000000E+00
 4 17 0.00000000E+00-1.18921984E-05 0.00000000E+00 7.97752728E-06 0.00000000E+00
 4 18 7.97753111E-06 0.00000000E+00 0.00000000E+00 0.00000000E+00 8.02302679E-08
 4 19 8.02504473E-08 2.13980681E-07 0.00000000E+00 0.00000000E+00 0.00000000E+00
 4 20 0.00000000E+00 0.00000000E+00 0.00000000E+00 4.69895585E-08-1.87923662E-07
 4 21-1.87959110E-07 0.00000000E+00 0.00000000E+00 0.00000000E+00-3.47395838E-07
 4 22-3.47399158E-07-9.26408103E-07 0.00000000E+00 0.00000000E+00 0.00000000E+00
 4 23 0.00000000E+00 0.00000000E+00 0.00000000E+00-2.03428123E-07 8.13670646E-07
 4 24 8.13676478E-07 0.00000000E+00 0.00000000E+00 0.00000000E+00-2.21744560E-01
 4 25 7.34633514E-01 5.28389587E-03-2.61346048E-02 3.12535825E-02 1.36045033E-03
 4 26-3.73316034E-04 0.00000000E+00 0.00000000E+00 5.10267086E-06 0.00000000E+00
 4 27 0.00000000E+00 1.14641693E-05 0.00000000E+00 0.00000000E+00-1.62589739E-05
 4 28 0.00000000E+00 0.00000000E+00 4.97487347E-05 0.00000000E+00 0.00000000E+00
 4 29-3.25745343E-05 0.00000000E+00 0.00000000E+00 3.62244407E-05 1.25485274E-06
 4 30 1.25485323E-06-2.50970597E-06 0.00000000E+00 0.00000000E+00 0.00000000E+00
 4 31-1.04461834E-05-1.04461987E-05 2.08923821E-05 0.00000000E+00 0.00000000E+00
 4 32 0.00000000E+00 9.32531017E-06 9.32529837E-06-1.86506085E-05 0.00000000E+00
 4 33 0.00000000E+00 0.00000000E+00 9.63370625E-06 9.63371488E-06-1.92674211E-05
 4 34 0.00000000E+00 0.00000000E+00 0.00000000E+00 0.00000000E+00 0.00000000E+00
 4 35 3.60370614E-07 0.00000000E+00-2.41742252E-07 0.00000000E+00-2.41745662E-07
 4 36 0.00000000E+00 0.00000000E+00 0.00000000E+00 0.00000000E+00 0.00000000E+00
 4 37 8.45496155E-07 0.00000000E+00-5.67179150E-07 0.00000000E+00-5.67172976E-07
 4 38 0.00000000E+00 0.00000000E+00 0.00000000E+00 0.00000000E+00 0.00000000E+00
 4 39-5.03672895E-06 0.00000000E+00 3.37874464E-06 0.00000000E+00 3.37873635E-06
 4 40 0.00000000E+00 0.00000000E+00 0.00000000E+00 0.00000000E+00 0.00000000E+00
 4 41 1.18921984E-05 0.00000000E+00-7.97752728E-06 0.00000000E+00-7.97753111E-06
 4 42 0.00000000E+00 0.00000000E+00 0.00000000E+00 8.02302679E-08 8.02504473E-08
 4 43 2.13980681E-07 0.00000000E+00 0.00000000E+00 0.00000000E+00 0.00000000E+00
 4 44 0.00000000E+00 0.00000000E+00 4.69895585E-08-1.87923662E-07-1.87959110E-07
 4 45 0.00000000E+00 0.00000000E+00 0.00000000E+00-3.47395838E-07-3.47399158E-07
 4 46-9.26408103E-07 0.00000000E+00 0.00000000E+00 0.00000000E+00 0.00000000E+00
 4 47 0.00000000E+00 0.00000000E+00-2.03428123E-07 8.13670646E-07 8.13676478E-07
 4 48 0.00000000E+00 0.00000000E+00 0.00000000E+00
 5  1-7.89186936E-06 2.56022828E-05-4.40778974E-05-1.02234694E-04 4.49902194E-05
 5  2 1.10511648E-04 9.46159664E-05 0.00000000E+00 0.00000000E+00 7.05778993E-01
 5  3 0.00000000E+00 0.00000000E+00 3.22270864E-03 0.00000000E+00 0.00000000E+00
 5  4 7.67994856E-04 0.00000000E+00 0.00000000E+00-4.71187671E-04 0.00000000E+00
 5  5 0.00000000E+00 3.21647757E-04 0.00000000E+00 0.00000000E+00-1.15999310E-04
 5  6 2.97001370E-06 2.97000863E-06-5.94002233E-06 0.00000000E+00 0.00000000E+00
 5  7 0.00000000E+00-1.06773799E-06-1.06776241E-06 2.13550039E-06 0.00000000E+00
 5  8 0.00000000E+00 0.00000000E+00 7.06870221E-06 7.06870880E-06-1.41374110E-05
 5  9 0.00000000E+00 0.00000000E+00 0.00000000E+00-1.52495605E-05-1.52495503E-05
 5 10 3.04991108E-05 0.00000000E+00 0.00000000E+00 0.00000000E+00 0.00000000E+00
 5 11 0.00000000E+00-2.08420821E-06 0.00000000E+00 1.39812924E-06 0.00000000E+00
 5 12 1.39812951E-06 0.00000000E+00 0.00000000E+00 0.00000000E+00 0.00000000E+00
 5 13 0.00000000E+00 3.59896097E-06 0.00000000E+00-2.41426141E-06 0.00000000E+00
 5 14-2.41425142E-06 0.00000000E+00 0.00000000E+00 0.00000000E+00 0.00000000E+00
 5 15 0.00000000E+00-1.10490397E-05 0.00000000E+00 7.41192510E-06 0.00000000E+00
 5 16 7.41191728E-06 0.00000000E+00 0.00000000E+00 0.00000000E+00 0.00000000E+00
 5 17 0.00000000E+00 2.13509054E-05 0.00000000E+00-1.43226244E-05 0.00000000E+00
 5 18-1.43226211E-05 0.00000000E+00 0.00000000E+00 0.00000000E+00-5.01049470E-07
 5 19-5.01055964E-07-1.33614175E-06 0.00000000E+00 0.00000000E+00 0.00000000E+00
 5 20 0.00000000E+00 0.00000000E+00 0.00000000E+00-2.93387458E-07 1.17354104E-06
 5 21 1.17355245E-06 0.00000000E+00 0.00000000E+00 0.00000000E+00 2.27608683E-06
 5 22 2.27608834E-06 6.06956828E-06 0.00000000E+00 0.00000000E+00 0.00000000E+00
 5 23 0.00000000E+00 0.00000000E+00 0.00000000E+00 1.33274164E-06-5.33096159E-06
 5 24-5.33096424E-06 0.00000000E+00 0.00000000E+00 0.00000000E+00-7.89186936E-06
 5 25 2.56022828E-05-4.40778974E-05-1.02234694E-04 4.49902194E-05 1.10511648E-04
 5 26 9.46159664E-05 0.00000000E+00 0.00000000E+00-7.05778993E-01 0.00000000E+00
 5 27 0.00000000E+00-3.22270864E-03 0.00000000E+00 0.00000000E+00-7.67994856E-04
 5 28 0.00000000E+00 0.00000000E+00 4.71187671E-04 0.00000000E+00 0.00000000E+00
 5 29-3.21647757E-04 0.00000000E+00 0.00000000E+00 1.15999310E-04 2.97001370E-06
 5 30 2.97000863E-06-5.94002233E-06 0.00000000E+00 0.00000000E+00 0.00000000E+00
 5 31-1.06773799E-06-1.06776241E-06 2.13550039E-06 0.00000000E+00 0.00000000E+00
 5 32 0.00000000E+00 7.06870221E-06 7.06870880E-06-1.41374110E-05 0.00000000E+00
 5 33 0.00000000E+00 0.00000000E+00-1.52495605E-05-1.52495503E-05 3.04991108E-05
 5 34 0.00000000E+00 0.00000000E+00 0.00000000E+00 0.00000000E+00 0.00000000E+00
 5 35 2.08420821E-06 0.00000000E+00-1.39812924E-06 0.00000000E+00-1.39812951E-06
 5 36 0.00000000E+00 0.00000000E+00 0.00000000E+00 0.00000000E+00 0.00000000E+00
 5 37-3.59896097E-06 0.00000000E+00 2.41426141E-06 0.00000000E+00 2.41425142E-06
 5 38 0.00000000E+00 0.00000000E+00 0.00000000E+00 0.00000000E+00 0.00000000E+00
 5 39 1.10490397E-05 0.00000000E+00-7.41192510E-06 0.00000000E+00-7.41191728E-06
 5 40 0.00000000E+00 0.00000000E+00 0.00000000E+00 0.00000000E+00 0.00000000E+00
 5 41-2.13509054E-05 0.00000000E+00 1.43226244E-05 0.00000000E+00 1.43226211E-05
 5 42 0.00000000E+00 0.00000000E+00 0.00000000E+00-5.01049470E-07-5.01055964E-07
 5 43-1.33614175E-06 0.00000000E+00 0.00000000E+00 0.00000000E+00 0.00000000E+00
 5 44 0.00000000E+00 0.00000000E+00-2.93387458E-07 1.17354104E-06 1.17355245E-06
 5 45 0.00000000E+00 0.00000000E+00 0.00000000E+00 2.27608683E-06 2.27608834E-06
 5 46 6.06956828E-06 0.00000000E+00 0.00000000E+00 0.00000000E+00 0.00000000E+00
 5 47 0.00000000E+00 0.00000000E+00 1.33274164E-06-5.33096159E-06-5.33096424E-06
 5 48 0.00000000E+00 0.00000000E+00 0.00000000E+00
 6  1 7.17873296E-06-1.82455997E-06 1.14963999E-04 6.15748995E-04-5.48084144E-04
 6  2-2.70056777E-04-2.07695538E-04 0.00000000E+00 0.00000000E+00 7.05784125E-01
 6  3 0.00000000E+00 0.00000000E+00 3.19768690E-03 0.00000000E+00 0.00000000E+00
 6  4 8.42871741E-04 0.00000000E+00 0.00000000E+00-5.45546062E-04 0.00000000E+00
 6  5 0.00000000E+00 2.84608895E-04 0.00000000E+00 0.00000000E+00-8.97253041E-05
 6  6-1.46432756E-06-1.46432592E-06 2.92865349E-06 0.00000000E+00 0.00000000E+00
 6  7 0.00000000E+00 4.00890082E-06 4.00884903E-06-8.01774986E-06 0.00000000E+00
 6  8 0.00000000E+00 0.00000000E+00-2.32620949E-05-2.32620459E-05 4.65241409E-05
 6  9 0.00000000E+00 0.00000000E+00 0.00000000E+00 5.40247064E-05 5.40246849E-05
 6 10-1.08049391E-04 0.00000000E+00 0.00000000E+00 0.00000000E+00 0.00000000E+00
 6 11 0.00000000E+00 4.10888182E-07 0.00000000E+00-2.75632253E-07 0.00000000E+00
 6 12-2.75632090E-07 0.00000000E+00 0.00000000E+00 0.00000000E+00 0.00000000E+00
 6 13 0.00000000E+00-8.92019621E-06 0.00000000E+00 5.98382804E-06 0.00000000E+00
 6 14 5.98387102E-06 0.00000000E+00 0.00000000E+00 0.00000000E+00 0.00000000E+00
 6 15 0.00000000E+00 2.35659330E-05 0.00000000E+00-1.58084931E-05 0.00000000E+00
 6 16-1.58085238E-05 0.00000000E+00 0.00000000E+00 0.00000000E+00 0.00000000E+00
 6 17 0.00000000E+00-4.59239483E-05 0.00000000E+00 3.08067125E-05 0.00000000E+00
 6 18 3.08067296E-05 0.00000000E+00 0.00000000E+00 0.00000000E+00 1.01287237E-06
 6 19 1.01289594E-06 2.70103708E-06 0.00000000E+00 0.00000000E+00 0.00000000E+00
 6 20 0.00000000E+00 0.00000000E+00 0.00000000E+00 5.93095357E-07-2.37232735E-06
 6 21-2.37236876E-06 0.00000000E+00 0.00000000E+00 0.00000000E+00-4.38726700E-06
 6 22-4.38727700E-06-1.16993762E-05 0.00000000E+00 0.00000000E+00 0.00000000E+00
 6 23 0.00000000E+00 0.00000000E+00 0.00000000E+00-2.56890957E-06 1.02756711E-05
 6 24 1.02756887E-05 0.00000000E+00 0.00000000E+00 0.00000000E+00-7.17873296E-06
 6 25 1.82455997E-06-1.14963999E-04-6.15748995E-04 5.48084144E-04 2.70056777E-04
 6 26 2.07695538E-04 0.00000000E+00 0.00000000E+00 7.05784125E-01 0.00000000E+00
 6 27 0.00000000E+00 3.19768690E-03 0.00000000E+00 0.00000000E+00 8.42871741E-04
 6 28 0.00000000E+00 0.00000000E+00-5.45546062E-04 0.00000000E+00 0.00000000E+00
 6 29 2.84608895E-04 0.00000000E+00 0.00000000E+00-8.97253041E-05 1.46432756E-06
 6 30 1.46432592E-06-2.92865349E-06 0.00000000E+00 0.00000000E+00 0.00000000E+00
 6 31-4.00890082E-06-4.00884903E-06 8.01774986E-06 0.00000000E+00 0.00000000E+00
 6 32 0.00000000E+00 2.32620949E-05 2.32620459E-05-4.65241409E-05 0.00000000E+00
 6 33 0.00000000E+00 0.00000000E+00-5.40247064E-05-5.40246849E-05 1.08049391E-04
 6 34 0.00000000E+00 0.00000000E+00 0.00000000E+00 0.00000000E+00 0.00000000E+00
 6 35 4.10888182E-07 0.00000000E+00-2.75632253E-07 0.00000000E+00-2.75632090E-07
 6 36 0.00000000E+00 0.00000000E+00 0.00000000E+00 0.00000000E+00 0.00000000E+00
 6 37-8.92019621E-06 0.00000000E+00 5.98382804E-06 0.00000000E+00 5.98387102E-06
 6 38 0.00000000E+00 0.00000000E+00 0.00000000E+00 0.00000000E+00 0.00000000E+00
 6 39 2.35659330E-05 0.00000000E+00-1.58084931E-05 0.00000000E+00-1.58085238E-05
 6 40 0.00000000E+00 0.00000000E+00 0.00000000E+00 0.00000000E+00 0.00000000E+00
 6 41-4.59239483E-05 0.00000000E+00 3.08067125E-05 0.00000000E+00 3.08067296E-05
 6 42 0.00000000E+00 0.00000000E+00 0.00000000E+00-1.01287237E-06-1.01289594E-06
 6 43-2.70103708E-06 0.00000000E+00 0.00000000E+00 0.00000000E+00 0.00000000E+00
 6 44 0.00000000E+00 0.00000000E+00-5.93095357E-07 2.37232735E-06 2.37236876E-06
 6 45 0.00000000E+00 0.00000000E+00 0.00000000E+00 4.38726700E-06 4.38727700E-06
 6 46 1.16993762E-05 0.00000000E+00 0.00000000E+00 0.00000000E+00 0.00000000E+00
 6 47 0.00000000E+00 0.00000000E+00 2.56890957E-06-1.02756711E-05-1.02756887E-05
 6 48 0.00000000E+00 0.00000000E+00 0.00000000E+00
 7  1 0.00000000E+00 0.00000000E+00 0.00000000E+00 0.00000000E+00 0.00000000E+00
 7  2 0.00000000E+00 0.00000000E+00 7.05768692E-01 0.00000000E+00 0.00000000E+00
 7  3 3.25111699E-03 0.00000000E+00 0.00000000E+00 7.71762329E-04 0.00000000E+00
 7  4 0.00000000E+00-4.71722201E-04 0.00000000E+00 0.00000000E+00 2.74539263E-04
 7  5 0.00000000E+00 0.00000000E+00-8.71036611E-05 0.00000000E+00 0.00000000E+00
 7  6 0.00000000E+00 0.00000000E+00 0.00000000E+00 0.00000000E+00-1.63772119E-07
 7  7 0.00000000E+00 0.00000000E+00 0.00000000E+00 0.00000000E+00 0.00000000E+00
 7  8 1.38937665E-06 0.00000000E+00 0.00000000E+00 0.00000000E+00 0.00000000E+00
 7  9 0.00000000E+00-1.26498308E-06 0.00000000E+00 0.00000000E+00 0.00000000E+00
 7 10 0.00000000E+00 0.00000000E+00-1.49469340E-06 0.00000000E+00 8.39396275E-07
 7 11 0.00000000E+00 0.00000000E+00 0.00000000E+00 0.00000000E+00 3.75391778E-07
 7 12 0.00000000E+00-1.50156006E-06 0.00000000E+00 0.00000000E+00-1.63562555E-07
 7 13 0.00000000E+00 0.00000000E+00 0.00000000E+00 0.00000000E+00-7.31715555E-08
 7 14 0.00000000E+00 2.92613751E-07 0.00000000E+00 0.00000000E+00 1.52526568E-06
 7 15 0.00000000E+00 0.00000000E+00 0.00000000E+00 0.00000000E+00 6.82144292E-07
 7 16 0.00000000E+00-2.72850294E-06 0.00000000E+00 0.00000000E+00-2.06468144E-06
 7 17 0.00000000E+00 0.00000000E+00 0.00000000E+00 0.00000000E+00-9.23401656E-07
 7 18 0.00000000E+00 3.69346249E-06 0.00000000E+00 0.00000000E+00 0.00000000E+00
 7 19 0.00000000E+00 0.00000000E+00 0.00000000E+00 4.87063708E-07 0.00000000E+00
 7 20 0.00000000E+00-6.49418396E-07 0.00000000E+00 0.00000000E+00 0.00000000E+00
 7 21 0.00000000E+00 0.00000000E+00 2.17821671E-07 0.00000000E+00 0.00000000E+00
 7 22 0.00000000E+00 0.00000000E+00 0.00000000E+00-2.09923291E-06 0.00000000E+00
 7 23 0.00000000E+00 2.79897990E-06 0.00000000E+00 0.00000000E+00 0.00000000E+00
 7 24 0.00000000E+00 0.00000000E+00-9.38809110E-07 0.00000000E+00 0.00000000E+00
 7 25 0.00000000E+00 0.00000000E+00 0.00000000E+00 0.00000000E+00 0.00000000E+00
 7 26 0.00000000E+00 7.05768692E-01 0.00000000E+00 0.00000000E+00 3.25111699E-03
 7 27 0.00000000E+00 0.00000000E+00 7.71762329E-04 0.00000000E+00 0.00000000E+00
 7 28-4.71722201E-04 0.00000000E+00 0.00000000E+00 2.74539263E-04 0.00000000E+00
 7 29 0.00000000E+00-8.71036611E-05 0.00000000E+00 0.00000000E+00 0.00000000E+00
 7 30 0.00000000E+00 0.00000000E+00 0.00000000E+00 1.63772119E-07 0.00000000E+00
 7 31 0.00000000E+00 0.00000000E+00 0.00000000E+00 0.00000000E+00-1.38937665E-06
 7 32 0.00000000E+00 0.00000000E+00 0.00000000E+00 0.00000000E+00 0.00000000E+00
 7 33 1.26498308E-06 0.00000000E+00 0.00000000E+00 0.00000000E+00 0.00000000E+00
 7 34 0.00000000E+00 1.49469340E-06 0.00000000E+00 8.39396275E-07 0.00000000E+00
 7 35 0.00000000E+00 0.00000000E+00 0.00000000E+00 3.75391778E-07 0.00000000E+00
 7 36-1.50156006E-06 0.00000000E+00 0.00000000E+00-1.63562555E-07 0.00000000E+00
 7 37 0.00000000E+00 0.00000000E+00 0.00000000E+00-7.31715555E-08 0.00000000E+00
 7 38 2.92613751E-07 0.00000000E+00 0.00000000E+00 1.52526568E-06 0.00000000E+00
 7 39 0.00000000E+00 0.00000000E+00 0.00000000E+00 6.82144292E-07 0.00000000E+00
 7 40-2.72850294E-06 0.00000000E+00 0.00000000E+00-2.06468144E-06 0.00000000E+00
 7 41 0.00000000E+00 0.00000000E+00 0.00000000E+00-9.23401656E-07 0.00000000E+00
 7 42 3.69346249E-06 0.00000000E+00 0.00000000E+00 0.00000000E+00 0.00000000E+00
 7 43 0.00000000E+00 0.00000000E+00-4.87063708E-07 0.00000000E+00 0.00000000E+00