!   LiF...test of MCQPDT diabatic state generation, see
!     K.R.Yang, X.Xu, D.G.Truhlar  Chem.Phys.Lett. 573, 84-89(2013)
!   so it is an updated version of HONDO+ test case testD1_01
!     H.Nakamura, D.G.Truhlar  J.Chem.Phys. 117, 5576-5593(2002)
!
!   this run is at the distance 10.5 atomic units,
!   where there is a blip in Figure 3, panel c.
!   Note that no reference orbitals are used: 3-fold way.
!   The active orbitals correspond to Li 2s and F 2s,2p,3p.
!
!   expected results for diabatizing the two states follow.
!
!   CAS level:
!        state            energy    weight in MCSCF   weight in DMO
!           1      -106.8834095741      0.500              0.500
!           2      -106.8763179758      0.500              0.500
!        D3 starts at 62.159999 and ends at 62.17085
!        --- DIABATIC ENERGIES (DIAGONAL ELEMENT) ---
!        STATE #  1's CAS-level diabatic ENERGY=    -106.880430901
!        STATE #  2's CAS-level diabatic ENERGY=    -106.879296649
!        --- DIABATIC COUPLINGS (OFF DIAGONAL ELEMENTS)---
!        STATE #  1 &  2's CAS-level COUPLING  =       0.003500151
!                 - DIABATIC STATES -
!        STATE #  1
!           <CSF>      <COEFFICIENT>
!              1         0.979194
!        STATE #  2
!           <CSF>      <COEFFICIENT>
!             56         0.982415
!
!   MCQDPT level:
!        STATE                  1ST ORDER                   2ND ORDER
!          1     E(MCSCF)= -106.8834095741     E(MP2)= -107.0695300712
!          2     E(MCSCF)= -106.8763179758     E(MP2)= -107.0469144515
!        --- DIABATIC ENERGIES (DIAGONAL ELEMENT) ---
!        STATE #  1's MCQDPT-level diabatic ENERGY=    -107.069292046
!        STATE #  2's MCQDPT-level diabatic ENERGY=    -107.047152477
!        --- DIABATIC COUPLINGS (OFF DIAGONAL ELEMENTS)---
!        STATE #  1 &  2's MCQDPT-level COUPLING  =       0.002307906
!                 - DIABATIC STATES -
!        STATE #  1
!           <CSF>      <COEFFICIENT>
!              1         0.979194
!        STATE #  2
!           <CSF>      <COEFFICIENT>
!             56         0.982415
!        - ROTATION TO DIABATIC STATES -
!          1    0.9947237  -0.1025905
!          2    0.1025905   0.9947237
!
!   This run takes 5 seconds on 2.66 GHz Cloverton (24 Apr 2013)
!
 $contrl scftyp=mcscf mplevl=2 runtyp=energy ispher=0 units=bohr $end
 $system mwords=5 memddi=5 $end
 $guess  guess=moread norb=90 $end

 $mcscf  cistep=guga diabat=.true. $end

 $drt    group=c2v stsym=A1 fors=.true. nmcc=3 ndoc=3 nval=4 $end
 $gugdia nstate=2 cvgtol=1d-7 prttol=0.04 $end
 $gugdm2 wstate(1)=1,1 $end

 $diabat dmosym=.true. refmos=.false. refgrp=.true. slctth=0.05
         nmlap=0 ndlap=0 orient=.false. $end

x$det    stsym=A1 ncore=3 nact=7 nels=6
x        nstate=3 cvgtol=1d-7 wstate(1)=1,1 $end

 $data
LiF test case...Cartesian form of 6-311+(3df)
Cnv 2

Lithium      3.        .0    0.    0.
  n311 6
  D 1 ; 1 0.80 1.0
  D 1 ; 1 0.20 1.0
  D 1 ; 1 0.05 1.0
  F 1 ; 1 0.15 1.0
  S 1 ; 1 0.0052 1.0
  P 1 ; 1 0.0097 1.0

Fluorine  9.0     0.0    0.0   10.5
  n311 6
  D 1 ; 1 7.00 1.0
  D 1 ; 1 1.75 1.0
  D 1 ; 1 0.4375 1.0
  F 1 ; 1 1.85 1.0
  S 1 ; 1 0.089 1.0
  P 1 ; 1 0.083 1.0

 $END

------- CSF's 36 and 90 in HONDO are 1 and 56 in GAMESS' CISTEP=GUGA.
------- the $REFCSF was generated at R=3.0 using REFMOS=.F. and SLCTTH=0.20,
------- as the default selection threshold puts 14 total CSFs in the 2 groups.
 $REFCSF
                     2
       1( 1)
      56( 2)
 1  1 0.98098713E+00-0.34759373E-01
 2  1 0.34254349E-01 0.98355623E+00
 $END

!   this came from original HONDO+ input file.
 $VEC
 1  1 -.38471427E-06 -.46766441E-06  .00000000E+00  .00000000E+00 -.34038505E-06
 1  2  .15568753E-04  .00000000E+00  .00000000E+00  .14436585E-05 -.22053832E-04
 1  3  .00000000E+00  .00000000E+00 -.84812565E-05  .42538812E-06  .42538372E-06
 1  4 -.15918595E-05  .00000000E+00  .00000000E+00  .00000000E+00 -.26921528E-05
 1  5 -.26921988E-05  .42217623E-05  .00000000E+00  .00000000E+00  .00000000E+00
 1  6  .93840763E-05  .93840092E-05 -.60464465E-05  .00000000E+00  .00000000E+00
 1  7  .00000000E+00  .00000000E+00  .00000000E+00  .46578412E-06  .00000000E+00
 1  8  .21591305E-05  .00000000E+00  .21588524E-05  .00000000E+00  .00000000E+00
 1  9  .00000000E+00 -.28971706E-05  .00000000E+00  .00000000E+00 -.67653098E-05
 1 10 -.54756667E+00 -.47432694E+00  .00000000E+00  .00000000E+00  .64404852E-04
 1 11 -.26586272E-02  .00000000E+00  .00000000E+00 -.14735280E-03  .43191101E-02
 1 12  .00000000E+00  .00000000E+00  .18866611E-04 -.82588749E-03 -.82588756E-03
 1 13 -.91382914E-03  .00000000E+00  .00000000E+00  .00000000E+00 -.18233910E-02
 1 14 -.18233908E-02 -.15527738E-02  .00000000E+00  .00000000E+00  .00000000E+00
 1 15 -.13123356E-02 -.13123356E-02 -.13018518E-02  .00000000E+00  .00000000E+00
 1 16  .00000000E+00  .00000000E+00  .00000000E+00  .71636245E-04  .00000000E+00
 1 17  .31979241E-04  .00000000E+00  .31979270E-04  .00000000E+00  .00000000E+00
 1 18  .00000000E+00  .61553243E-04  .00000000E+00  .00000000E+00 -.12128179E-04
 2  1 -.61755536E+00 -.42968934E+00  .00000000E+00  .00000000E+00  .61501009E-03
 2  2 -.23304430E-02  .00000000E+00  .00000000E+00  .24913675E-03 -.31740071E-02
 2  3  .00000000E+00  .00000000E+00 -.71550103E-05  .79202777E-03  .79202787E-03
 2  4  .83352435E-03  .00000000E+00  .00000000E+00  .00000000E+00  .17514170E-02
 2  5  .17514162E-02  .17738280E-02  .00000000E+00  .00000000E+00  .00000000E+00
 2  6  .14104051E-02  .14104032E-02  .14136073E-02  .00000000E+00  .00000000E+00
 2  7  .00000000E+00  .00000000E+00  .00000000E+00 -.26886120E-03  .00000000E+00
 2  8 -.12414204E-03  .00000000E+00 -.12414286E-03  .00000000E+00  .00000000E+00
 2  9  .00000000E+00  .22539434E-03  .00000000E+00  .00000000E+00 -.15017897E-04
 2 10 -.14571620E-06  .91237929E-06  .00000000E+00  .00000000E+00  .54077572E-06
 2 11  .31715146E-05  .00000000E+00  .00000000E+00  .57590280E-05 -.16176395E-04
 2 12  .00000000E+00  .00000000E+00 -.10209438E-04  .84291573E-06  .84288505E-06
 2 13  .36136474E-06  .00000000E+00  .00000000E+00  .00000000E+00  .15889199E-05
 2 14  .15889133E-05  .46329390E-05  .00000000E+00  .00000000E+00  .00000000E+00
 2 15  .12869442E-04  .12867796E-04  .57609067E-06  .00000000E+00  .00000000E+00
 2 16  .00000000E+00  .00000000E+00  .00000000E+00 -.31113016E-06  .00000000E+00
 2 17 -.24789032E-06  .00000000E+00 -.24732216E-06  .00000000E+00  .00000000E+00
 2 18  .00000000E+00  .10138453E-04  .00000000E+00  .00000000E+00  .25535214E-04
 3  1 -.10618526E-04 -.24415440E-04  .00000000E+00  .00000000E+00  .36964029E-04
 3  2  .42101223E-03  .00000000E+00  .00000000E+00 -.19480621E-03 -.43131707E-03
 3  3  .00000000E+00  .00000000E+00 -.18132880E-03 -.92932569E-06 -.93156349E-06
 3  4 -.30288174E-04  .00000000E+00  .00000000E+00  .00000000E+00 -.74486882E-04
 3  5 -.74485321E-04  .89515526E-04  .00000000E+00  .00000000E+00  .00000000E+00
 3  6  .20978854E-03  .20978945E-03 -.31006892E-03  .00000000E+00  .00000000E+00
 3  7  .00000000E+00  .00000000E+00  .00000000E+00  .70542397E-04  .00000000E+00
 3  8  .10601473E-03  .00000000E+00  .10601716E-03  .00000000E+00  .00000000E+00
 3  9  .00000000E+00 -.14646727E-03  .00000000E+00  .00000000E+00 -.27301157E-03
 3 10 -.12433166E+00 -.23230881E+00  .00000000E+00  .00000000E+00  .84645850E-03
 3 11  .65656307E+00  .00000000E+00  .00000000E+00  .11286381E-02  .69742217E+00
 3 12  .00000000E+00  .00000000E+00  .49025823E-03 -.13953599E-01 -.13953599E-01
 3 13 -.14422540E-01  .00000000E+00  .00000000E+00  .00000000E+00 -.47064691E-01
 3 14 -.47064692E-01 -.47225363E-01  .00000000E+00  .00000000E+00  .00000000E+00
 3 15 -.71382014E-01 -.71382012E-01 -.73699696E-01  .00000000E+00  .00000000E+00
 3 16  .00000000E+00  .00000000E+00  .00000000E+00  .34300258E-04  .00000000E+00
 3 17  .13842962E-04  .00000000E+00  .13842823E-04  .00000000E+00  .00000000E+00
 3 18  .00000000E+00  .22857915E-01  .00000000E+00  .00000000E+00 -.20569152E-03
 4  1  .00000000E+00  .00000000E+00  .35267653E-22 -.71037551E-04  .00000000E+00
 4  2  .00000000E+00 -.16477471E-21  .32865263E-03  .00000000E+00  .00000000E+00
 4  3  .42660656E-21 -.86781129E-03  .00000000E+00  .00000000E+00  .00000000E+00
 4  4  .00000000E+00  .00000000E+00 -.23502051E-24  .12480108E-05  .00000000E+00
 4  5  .00000000E+00  .00000000E+00  .00000000E+00  .11445869E-22 -.26988456E-04
 4  6  .00000000E+00  .00000000E+00  .00000000E+00  .00000000E+00  .13387895E-21
 4  7 -.26510763E-03  .55430581E-22 -.11169755E-03  .00000000E+00 -.49936481E-04
 4  8  .00000000E+00  .24797251E-22  .00000000E+00  .59480645E-22 -.11957433E-03
 4  9  .00000000E+00  .00000000E+00 -.31060344E-21  .64295279E-03  .00000000E+00
 4 10  .00000000E+00  .00000000E+00  .15477044E-18 -.30843480E+00  .00000000E+00
 4 11  .00000000E+00  .22890676E-18 -.45647782E+00  .00000000E+00  .00000000E+00
 4 12  .20240784E-18 -.41065008E+00  .00000000E+00  .00000000E+00  .00000000E+00
 4 13  .00000000E+00  .00000000E+00 -.21625014E-22  .44428685E-04  .00000000E+00
 4 14  .00000000E+00  .00000000E+00  .00000000E+00 -.11870423E-22  .28150115E-04
 4 15  .00000000E+00  .00000000E+00  .00000000E+00  .00000000E+00 -.74543597E-21
 4 16  .15439573E-02 -.15548751E-20  .25259899E-02  .00000000E+00  .11296566E-02
 4 17  .00000000E+00 -.69536120E-21  .00000000E+00  .35265436E-21 -.92433952E-03
 4 18  .00000000E+00  .00000000E+00  .51972702E-19 -.10628128E+00  .00000000E+00
 5  1  .00000000E+00  .00000000E+00  .71037549E-04  .45797485E-20  .00000000E+00
 5  2  .00000000E+00 -.32865263E-03  .59372407E-19  .00000000E+00  .00000000E+00
 5  3  .86781125E-03  .26764630E-18  .00000000E+00  .00000000E+00  .00000000E+00
 5  4  .00000000E+00  .00000000E+00 -.12480114E-05 -.19321241E-19  .00000000E+00
 5  5  .00000000E+00  .00000000E+00  .00000000E+00  .26988465E-04  .99449286E-19
 5  6  .00000000E+00  .00000000E+00  .00000000E+00  .00000000E+00  .26510758E-03
 5  7 -.96095964E-19  .11167869E-03  .79416714E-20  .00000000E+00  .35148258E-20
 5  8  .00000000E+00  .49961769E-04  .00000000E+00  .11957433E-03  .18961152E-20
 5  9  .00000000E+00  .00000000E+00 -.64295279E-03 -.47172587E-18  .00000000E+00
 5 10  .00000000E+00  .00000000E+00  .30843480E+00 -.62335817E-16  .00000000E+00
 5 11  .00000000E+00  .45647782E+00 -.84719038E-16  .00000000E+00  .00000000E+00
 5 12  .41065008E+00  .99797066E-16  .00000000E+00  .00000000E+00  .00000000E+00
 5 13  .00000000E+00  .00000000E+00 -.44428690E-04 -.24491540E-19  .00000000E+00
 5 14  .00000000E+00  .00000000E+00  .00000000E+00 -.28150145E-04 -.10713780E-18
 5 15  .00000000E+00  .00000000E+00  .00000000E+00  .00000000E+00 -.15439571E-02
 5 16 -.11544327E-17 -.25259897E-02  .14887109E-16  .00000000E+00  .66577183E-17
 5 17  .00000000E+00 -.11296568E-02  .00000000E+00  .92433953E-03  .53753282E-17
 5 18  .00000000E+00  .00000000E+00  .10628128E+00  .46488335E-16  .00000000E+00
 6  1  .77859700E-03  .24059503E-02  .00000000E+00  .00000000E+00  .14066419E-03
 6  2 -.11143028E-01  .00000000E+00  .00000000E+00  .50003204E-02 -.98354303E-02
 6  3  .00000000E+00  .00000000E+00  .36978311E-02  .49743330E-03  .49743183E-03
 6  4  .57801707E-03  .00000000E+00  .00000000E+00  .00000000E+00  .21858738E-02
 6  5  .21858744E-02  .19852233E-02  .00000000E+00  .00000000E+00  .00000000E+00
 6  6  .23369027E-02  .23369081E-02  .76042925E-02  .00000000E+00  .00000000E+00
 6  7  .00000000E+00  .00000000E+00  .00000000E+00 -.12476183E-02  .00000000E+00
 6  8 -.81076421E-03  .00000000E+00 -.81075758E-03  .00000000E+00  .00000000E+00
 6  9  .00000000E+00  .69539136E-03  .00000000E+00  .00000000E+00 -.34650748E-03
 6 10  .16006177E-03  .22012637E-03  .00000000E+00  .00000000E+00 -.30541888E+00
 6 11 -.17841482E-02  .00000000E+00  .00000000E+00 -.45723116E+00 -.25603827E-02
 6 12  .00000000E+00  .00000000E+00 -.40228792E+00 -.82565827E-04 -.82565723E-04
 6 13  .24766428E-04  .00000000E+00  .00000000E+00  .00000000E+00 -.20866205E-03
 6 14 -.20866368E-03 -.13907203E-03  .00000000E+00  .00000000E+00  .00000000E+00
 6 15 -.21931808E-02 -.21931712E-02  .17662056E-02  .00000000E+00  .00000000E+00
 6 16  .00000000E+00  .00000000E+00  .00000000E+00  .40300498E-03  .00000000E+00
 6 17  .29663745E-02  .00000000E+00  .29663747E-02  .00000000E+00  .00000000E+00
 6 18  .00000000E+00  .12573142E-01  .00000000E+00  .00000000E+00 -.12681662E+00
 7  1 -.40752505E-02 -.96296759E-02  .00000000E+00  .00000000E+00 -.19459878E-03
 7  2  .31182561E-01  .00000000E+00  .00000000E+00 -.21798796E-01  .56618099E-01
 7  3  .00000000E+00  .00000000E+00  .41282756E-02 -.13816452E-02 -.13816510E-02
 7  4 -.81701730E-03  .00000000E+00  .00000000E+00  .00000000E+00 -.36874538E-02
 7  5 -.36875580E-02 -.72189959E-02  .00000000E+00  .00000000E+00  .00000000E+00
 7  6 -.12290930E-01 -.12291042E-01 -.19521206E-01  .00000000E+00  .00000000E+00
 7  7  .00000000E+00  .00000000E+00  .00000000E+00  .38547279E-02  .00000000E+00
 7  8  .13171598E-02  .00000000E+00  .13172350E-02  .00000000E+00  .00000000E+00
 7  9  .00000000E+00 -.57838079E-02  .00000000E+00  .00000000E+00 -.57908478E-02
 7 10 -.15101813E-02 -.21469626E-02  .00000000E+00  .00000000E+00 -.40435923E+00
 7 11  .11986074E-01  .00000000E+00  .00000000E+00 -.60671996E+00  .83198404E-02
 7 12  .00000000E+00  .00000000E+00  .62326898E+00  .41929885E-03  .41929361E-03
 7 13 -.13091286E-04  .00000000E+00  .00000000E+00  .00000000E+00  .15135899E-02
 7 14  .15134785E-02  .86997535E-03  .00000000E+00  .00000000E+00  .00000000E+00
 7 15  .11596307E-01  .11596213E-01 -.64537984E-02  .00000000E+00  .00000000E+00
 7 16  .00000000E+00  .00000000E+00  .00000000E+00  .76773771E-01  .00000000E+00
 7 17  .46459382E-01  .00000000E+00  .46459377E-01  .00000000E+00  .00000000E+00
 7 18  .00000000E+00 -.49172800E-01  .00000000E+00  .00000000E+00  .43715743E+00
 8  1 -.97042053E-01 -.14885026E+00  .00000000E+00  .00000000E+00  .32074843E-03
 8  2  .62283756E+00  .00000000E+00  .00000000E+00  .31489661E-02  .29462518E+00
 8  3  .00000000E+00  .00000000E+00 -.15776401E-02  .15376127E-02  .15376209E-02
 8  4  .15183956E-02  .00000000E+00  .00000000E+00  .00000000E+00  .35076197E-01
 8  5  .35076210E-01  .35255928E-01  .00000000E+00  .00000000E+00  .00000000E+00
 8  6  .40601466E-01  .40601618E-01  .40569804E-01  .00000000E+00  .00000000E+00
 8  7  .00000000E+00  .00000000E+00  .00000000E+00 -.21664596E-03  .00000000E+00
 8  8 -.18159818E-03  .00000000E+00 -.18161050E-03  .00000000E+00  .00000000E+00
 8  9  .00000000E+00  .77086350E-02  .00000000E+00  .00000000E+00 -.83087924E-04
 8 10  .60600965E-03  .11503198E-02  .00000000E+00  .00000000E+00  .22107764E-02
 8 11 -.34265035E-02  .00000000E+00  .00000000E+00  .31039146E-02 -.54667648E-02
 8 12  .00000000E+00  .00000000E+00  .38743512E-02  .56147195E-04  .56146774E-04
 8 13  .92921760E-04  .00000000E+00  .00000000E+00  .00000000E+00  .16606835E-03
 8 14  .16606974E-03  .35559089E-03  .00000000E+00  .00000000E+00  .00000000E+00
 8 15  .40531414E-03  .40530536E-03  .41194766E-03  .00000000E+00  .00000000E+00
 8 16  .00000000E+00  .00000000E+00  .00000000E+00 -.55455250E-04  .00000000E+00
 8 17  .34246301E-04  .00000000E+00  .34246124E-04  .00000000E+00  .00000000E+00
 8 18  .00000000E+00 -.38933407E-02  .00000000E+00  .00000000E+00  .60122573E-02
 9  1  .00000000E+00  .00000000E+00 -.37808053E-20 -.32481628E-04  .00000000E+00
 9  2  .00000000E+00  .17664376E-19 -.42808524E-03  .00000000E+00  .00000000E+00
 9  3 -.45733588E-19 -.19166347E-02  .00000000E+00  .00000000E+00  .00000000E+00
 9  4  .00000000E+00  .00000000E+00  .25194951E-22  .13870425E-03  .00000000E+00
 9  5  .00000000E+00  .00000000E+00  .00000000E+00 -.12270338E-20 -.71381628E-03
 9  6  .00000000E+00  .00000000E+00  .00000000E+00  .00000000E+00 -.14352251E-19
 9  7  .69137590E-03 -.59423357E-20 -.56390147E-04  .00000000E+00 -.24954353E-04
 9  8  .00000000E+00 -.26583446E-20  .00000000E+00 -.63765155E-20 -.12943776E-04
 9  9  .00000000E+00  .00000000E+00  .33297683E-19  .33830224E-02  .00000000E+00
 9 10  .00000000E+00  .00000000E+00 -.16591887E-16  .44924709E+00  .00000000E+00
 9 11  .00000000E+00 -.24539537E-16  .61076899E+00  .00000000E+00  .00000000E+00
 9 12 -.21698768E-16 -.71416708E+00  .00000000E+00  .00000000E+00  .00000000E+00
 9 13  .00000000E+00  .00000000E+00  .23182707E-20  .17558138E-03  .00000000E+00
 9 14  .00000000E+00  .00000000E+00  .00000000E+00  .12725473E-20  .76900720E-03
 9 15  .00000000E+00  .00000000E+00  .00000000E+00  .00000000E+00  .79913121E-19
 9 16  .82792782E-02  .16668759E-18 -.10689180E+00  .00000000E+00 -.47803472E-01
 9 17  .00000000E+00  .74544945E-19  .00000000E+00 -.37805676E-19 -.38585436E-01
 9 18  .00000000E+00  .00000000E+00 -.55716399E-17 -.33315501E+00  .00000000E+00
10  1  .00000000E+00  .00000000E+00 -.32481630E-04 -.82322306E-23  .00000000E+00
10  2  .00000000E+00 -.42808497E-03 -.10672362E-21  .00000000E+00  .00000000E+00
10  3 -.19166348E-02 -.48110198E-21  .00000000E+00  .00000000E+00  .00000000E+00
10  4  .00000000E+00  .00000000E+00  .13870424E-03  .34730490E-22  .00000000E+00
10  5  .00000000E+00  .00000000E+00  .00000000E+00 -.71381639E-03 -.17876298E-21
10  6  .00000000E+00  .00000000E+00  .00000000E+00  .00000000E+00  .69137606E-03
10  7  .17273528E-21 -.56084090E-04 -.14275384E-22  .00000000E+00 -.63180013E-23
10  8  .00000000E+00 -.25365050E-04  .00000000E+00 -.12943818E-04 -.34083221E-23
10  9  .00000000E+00  .00000000E+00  .33830226E-02  .84794092E-21  .00000000E+00
10 10  .00000000E+00  .00000000E+00  .44924709E+00  .11205044E-18  .00000000E+00
10 11  .00000000E+00  .61076899E+00  .15228493E-18  .00000000E+00  .00000000E+00
10 12 -.71416708E+00 -.17938812E-18  .00000000E+00  .00000000E+00  .00000000E+00
10 13  .00000000E+00  .00000000E+00  .17558176E-03  .44024253E-22  .00000000E+00
10 14  .00000000E+00  .00000000E+00  .00000000E+00  .76900849E-03  .19258329E-21
10 15  .00000000E+00  .00000000E+00  .00000000E+00  .00000000E+00  .82792794E-02
10 16  .20751263E-20 -.10689181E+00 -.26760010E-19  .00000000E+00 -.11967442E-19
10 17  .00000000E+00 -.47803461E-01  .00000000E+00 -.38585436E-01 -.96623083E-20
10 18  .00000000E+00  .00000000E+00 -.33315500E+00 -.83564129E-19  .00000000E+00
11  1  .18307476E-01  .37338819E-01  .00000000E+00  .00000000E+00 -.33179225E-01
11  2 -.44821538E-01  .00000000E+00  .00000000E+00 -.20251195E+00 -.65837357E+00
11  3  .00000000E+00  .00000000E+00  .86168901E-01  .36333206E-02  .36333205E-02
11  4  .47183080E-02  .00000000E+00  .00000000E+00  .00000000E+00  .10788855E-01
11  5  .10788859E-01  .66146327E-02  .00000000E+00  .00000000E+00  .00000000E+00
11  6  .47867440E-01  .47867450E-01  .13820534E+00  .00000000E+00  .00000000E+00
11  7  .00000000E+00  .00000000E+00  .00000000E+00  .19862627E-01  .00000000E+00
11  8  .64316854E-02  .00000000E+00  .64316832E-02  .00000000E+00  .00000000E+00
11  9  .00000000E+00  .94491168E+00  .00000000E+00  .00000000E+00 -.67798859E+00
11 10 -.36264312E-03 -.17429683E-02  .00000000E+00  .00000000E+00  .34468381E-02
11 11 -.12187430E-02  .00000000E+00  .00000000E+00  .57284557E-02  .14766203E-01
11 12  .00000000E+00  .00000000E+00  .66104955E-04 -.64743164E-03 -.64743162E-03
11 13 -.65643049E-03  .00000000E+00  .00000000E+00  .00000000E+00 -.25744050E-02
11 14 -.25744046E-02 -.25354744E-02  .00000000E+00  .00000000E+00  .00000000E+00
11 15 -.10458653E-01 -.10458651E-01 -.10672614E-01  .00000000E+00  .00000000E+00
11 16  .00000000E+00  .00000000E+00  .00000000E+00 -.15298905E-03  .00000000E+00
11 17 -.11067494E-03  .00000000E+00 -.11067493E-03  .00000000E+00  .00000000E+00
11 18  .00000000E+00  .59187255E-01  .00000000E+00  .00000000E+00 -.49479918E-01
12  1  .00000000E+00  .00000000E+00  .00000000E+00 -.86566601E-01  .00000000E+00
12  2  .00000000E+00  .00000000E+00 -.26704576E+00  .00000000E+00  .00000000E+00
12  3  .00000000E+00 -.24195588E+00  .00000000E+00  .00000000E+00  .00000000E+00
12  4  .00000000E+00  .00000000E+00  .00000000E+00  .10043257E-02  .00000000E+00
12  5  .00000000E+00  .00000000E+00  .00000000E+00  .00000000E+00 -.40888484E-02
12  6  .00000000E+00  .00000000E+00  .00000000E+00  .00000000E+00  .00000000E+00
12  7  .73597797E-01  .00000000E+00 -.59891090E-02  .00000000E+00 -.26784188E-02
12  8  .00000000E+00  .00000000E+00  .00000000E+00  .00000000E+00 -.17401575E-03
12  9  .00000000E+00  .00000000E+00  .00000000E+00 -.60401200E+00  .00000000E+00
12 10  .00000000E+00  .00000000E+00  .00000000E+00 -.27193080E-02  .00000000E+00
12 11  .00000000E+00  .00000000E+00 -.29508732E-02  .00000000E+00  .00000000E+00
12 12  .00000000E+00 -.36231777E-02  .00000000E+00  .00000000E+00  .00000000E+00
12 13  .00000000E+00  .00000000E+00  .00000000E+00 -.59388148E-05  .00000000E+00
12 14  .00000000E+00  .00000000E+00  .00000000E+00  .00000000E+00  .12715836E-03
12 15  .00000000E+00  .00000000E+00  .00000000E+00  .00000000E+00  .00000000E+00
12 16 -.29387427E-03  .00000000E+00  .14087067E-03  .00000000E+00  .62999267E-04
12 17  .00000000E+00  .00000000E+00  .00000000E+00  .00000000E+00  .36592728E-04
12 18  .00000000E+00  .00000000E+00  .00000000E+00  .58032202E-01  .00000000E+00
13  1  .00000000E+00  .00000000E+00 -.86566603E-01  .00000000E+00  .00000000E+00
13  2  .00000000E+00 -.26704575E+00  .00000000E+00  .00000000E+00  .00000000E+00
13  3 -.24195585E+00  .00000000E+00  .00000000E+00  .00000000E+00  .00000000E+00
13  4  .00000000E+00  .00000000E+00  .10043264E-02  .00000000E+00  .00000000E+00
13  5  .00000000E+00  .00000000E+00  .00000000E+00 -.40888497E-02  .00000000E+00
13  6  .00000000E+00  .00000000E+00  .00000000E+00  .00000000E+00  .73597789E-01
13  7  .00000000E+00 -.59891188E-02  .00000000E+00  .00000000E+00  .00000000E+00
13  8  .00000000E+00 -.26784091E-02  .00000000E+00 -.17401772E-03  .00000000E+00
13  9  .00000000E+00  .00000000E+00 -.60401203E+00  .00000000E+00  .00000000E+00
13 10  .00000000E+00  .00000000E+00 -.27193076E-02  .00000000E+00  .00000000E+00
13 11  .00000000E+00 -.29508732E-02  .00000000E+00  .00000000E+00  .00000000E+00
13 12 -.36231793E-02  .00000000E+00  .00000000E+00  .00000000E+00  .00000000E+00
13 13  .00000000E+00  .00000000E+00 -.59388475E-05  .00000000E+00  .00000000E+00
13 14  .00000000E+00  .00000000E+00  .00000000E+00  .12715831E-03  .00000000E+00
13 15  .00000000E+00  .00000000E+00  .00000000E+00  .00000000E+00 -.29387549E-03
13 16  .00000000E+00  .14087073E-03  .00000000E+00  .00000000E+00  .00000000E+00
13 17  .00000000E+00  .62999367E-04  .00000000E+00  .36592870E-04  .00000000E+00
13 18  .00000000E+00  .00000000E+00  .58032205E-01  .00000000E+00  .00000000E+00
14  1  .34169241E-02  .32673295E-01  .00000000E+00  .00000000E+00  .11322103E+00
14  2  .48889949E+00  .00000000E+00  .00000000E+00  .11967646E+00 -.18406255E+01
14  3  .00000000E+00  .00000000E+00  .53695124E+00  .14754620E-01  .14754619E-01
14  4  .12238755E-01  .00000000E+00  .00000000E+00  .00000000E+00  .52290676E-01
14  5  .52290674E-01  .62258412E-01  .00000000E+00  .00000000E+00  .00000000E+00
14  6  .40325433E+00  .40325428E+00  .19922308E+00  .00000000E+00  .00000000E+00
14  7  .00000000E+00  .00000000E+00  .00000000E+00  .49318374E-01  .00000000E+00
14  8  .26556753E-01  .00000000E+00  .26556758E-01  .00000000E+00  .00000000E+00
14  9  .00000000E+00  .10342248E+01  .00000000E+00  .00000000E+00  .74143684E-01
14 10  .15222285E-02  .53937076E-02  .00000000E+00  .00000000E+00 -.62617025E-02
14 11 -.11202693E-02  .00000000E+00  .00000000E+00 -.10580455E-01 -.40794728E-01
14 12  .00000000E+00  .00000000E+00 -.23832213E-03  .16124205E-02  .16124204E-02
14 13  .16139839E-02  .00000000E+00  .00000000E+00  .00000000E+00  .63122331E-02
14 14  .63122326E-02  .63115685E-02  .00000000E+00  .00000000E+00  .00000000E+00
14 15  .25390637E-01  .25390634E-01  .25150896E-01  .00000000E+00  .00000000E+00
14 16  .00000000E+00  .00000000E+00  .00000000E+00  .30310188E-03  .00000000E+00
14 17  .20741313E-03  .00000000E+00  .20741317E-03  .00000000E+00  .00000000E+00
14 18  .00000000E+00 -.13710963E+00  .00000000E+00  .00000000E+00  .89734819E-01
15  1  .00000000E+00  .00000000E+00  .00000000E+00  .16116679E+00  .00000000E+00
15  2  .00000000E+00  .00000000E+00 -.30337214E+00  .00000000E+00  .00000000E+00
15  3  .00000000E+00  .14585423E+01  .00000000E+00  .00000000E+00  .00000000E+00
15  4  .00000000E+00  .00000000E+00  .00000000E+00 -.24794015E-03  .00000000E+00
15  5  .00000000E+00  .00000000E+00  .00000000E+00  .00000000E+00 -.11032918E-02
15  6  .00000000E+00  .00000000E+00  .00000000E+00  .00000000E+00  .00000000E+00
15  7 -.41263312E-01  .00000000E+00  .16491156E+00  .00000000E+00  .73750687E-01
15  8  .00000000E+00  .00000000E+00  .00000000E+00  .00000000E+00  .72141979E-01
15  9  .00000000E+00  .00000000E+00  .00000000E+00 -.15053557E+01  .00000000E+00
15 10  .00000000E+00  .00000000E+00  .00000000E+00 -.14108933E-02  .00000000E+00
15 11  .00000000E+00  .00000000E+00 -.75436499E-03  .00000000E+00  .00000000E+00
15 12  .00000000E+00 -.45485423E-02  .00000000E+00  .00000000E+00  .00000000E+00
15 13  .00000000E+00  .00000000E+00  .00000000E+00  .27307814E-05  .00000000E+00
15 14  .00000000E+00  .00000000E+00  .00000000E+00  .00000000E+00 -.94379927E-04
15 15  .00000000E+00  .00000000E+00  .00000000E+00  .00000000E+00  .00000000E+00
15 16  .11411830E-03  .00000000E+00  .33503858E-04  .00000000E+00  .14983415E-04
15 17  .00000000E+00  .00000000E+00  .00000000E+00  .00000000E+00  .13195661E-04
15 18  .00000000E+00  .00000000E+00  .00000000E+00  .41679533E-01  .00000000E+00
16  1  .00000000E+00  .00000000E+00  .16116679E+00  .00000000E+00  .00000000E+00
16  2  .00000000E+00 -.30337213E+00  .00000000E+00  .00000000E+00  .00000000E+00
16  3  .14585423E+01  .00000000E+00  .00000000E+00  .00000000E+00  .00000000E+00
16  4  .00000000E+00  .00000000E+00 -.24794004E-03  .00000000E+00  .00000000E+00
16  5  .00000000E+00  .00000000E+00  .00000000E+00 -.11032919E-02  .00000000E+00
16  6  .00000000E+00  .00000000E+00  .00000000E+00  .00000000E+00 -.41263316E-01
16  7  .00000000E+00  .16491155E+00  .00000000E+00  .00000000E+00  .00000000E+00
16  8  .00000000E+00  .73750691E-01  .00000000E+00  .72141977E-01  .00000000E+00
16  9  .00000000E+00  .00000000E+00 -.15053557E+01  .00000000E+00  .00000000E+00
16 10  .00000000E+00  .00000000E+00 -.14108931E-02  .00000000E+00  .00000000E+00
16 11  .00000000E+00 -.75436491E-03  .00000000E+00  .00000000E+00  .00000000E+00
16 12 -.45485426E-02  .00000000E+00  .00000000E+00  .00000000E+00  .00000000E+00
16 13  .00000000E+00  .00000000E+00  .27307678E-05  .00000000E+00  .00000000E+00
16 14  .00000000E+00  .00000000E+00  .00000000E+00 -.94379965E-04  .00000000E+00
16 15  .00000000E+00  .00000000E+00  .00000000E+00  .00000000E+00  .11411806E-03
16 16  .00000000E+00  .33503878E-04  .00000000E+00  .00000000E+00  .00000000E+00
16 17  .00000000E+00  .14983429E-04  .00000000E+00  .13195691E-04  .00000000E+00
16 18  .00000000E+00  .00000000E+00  .41679532E-01  .00000000E+00  .00000000E+00
17  1 -.14273296E-01 -.25971060E-01  .00000000E+00  .00000000E+00  .14996076E+00
17  2  .26038696E+00  .00000000E+00  .00000000E+00 -.35479829E+00 -.11859961E+00
17  3  .00000000E+00  .00000000E+00  .14037115E+01 -.11782589E-02 -.11782591E-02
17  4 -.12302002E-02  .00000000E+00  .00000000E+00  .00000000E+00  .19209429E-02
17  5  .19209393E-02 -.32160093E-02  .00000000E+00  .00000000E+00  .00000000E+00
17  6  .53212021E-01  .53211991E-01 -.17460728E-01  .00000000E+00  .00000000E+00
17  7  .00000000E+00  .00000000E+00  .00000000E+00  .16301296E+00  .00000000E+00
17  8  .75338615E-01  .00000000E+00  .75338618E-01  .00000000E+00  .00000000E+00
17  9  .00000000E+00 -.36830714E+00  .00000000E+00  .00000000E+00 -.15344937E+01
17 10 -.15781966E-02 -.63964324E-02  .00000000E+00  .00000000E+00 -.42922179E-02
17 11 -.12217998E-02  .00000000E+00  .00000000E+00 -.43669594E-02  .53242642E-01
17 12  .00000000E+00  .00000000E+00 -.10225564E-01 -.21165267E-02 -.21165267E-02
17 13 -.21764390E-02  .00000000E+00  .00000000E+00  .00000000E+00 -.86804644E-02
17 14 -.86804649E-02 -.77840174E-02  .00000000E+00  .00000000E+00  .00000000E+00
17 15 -.32978952E-01 -.32978954E-01 -.35529090E-01  .00000000E+00  .00000000E+00
17 16  .00000000E+00  .00000000E+00  .00000000E+00  .11447837E-03  .00000000E+00
17 17  .10127452E-03  .00000000E+00  .10127451E-03  .00000000E+00  .00000000E+00
17 18  .00000000E+00  .18743887E+00  .00000000E+00  .00000000E+00  .11203408E+00
18  1 -.44009531E-01  .47064704E-01  .00000000E+00  .00000000E+00 -.29389968E-01
18  2  .27291693E+01  .00000000E+00  .00000000E+00 -.49895059E+00 -.71421508E+01
18  3  .00000000E+00  .00000000E+00  .27901612E+00  .59512954E-01  .59512955E-01
18  4  .61885102E-01  .00000000E+00  .00000000E+00  .00000000E+00  .26116804E+00
18  5  .26116804E+00  .25260914E+00  .00000000E+00  .00000000E+00  .00000000E+00
18  6  .15330890E+01  .15330891E+01  .17435893E+01  .00000000E+00  .00000000E+00
18  7  .00000000E+00  .00000000E+00  .00000000E+00  .67038368E-01  .00000000E+00
18  8  .27713679E-01  .00000000E+00  .27713674E-01  .00000000E+00  .00000000E+00
18  9  .00000000E+00  .10897032E+01  .00000000E+00  .00000000E+00 -.97119652E-01
18 10 -.51154686E-03 -.16458669E-02  .00000000E+00  .00000000E+00  .49191794E-02
18 11  .73890361E-03  .00000000E+00  .00000000E+00  .57757497E-02  .99065026E-02
18 12  .00000000E+00  .00000000E+00  .93748449E-02 -.45005702E-03 -.45005697E-03
18 13 -.43357743E-03  .00000000E+00  .00000000E+00  .00000000E+00 -.17122091E-02
18 14 -.17122086E-02 -.18095205E-02  .00000000E+00  .00000000E+00  .00000000E+00
18 15 -.76105061E-02 -.76105036E-02 -.66846396E-02  .00000000E+00  .00000000E+00
18 16  .00000000E+00  .00000000E+00  .00000000E+00 -.16189913E-03  .00000000E+00
18 17 -.11290988E-03  .00000000E+00 -.11290986E-03  .00000000E+00  .00000000E+00
18 18  .00000000E+00  .61780456E-01  .00000000E+00  .00000000E+00 -.12945362E+00
19  1 -.72438313E-08 -.42797657E-08  .00000000E+00  .00000000E+00 -.90239188E-09