!   test of MCSCF diabatic state generation: HONDO+ test case test D3_01
!      H.Nakamura, D.G.Truhlar  J.Chem.Phys. 115, 10353-10372(2001)
!      H.Nakamura, D.G.Truhlar  J.Chem.Phys. 117, 5576-5593(2002)
!   LiFH...114 AOs, 114 MOs, 7e- in 8 orbs, 2 states
!
!   expected results for diabatizing the two states in the MCSCF are:
!        STATE            ENERGY    WEIGHT IN MCSCF   WEIGHT IN DMO
!           1      -107.5935620901      0.500              0.500
!           2      -107.5387910632      0.500              0.500
!        --- DIABATIC ENERGIES (DIAGONAL ELEMENT) ---
!        STATE #  1's CAS-level diabatic ENERGY=    -107.539673554
!        STATE #  2's CAS-level diabatic ENERGY=    -107.592679599
!        --- DIABATIC COUPLINGS (OFF DIAGONAL ELEMENTS)---
!        STATE #  1 &  2's CAS-level COUPLING  =       0.006896097
!                 - Diabatic States -
!        State #  1
!        ----------
!           <CSF>      <Coefficient>
!              3         0.953564
!            408        -0.000945
!            410         0.012231
!        State #  2
!        ----------
!           <CSF>      <Coefficient>
!            414         0.966997
!         - rotation to diabatic states -
!           1   -0.1269345   0.9919111
!           2    0.9919111   0.1269345
!
!   This run takes 8 seconds on 2.66 GHz Cloverton (28 Apr 2015)
!   only precision changes since 2012.
!
 $contrl scftyp=mcscf runtyp=energy mult=2 units=bohr $end
 $system mwords=5 memddi=5 $end
 $guess  guess=moread norb=114 $end
 $basis  basnam(1)=libas,fbas,hbas $end

 $mcscf  cistep=guga diabat=.true. $end

 $drt    group=Cs stsym=Ap fors=.true. nmcc=3 ndoc=3 nalp=1 nval=4 $end
 $gugdia nstate=2 cvgtol=1d-7 $end
 $gugdm2 wstate(1)=1,1 $end

 $diabat dmosym=.true. refmos=.true. refgrp=.true.
         nmlap=1 ndlap=0 orient=.false. $end

x$det    stsym=Ap ncore=3 nact=8 nels=7
x        nstate=2 cvgtol=1d-7 wstate(1)=1,1 $end

 $data
LiFH...geometry used for real 4-fold diabatization
CS

Lithium    3.0       -4.001342155009452       0.0   0.0
Fluorine   9.        0.    0.   0.
Hydrogen  1.0   -1.9319785233461816E-05   1.757051039591326    0.0
 $end

!     an attempt to understand how to start diabatization.
!     the paper gives reference geometry to use in $DATA (below),
!     but the orbitals need a lot of iterations to converge there, and
!     they don't end up as p orbitals on Li (rather a few F in-out orbs)
--- $diabat refmos=.false. refgrp=.false. nmlap=0 $end
--- $mcscf  fullnr=.true. maxit=60 $end
--- $data
---LiFH...reactant geom used to prepare reference geometry 3-fold orbitals
---CS
---
---Lithium    3.0       -1.5   0.0       0.0
---Fluorine   9.         0.0   0.0       0.0
---Hydrogen  1.0        +0.865 1.4982239 0.0
--- $end

LiFH example uses custom diffuse augmentation of 6-311G(3df,3pd)
 $libas
    S    6
    1    900.4600000  0.0022870400
    2    134.4330000  0.0176350000
    3     30.4365000  0.0873434000
    4      8.6263900  0.2809770000
    5      2.4833200  0.6587410000
    6      0.3031790  0.1187120000
    L    3
    1      4.8689000  0.0933293000  0.0327661000
    2      0.8569240  0.9430450000  0.1597920000
    3      0.2432270 -0.0027982700  0.8856670000
    L    1
    1      0.0635070  1.0000000000  1.0000000000
    L    1
    1      0.0243683  1.0000000000  1.0000000000
    D    1      
    1      0.8000000  1.0000000000
    D    1
    1      0.2000000  1.0000000000
    D    1
    1      0.0500000  1.0000000000
    F    1
    1      0.1500000  1.0000000000
    S    1
    1      0.0052000  1.0000000000
    P    1
    1      0.0097000  1.0000000000

 $end
 $fbas
    S   6 
    1  11427.1000000  0.0018009300
    2   1722.3500000  0.0137419000
    3    395.7460000  0.0681334000
    4    115.1390000  0.2333250000
    5     33.6026000  0.5890860000
    6      4.9190100  0.2995050000
    L   3
    1     55.4441000  0.1145360000  0.0354609000
    2     12.6323000  0.9205120000  0.2374510000
    3      3.7175600 -0.0033780400  0.8204580000
    L   1
    1      1.1654500  1.0000000000  1.0000000000
    L   1
    1      0.3218920  1.0000000000  1.0000000000
    D   1
    1      7.0000000  1.0000000000
    D   1
    1      1.7500000  1.0000000000
    D   1
    1      0.4375000  1.0000000000
    F   1
    1      1.8500000  1.0000000000
    S   1
    1      0.0890000  1.0000000000
    P   1
    1      0.0830000  1.0000000000
    S   1
    1      0.0000100  1.0000000000

 $end
 $hbas
    S   3
    1     33.8650000  0.0254938000
    2      5.0947900  0.1903730000
    3      1.1587900  0.8521610000
    S   1
    1      0.3258400  1.0000000000
    S   1
    1      0.1027400  1.0000000000
    P   1
    1      3.0000000  1.0000000000
    P   1
    1      0.7500000  1.0000000000
    P   1
    1      0.1875000  1.0000000000
    D   1
    1      1.0000000  1.0000000000
    S   1
    1      0.037000   1.0000000000
    S   1
    1      0.012000   1.0000000000
    P   1
    1      0.055000   1.0000000000

 $end

      HONDO CSF numbering is
     307( 1)    for 22210000
     701( 1)    for 21211000
     703( 1)    for 21211000
     923( 2)    for 22201000
 $refcsf
 4
       3( 1)
     408( 1)
     410( 1)
     414( 2)
 1  1  .26637598E-03 -.96698379E+00  .39206111E-02  .14861844E-02
 2  1  .95354296E+00  .21350559E-03  .11061027E-01  .52647641E-02
 $END   

    ----- DIABATIC ORBITALS  only Li(2s)-----  
 $DIAVEC
  8 1  .97550547E-01  .14907275E+00  .11979608E-03 -.45845471E-03  .00000000E+00
  8 2 -.61920841E+00  .46315625E-04 -.13442038E-02  .00000000E+00 -.29993247E+00
  8 3  .59462774E-03 -.14938954E-02  .00000000E+00 -.15172979E-02 -.15197368E-02
  8 4 -.15164244E-02 -.64142803E-05  .00000000E+00  .00000000E+00 -.34982838E-01
  8 5 -.34983323E-01 -.34976427E-01  .26630035E-05  .00000000E+00  .00000000E+00
  8 6 -.39392504E-01 -.39561280E-01 -.39499706E-01 -.42460989E-03  .00000000E+00
  8 7  .00000000E+00  .88544320E-04 -.74205796E-04  .00000000E+00 -.61196500E-04
  8 8  .00000000E+00  .31254675E-04  .00000000E+00  .35348956E-04 -.33040614E-04
  8 9  .00000000E+00 -.79732025E-02 -.28856161E-03 -.10143294E-03  .00000000E+00
  810 -.35815017E-05 -.82748519E-05 -.20735246E-04  .70995413E-05  .00000000E+00
  811  .11592468E-04 -.15233214E-04  .11674027E-04  .00000000E+00  .78005318E-04
  812  .14350929E-04  .45173460E-04  .00000000E+00 -.12057912E-05 -.14533513E-05
  813 -.11725028E-05 -.39793643E-06  .00000000E+00  .00000000E+00 -.48267910E-05
  814 -.47730955E-05 -.44953400E-05 -.28349646E-06  .00000000E+00  .00000000E+00
  815 -.23652226E-04 -.13589760E-04 -.22233890E-04 -.29558189E-05  .00000000E+00
  816  .00000000E+00  .66771102E-05  .25680589E-05  .00000000E+00  .61706716E-06
  817  .00000000E+00  .24987170E-05  .00000000E+00  .29698262E-05  .65706562E-06
  818  .00000000E+00  .66422700E-04 -.11576207E-03 -.55904900E-04  .00000000E+00
  819  .37732982E-04  .43277225E-05 -.95416197E-04  .12578847E-03  .29942335E-06
  820 -.11463977E-05  .00000000E+00 -.12013966E-05  .32969066E-05  .00000000E+00
  821 -.23403888E-05 -.82728135E-05  .00000000E+00  .54316541E-05  .40965474E-05
  822  .55924954E-05 -.22710459E-05  .00000000E+00  .00000000E+00 -.29244521E-03
  823  .63496349E-03 -.47651924E-04  .15883106E-04  .00000000E+00
 $END   

           reordered manually to match sorted canonical active order.
 $DFMVEC
  2 1 -.29512312E-02  .38359959E-02  .36659926E-01  .27094104E-02  .00000000E+00
  2 2 -.12058583E+00  .16089157E-03 -.11872419E-01  .00000000E+00 -.35300051E-01
  2 3  .57022819E-02 -.44964959E-02  .00000000E+00  .34847851E-02  .14811920E-02
  2 4  .15274911E-02  .10185529E-03  .00000000E+00  .00000000E+00 -.18564290E-02
  2 5 -.15528531E-02 -.22074071E-02  .47844274E-02  .00000000E+00  .00000000E+00
  2 6 -.23963016E-01 -.19989452E-01 -.17289991E-01 -.26528941E-02  .00000000E+00
  2 7  .00000000E+00  .93661289E-04  .11515234E-02  .00000000E+00  .39979502E-02
  2 8  .00000000E+00  .58315735E-02  .00000000E+00  .48102165E-02  .94643978E-03
  2 9  .00000000E+00  .67304811E-03  .49067286E-02  .30144376E-02  .00000000E+00
  210 -.24456143E-01 -.42995280E-01 -.27372260E+00  .11311510E+00  .00000000E+00
  211  .12856841E+00 -.40193419E+00  .16515352E+00  .00000000E+00  .56016136E-01
  212 -.35825045E+00  .12629983E+00  .00000000E+00 -.16969762E-02 -.10290846E-02
  213 -.23043657E-02 -.88698676E-03  .00000000E+00  .00000000E+00 -.71355061E-02
  214  .45306734E-03 -.87951514E-02 -.60221679E-02  .00000000E+00  .00000000E+00
  215  .16328311E-01  .49171647E-02 -.20290940E-02 -.14149085E-01  .00000000E+00
  216  .00000000E+00  .27773523E-02  .14858451E-02  .00000000E+00 -.10274447E-02
  217  .00000000E+00 -.98118701E-03  .00000000E+00  .20672616E-02 -.12986464E-02
  218  .00000000E+00  .40927071E-01 -.48659262E-01  .13445879E-01  .00000000E+00
  219  .39061628E-05  .88904401E-01  .74533324E-01 -.19650474E-01 -.30920903E-02
  220 -.34307990E-02  .00000000E+00 -.16894250E-01 -.23832018E-01  .00000000E+00
  221 -.81538834E-02  .73467880E-02  .00000000E+00  .13736337E-02  .79043800E-02
  222  .15511479E-02  .64257995E-02  .00000000E+00  .00000000E+00  .19931313E-01
  223 -.11878282E-01 -.57840310E-02 -.48172947E-02  .00000000E+00
  1 1  .89433485E-02  .94900191E-02 -.17264494E-01  .47385620E-02  .00000000E+00
  1 2  .24697519E-01  .16971385E-01  .74889242E-02  .00000000E+00 -.30240439E-02
  1 3  .11499029E-01  .37992440E-02  .00000000E+00 -.23016193E-02 -.11145863E-02
  1 4 -.11052653E-02  .52891576E-03  .00000000E+00  .00000000E+00 -.31671434E-02
  1 5 -.13951726E-02 -.28276737E-02  .30720369E-02  .00000000E+00  .00000000E+00
  1 6  .15681688E-01  .92226517E-02  .55705992E-02  .32795357E-02  .00000000E+00
  1 7  .00000000E+00 -.42045927E-03  .43766883E-04  .00000000E+00 -.18083355E-03
  1 8  .00000000E+00 -.21563738E-02  .00000000E+00 -.39602996E-02  .43256735E-03
  1 9  .00000000E+00 -.13378480E-02 -.32245364E-02 -.92566686E-03  .00000000E+00
  110 -.12001251E-01 -.19198468E-01  .14227123E+00  .23412997E+00  .00000000E+00
  111  .51536004E-01  .20939047E+00  .34083760E+00  .00000000E+00 -.41023846E-01
  112  .19307468E+00  .26120760E+00  .00000000E+00 -.14910127E-02  .14465878E-02
  113 -.12137458E-02  .22387424E-03  .00000000E+00  .00000000E+00 -.75225533E-02
  114  .12213832E-01 -.66487181E-02  .22923414E-02  .00000000E+00  .00000000E+00
  115 -.80835250E-02  .19938572E-01  .14292788E-02  .12371209E-02  .00000000E+00
  116  .00000000E+00 -.61322978E-03  .31930135E-02  .00000000E+00 -.20466293E-02
  117  .00000000E+00  .79576256E-03  .00000000E+00 -.67658508E-03 -.25349438E-02
  118  .00000000E+00  .21464129E-01  .20681987E-01  .33638697E-01  .00000000E+00
  119  .34304545E-05  .16775161E+00  .15323768E+00 -.26864499E-01  .16133465E-02
  120 -.53898680E-02  .00000000E+00  .92031856E-02 -.39166651E-01  .00000000E+00
  121  .43053031E-02  .22501844E-01  .00000000E+00  .34448514E-02  .12532481E-01
  122  .23226383E-02 -.36672558E-02  .00000000E+00  .00000000E+00 -.40287517E-01
  123  .62047928E-02  .14130556E-01  .83525228E-02  .00000000E+00
  3 1  .00000000E+00  .00000000E+00  .00000000E+00  .00000000E+00 -.98809501E-02
  3 2  .00000000E+00  .00000000E+00  .00000000E+00 -.11081775E-02  .00000000E+00
  3 3  .00000000E+00  .00000000E+00  .29721646E-02  .00000000E+00  .00000000E+00
  3 4  .00000000E+00  .00000000E+00 -.62493745E-03  .44497824E-04  .00000000E+00
  3 5  .00000000E+00  .00000000E+00  .00000000E+00 -.76254844E-02 -.70370770E-03
  3 6  .00000000E+00  .00000000E+00  .00000000E+00  .00000000E+00 -.40884100E-03
  3 7 -.72337323E-03  .00000000E+00  .00000000E+00 -.17612232E-02  .00000000E+00
  3 8 -.33332218E-02  .00000000E+00 -.70943622E-03  .00000000E+00  .00000000E+00
  3 9 -.12050470E-02  .00000000E+00  .00000000E+00  .00000000E+00 -.67709597E-03
  310  .00000000E+00  .00000000E+00  .00000000E+00  .00000000E+00 -.30966725E+00
  311  .00000000E+00  .00000000E+00  .00000000E+00 -.45824759E+00  .00000000E+00
  312  .00000000E+00  .00000000E+00 -.40596469E+00  .00000000E+00  .00000000E+00
  313  .00000000E+00  .00000000E+00  .26423940E-03 -.88795068E-03  .00000000E+00
  314  .00000000E+00  .00000000E+00  .00000000E+00  .98436182E-03 -.65137478E-02
  315  .00000000E+00  .00000000E+00  .00000000E+00  .00000000E+00  .79982886E-02
  316 -.12605749E-01  .00000000E+00  .00000000E+00  .21867001E-02  .00000000E+00
  317  .23048487E-03  .00000000E+00 -.20168014E-02  .00000000E+00  .00000000E+00
  318 -.57091296E-05  .00000000E+00  .00000000E+00  .00000000E+00 -.52416089E-01
  319  .00000000E+00  .00000000E+00  .00000000E+00  .00000000E+00  .00000000E+00
  320  .00000000E+00 -.34845344E-02  .00000000E+00  .00000000E+00 -.22667024E-01
  321  .00000000E+00  .00000000E+00 -.16981243E-01  .00000000E+00  .00000000E+00
  322  .00000000E+00  .00000000E+00 -.65460962E-04  .89478626E-02  .00000000E+00
  323  .00000000E+00  .00000000E+00  .00000000E+00 -.11300472E-02
  5 1  .60554945E-02  .75205390E-02  .60153511E-01  .14252339E+00  .00000000E+00
  5 2 -.19281313E-01  .17700001E+00  .30695350E+00  .00000000E+00 -.84918834E-02
  5 3  .20408066E+00  .37050630E+00  .00000000E+00 -.23331557E-02 -.12843639E-02
  5 4 -.14389929E-02 -.27831883E-03  .00000000E+00  .00000000E+00 -.14517276E-01
  5 5  .41458579E-02 -.10027818E-01 -.15686372E-02  .00000000E+00  .00000000E+00
  5 6 -.24530551E-01  .39085003E-01 -.36404223E-01  .42107086E-02  .00000000E+00
  5 7  .00000000E+00  .14303699E-01  .42513968E-01  .00000000E+00  .14093463E-01
  5 8  .00000000E+00  .16982966E-01  .00000000E+00  .63167983E-02  .14052081E-01
  5 9  .00000000E+00 -.73495570E-02  .14310426E-01  .41934201E-01  .00000000E+00
  510  .84508043E-02  .15850152E-01  .10064348E-01 -.54879282E-01  .00000000E+00
  511 -.53583230E-01  .14641773E-01 -.82168833E-01  .00000000E+00 -.70045830E-01
  512  .17270783E-01 -.83024898E-01  .00000000E+00  .77106541E-03  .63290472E-03
  513  .78394074E-03 -.23558949E-04  .00000000E+00  .00000000E+00  .29689428E-02
  514  .14340842E-02  .28386906E-02 -.12080801E-02  .00000000E+00  .00000000E+00
  515  .53588049E-03  .98427360E-03  .97167899E-03  .13915556E-03  .00000000E+00
  516  .00000000E+00 -.69580897E-03  .14137580E-03  .00000000E+00  .89448124E-03
  517  .00000000E+00 -.21245085E-03  .00000000E+00 -.33979829E-03  .80167578E-03
  518  .00000000E+00 -.59941690E-01  .62619206E-01 -.70931097E-01  .00000000E+00
  519  .20572567E-04  .10091251E-01  .34585738E-01  .84309907E-01 -.23507650E-03
  520  .21616663E-02  .00000000E+00 -.46436029E-02  .13223740E-01  .00000000E+00
  521 -.19249719E-01  .39863995E-01  .00000000E+00  .95700491E-03 -.13074454E-02
  522 -.14067876E-03  .10789482E-03  .00000000E+00  .00000000E+00  .82304103E-01
  523  .53696839E-01 -.63474893E-01  .12738456E+00  .00000000E+00
  4 1  .90798747E-01  .13739969E+00  .49751213E-01 -.13216884E-01  .00000000E+00
  4 2 -.56072026E+00  .85075114E-01 -.35680461E-01  .00000000E+00 -.30006758E+00
  4 3  .67677546E-01 -.63332862E-02  .00000000E+00 -.94302248E-03 -.37340724E-03
  4 4 -.59068981E-03  .19112885E-03  .00000000E+00  .00000000E+00 -.20375156E-01
  4 5 -.35434522E-01 -.29738248E-01 -.26626369E-02  .00000000E+00  .00000000E+00
  4 6 -.34921733E-01 -.58363745E-01 -.45489361E-01 -.99640584E-02  .00000000E+00
  4 7  .00000000E+00  .23043060E-01 -.58462753E-02  .00000000E+00 -.15425171E-02
  4 8  .00000000E+00  .28525182E-02  .00000000E+00  .66220190E-02 -.14357315E-02
  4 9  .00000000E+00 -.11770385E-02  .10701917E-01  .11588550E-01  .00000000E+00
  410 -.58814764E-02 -.12402774E-01 -.18110555E-01 -.10880353E-01  .00000000E+00
  411  .50035224E-01 -.16627677E-01 -.14106143E-01  .00000000E+00  .61467635E-01
  412  .89835938E-01  .16988054E-01  .00000000E+00 -.41884545E-03 -.13687660E-02
  413 -.97355850E-03 -.30543855E-03  .00000000E+00  .00000000E+00 -.25390444E-02
  414 -.61166671E-02 -.40466286E-02  .62782052E-03  .00000000E+00  .00000000E+00
  415 -.89870741E-02 -.14556093E-02 -.22891684E-02  .55495912E-02  .00000000E+00
  416  .00000000E+00  .11075851E-01  .12065556E-02  .00000000E+00  .63476357E-03
  417  .00000000E+00  .49442751E-02  .00000000E+00  .48914608E-02  .78913872E-03
  418  .00000000E+00  .11078509E+00 -.22148732E-01  .24243764E-01  .00000000E+00
  419  .21096285E-04 -.15890494E-01 -.27774893E-01 -.84998730E-01  .11259707E-02
  420 -.55415331E-03  .00000000E+00  .93167485E-02 -.31117791E-02  .00000000E+00
  421  .17327647E-01 -.94704061E-02  .00000000E+00 -.69003863E-03  .30774029E-03
  422 -.64073653E-04 -.29618982E-02  .00000000E+00  .00000000E+00 -.24302550E-01
  423 -.31581490E-01  .17230505E-01 -.13396568E-01  .00000000E+00
  8 1 -.10800500E-01 -.13150072E-01  .35956543E-01  .27545109E-01  .00000000E+00
  8 2 -.37064802E-01 -.91945095E-02  .70068058E-01  .00000000E+00  .17423333E-01
  8 3  .29465370E-01  .87349655E-01  .00000000E+00  .22653043E-02  .10014499E-02
  8 4  .11332885E-02 -.14072998E-02  .00000000E+00  .00000000E+00  .46646983E-02
  8 5  .45745662E-02  .27345146E-02 -.59663229E-02  .00000000E+00  .00000000E+00
  8 6 -.35845283E-01  .22580235E-03 -.14357163E-01 -.20323888E-02  .00000000E+00
  8 7  .00000000E+00  .98941694E-02  .10407925E-01  .00000000E+00  .30883871E-02
  8 8  .00000000E+00  .84694437E-02  .00000000E+00  .79514985E-02  .26713984E-02
  8 9  .00000000E+00  .49796341E-03  .79002013E-02  .11134691E-01  .00000000E+00
  810 -.34594822E-01 -.73772095E-01  .11977579E+00  .42757012E+00  .00000000E+00
  811  .32317683E+00  .14199448E+00  .62567007E+00  .00000000E+00  .23371654E+00
  812 -.16659432E+00 -.26437135E+00  .00000000E+00 -.86836238E-02 -.82572739E-03
  813 -.68829375E-02 -.15729822E-02  .00000000E+00  .00000000E+00 -.48686482E-01
  814  .94671182E-02 -.42823168E-01 -.84177691E-02  .00000000E+00  .00000000E+00
  815 -.24192268E-01 -.70730339E-01 -.36127093E-01 -.38425746E-02  .00000000E+00
  816  .00000000E+00 -.26982666E-01 -.68070622E-01  .00000000E+00 -.41729819E-01
  817  .00000000E+00 -.10859427E-01  .00000000E+00 -.12065305E-01 -.42119567E-01
  818  .00000000E+00 -.97095415E-02 -.25059674E-01 -.77555757E-01  .00000000E+00
  819 -.18178792E-05 -.33915608E+00 -.41302436E+00  .43809946E-01 -.15008769E-02
  820  .34951540E-02  .00000000E+00 -.10120549E-01  .11431035E+00  .00000000E+00
  821 -.98943766E-02  .38434487E-03  .00000000E+00 -.11600745E-01 -.59398079E-01
  822 -.10382787E-01  .42681080E-02  .00000000E+00  .00000000E+00  .89449211E-01
  823  .45362464E-02 -.34552999E-01  .16329776E-01  .00000000E+00
  6 1  .20451061E-01  .11160097E-01 -.84328618E-01  .13403067E-01  .00000000E+00
  6 2  .23728995E+00  .73450375E-01  .60760772E-01  .00000000E+00  .32745532E-01
  6 3  .30764171E-01  .58332831E-01  .00000000E+00 -.12369802E-01 -.57797739E-02
  6 4 -.56655865E-02 -.27137654E-03  .00000000E+00  .00000000E+00 -.64690907E-02
  6 5 -.71850272E-02 -.90475540E-02 -.83364167E-02  .00000000E+00  .00000000E+00
  6 6  .63885785E-01  .44589621E-01  .28090913E-01  .71360370E-02  .00000000E+00
  6 7  .00000000E+00  .30045961E-02  .29157791E-02  .00000000E+00 -.58333027E-02
  6 8  .00000000E+00 -.14725878E-01  .00000000E+00 -.16170180E-01  .13624942E-03
  6 9  .00000000E+00 -.50750293E-02 -.10310867E-01 -.97238510E-03  .00000000E+00
  610 -.28318254E-01 -.66269430E-01 -.47449565E+00  .86760526E-01  .00000000E+00
  611  .34427014E+00 -.59112129E+00  .14022691E+00  .00000000E+00 -.75092135E-01
  612  .73907324E+00 -.56868438E-01  .00000000E+00 -.21983805E-02 -.83348392E-02
  613 -.90289040E-02 -.54218951E-02  .00000000E+00  .00000000E+00 -.28176999E-01
  614 -.39475671E-01 -.52240284E-01 -.57552516E-02  .00000000E+00  .00000000E+00
  615 -.68527087E-01 -.15409730E-01 -.11227932E-01  .67389117E-01  .00000000E+00
  616  .00000000E+00  .12055182E+00 -.16324811E-01  .00000000E+00 -.11641411E-01
  617  .00000000E+00  .52651561E-01  .00000000E+00  .53725884E-01 -.10111444E-01
  618  .00000000E+00 -.86419582E-01  .14751121E+00  .10359048E-03  .00000000E+00
  619  .60704342E-05 -.86557302E-01 -.81024697E-01  .70361320E-02  .68617907E-02
  620  .16833599E-02  .00000000E+00  .56104284E-01  .36475202E-01  .00000000E+00
  621  .35247090E-01  .11207699E-01  .00000000E+00 -.32844425E-02 -.17267426E-01
  622 -.27212322E-02 -.24129115E-01  .00000000E+00  .00000000E+00 -.80567009E-01
  623  .37503145E-01  .11718899E-01  .34676824E-01  .00000000E+00
  7 1  .00000000E+00  .00000000E+00  .00000000E+00  .00000000E+00 -.24625138E-01
  7 2  .00000000E+00  .00000000E+00  .00000000E+00  .46890993E-03  .00000000E+00
  7 3  .00000000E+00  .00000000E+00  .64639471E-02  .00000000E+00  .00000000E+00
  7 4  .00000000E+00  .00000000E+00 -.16723696E-02  .40755256E-04  .00000000E+00
  7 5  .00000000E+00  .00000000E+00  .00000000E+00 -.20025106E-01 -.18866898E-02
  7 6  .00000000E+00  .00000000E+00  .00000000E+00  .00000000E+00 -.20008150E-03
  7 7 -.34043219E-02  .00000000E+00  .00000000E+00 -.52622373E-02  .00000000E+00
  7 8 -.10244467E-01  .00000000E+00 -.18745650E-02  .00000000E+00  .00000000E+00
  7 9 -.35382863E-02  .00000000E+00  .00000000E+00  .00000000E+00 -.17295181E-02
  710  .00000000E+00  .00000000E+00  .00000000E+00  .00000000E+00  .50269229E+00
  711  .00000000E+00  .00000000E+00  .00000000E+00  .60724924E+00  .00000000E+00
  712  .00000000E+00  .00000000E+00 -.75370619E+00  .00000000E+00  .00000000E+00
  713  .00000000E+00  .00000000E+00 -.43196726E-02  .51900170E-02  .00000000E+00
  714  .00000000E+00  .00000000E+00  .00000000E+00 -.13057761E-01  .36602388E-02
  715  .00000000E+00  .00000000E+00  .00000000E+00  .00000000E+00  .26060540E-01
  716 -.65914807E-01  .00000000E+00  .00000000E+00 -.12708037E+00  .00000000E+00
  717 -.56863581E-01  .00000000E+00 -.54428857E-01  .00000000E+00  .00000000E+00
  718  .81770299E-03  .00000000E+00  .00000000E+00  .00000000E+00 -.14040292E+00
  719  .00000000E+00  .00000000E+00  .00000000E+00  .00000000E+00  .00000000E+00
  720  .00000000E+00 -.71474587E-02  .00000000E+00  .00000000E+00 -.64530260E-01
  721  .00000000E+00  .00000000E+00 -.55092869E-01  .00000000E+00  .00000000E+00
  722  .00000000E+00  .00000000E+00  .61054640E-03  .28014348E-01  .00000000E+00
  723  .00000000E+00  .00000000E+00  .00000000E+00  .54856816E-02
 $END   

--- OPTIMIZED MCSCF MO-S --- GENERATED AT Mon Jul 23 10:10:44 2012
LiFH...custom diffuse augmenation of 6-311G(3df,3pd)                            
E(MCSCF)=     -107.5661765750, E(NUC)=       12.5564371981
 $VEC   
 1  1-5.87537136E-06 6.29613123E-06-6.70573601E-05 1.90859928E-05 0.00000000E+00
 1  2 9.41697843E-05 1.50345086E-04 3.86157109E-05 0.00000000E+00 3.20730172E-05
 1  3 1.30826729E-05 1.83512064E-05 0.00000000E+00-1.56422641E-05-4.38439389E-06
 1  4-9.86345330E-07-1.56182136E-06 0.00000000E+00 0.00000000E+00-1.07815597E-04
 1  5 1.49662197E-05-4.07838880E-06 2.10775844E-05 0.00000000E+00 0.00000000E+00
 1  6 3.40067875E-05 3.09264196E-05 3.80044887E-06 2.94737332E-05 0.00000000E+00
 1  7 0.00000000E+00-1.22654221E-04 9.31431398E-06 0.00000000E+00 3.51036918E-06
 1  8 0.00000000E+00 8.21867879E-06 0.00000000E+00-1.80946065E-05 1.39867552E-05
 1  9 0.00000000E+00 7.30361395E-06 5.03423024E-06-1.18651524E-06 0.00000000E+00
 1 10 5.47469538E-01 4.74260677E-01-2.83017940E-04 2.36105028E-03 0.00000000E+00
 1 11 3.26385015E-03 7.15954905E-04-3.52188973E-03 0.00000000E+00-5.65548627E-03
 1 12-1.37512363E-04 1.00762610E-03 0.00000000E+00 8.93051013E-04 1.00036330E-03
 1 13 8.83703713E-04 1.91999579E-07 0.00000000E+00 0.00000000E+00 1.92482821E-03
 1 14 1.71026448E-03 1.95053250E-03-3.64122880E-06 0.00000000E+00 0.00000000E+00
 1 15 1.92713701E-03 1.82669757E-03 1.87786795E-03-1.74504114E-05 0.00000000E+00
 1 16 0.00000000E+00-3.27129194E-04 1.95970166E-03 0.00000000E+00 8.58668849E-04
 1 17 0.00000000E+00-1.42412753E-04 0.00000000E+00-1.42956434E-04 8.57989499E-04
 1 18 0.00000000E+00 7.50197592E-04-2.78091277E-05 2.20835362E-04 0.00000000E+00
 1 19-3.50805924E-08 6.21197519E-04-7.21648033E-05-9.95450057E-04-1.34646839E-06
 1 20-1.00547302E-06 0.00000000E+00 7.67111025E-06-4.71208801E-04 0.00000000E+00
 1 21 2.62122452E-05 4.91204733E-04 0.00000000E+00 6.14662173E-05 2.45462636E-04
 1 22 6.53114216E-05-3.22928128E-06 0.00000000E+00 0.00000000E+00-1.25083766E-04
 1 23-1.88300764E-05 9.20125243E-05 4.72156941E-05 0.00000000E+00
 2  1 6.17313417E-01 4.29272580E-01-4.10890835E-06 3.29378526E-04 0.00000000E+00
 2  2 3.91868544E-03 6.07261956E-04 1.15060453E-04 0.00000000E+00 5.90480675E-03
 2  3 2.83831648E-04 5.14245967E-05 0.00000000E+00-9.63524071E-04-6.60079795E-04
 2  4-4.25262623E-04-2.32109147E-05 0.00000000E+00 0.00000000E+00-1.42902727E-03
 2  5-1.77472446E-03-2.17215288E-03 3.91782209E-04 0.00000000E+00 0.00000000E+00
 2  6-1.47911914E-03-2.12185612E-03-2.32219010E-03 2.29161943E-04 0.00000000E+00
 2  7 0.00000000E+00 6.39251577E-04-1.62350810E-05 0.00000000E+00 2.54678754E-04
 2  8 0.00000000E+00 1.31366824E-04 0.00000000E+00-1.36514093E-04-5.31954912E-05
 2  9 0.00000000E+00 1.04914889E-04 3.45462548E-04 1.57104755E-04 0.00000000E+00
 2 10-3.90915661E-04-7.31540449E-04-9.91855573E-05-3.06470754E-04 0.00000000E+00
 2 11 2.01314666E-03-2.42820431E-04-4.41191465E-04 0.00000000E+00 2.53523660E-03
 2 12-2.88654404E-04 2.62738143E-04 0.00000000E+00-3.28265341E-05-7.02860681E-05
 2 13-6.29830262E-05 5.94586817E-07 0.00000000E+00 0.00000000E+00-1.29976588E-04
 2 14-1.66655462E-04-1.89900566E-04-8.65011980E-07 0.00000000E+00 0.00000000E+00
 2 15 2.52711997E-04-1.52567317E-04-3.83117130E-04-2.26337906E-04 0.00000000E+00
 2 16 0.00000000E+00 3.87091858E-05 2.67132633E-05 0.00000000E+00 1.34754710E-05
 2 17 0.00000000E+00 1.91112148E-05 0.00000000E+00 7.80939139E-05-4.52291875E-06
 2 18 0.00000000E+00 1.41884774E-03 4.46802736E-04 6.38926446E-04 0.00000000E+00
 2 19 5.03113784E-07 7.52876731E-07-8.74901406E-04-3.00023483E-03-4.01876123E-05
 2 20-3.64661022E-05 0.00000000E+00 1.94525300E-04 2.71583224E-04 0.00000000E+00
 2 21 6.19776330E-04 6.89749554E-04 0.00000000E+00-9.17955266E-05-7.86948637E-05
 2 22 4.51006381E-05-1.19223638E-04 0.00000000E+00 0.00000000E+00-7.21373194E-04
 2 23-1.05017985E-03 8.37046491E-06 4.16986752E-04 0.00000000E+00
 3  1-4.36733313E-03-3.42104358E-03 7.17422329E-04-2.65369833E-03 0.00000000E+00
 3  2 7.24203940E-03 8.35597009E-03 4.98373441E-04 0.00000000E+00-3.00203802E-03
 3  3-6.20615063E-04 3.61510341E-04 0.00000000E+00 7.10573641E-04 5.30863732E-05
 3  4 4.42597428E-05-1.83853834E-04 0.00000000E+00 0.00000000E+00 1.95242327E-03
 3  5-9.42253206E-04-2.52804290E-04-2.18586149E-03 0.00000000E+00 0.00000000E+00
 3  6 3.82980139E-03 2.60324506E-04 7.61396932E-04-5.42083442E-05 0.00000000E+00
 3  7 0.00000000E+00-2.37840977E-04-6.17728351E-04 0.00000000E+00-1.14974869E-03
 3  8 0.00000000E+00-1.65891451E-03 0.00000000E+00-7.88560159E-04-4.46432320E-04
 3  9 0.00000000E+00 2.51062533E-04 1.58760818E-04-8.65749365E-06 0.00000000E+00
 3 10-1.20189085E-01-2.24437571E-01 4.25913463E-02-7.44629642E-02 0.00000000E+00
 3 11 6.26950284E-01 6.32585921E-02-1.06613302E-01 0.00000000E+00 6.97701983E-01
 3 12 5.08009313E-02-9.42103734E-02 0.00000000E+00-1.34751330E-02-1.41692479E-02
 3 13-1.34168341E-02 1.51832227E-04 0.00000000E+00 0.00000000E+00-4.57687327E-02
 3 14-4.44099172E-02-4.60481640E-02 1.21347525E-03 0.00000000E+00 0.00000000E+00
 3 15-7.39193155E-02-7.97072052E-02-7.54551268E-02 3.33783529E-03 0.00000000E+00
 3 16 0.00000000E+00-2.02526157E-04 1.22150157E-03 0.00000000E+00-1.73386160E-04
 3 17 0.00000000E+00 4.22071061E-04 0.00000000E+00 3.81909440E-05-9.58707699E-06
 3 18 0.00000000E+00 8.95732145E-03 1.01684525E-02-7.57114930E-03 0.00000000E+00
 3 19-1.66592719E-06 1.43178199E-02-1.75003488E-02-1.12067052E-02 4.33718644E-04
 3 20-3.36031853E-03 0.00000000E+00 3.48074571E-03-4.14385073E-03 0.00000000E+00
 3 21 2.26857403E-03-5.85746120E-03 0.00000000E+00-1.23586210E-03 9.38889862E-05
 3 22-9.60097460E-04-1.34604797E-03 0.00000000E+00 0.00000000E+00-1.97890666E-03
 3 23-1.65575300E-04 2.25321496E-04 1.42041873E-03 0.00000000E+00
 4  1-4.37853113E-03-4.68928239E-03 3.51837952E-03 6.27876439E-03 0.00000000E+00
 4  2 4.44632063E-03 3.95341226E-03 1.27924370E-03 0.00000000E+00 7.51228270E-03
 4  3 4.70649650E-03-3.82010915E-04 0.00000000E+00 4.36541542E-04 7.62989708E-05
 4  4 1.35528739E-04 4.58080610E-04 0.00000000E+00 0.00000000E+00-1.44286598E-03
 4  5 1.65220649E-03-4.24037447E-04 5.62824371E-03 0.00000000E+00 0.00000000E+00
 4  6 1.37150933E-03 9.56415035E-04-1.34206243E-03 1.97366826E-03 0.00000000E+00
 4  7 0.00000000E+00-2.75600665E-03 1.21052793E-03 0.00000000E+00 2.42721781E-03
 4  8 0.00000000E+00 1.52169769E-03 0.00000000E+00-8.80812793E-04 1.02350595E-03
 4  9 0.00000000E+00-4.90198113E-04-6.91319919E-04-2.38573134E-04 0.00000000E+00
 4 10-2.38416000E-02-4.02250104E-02-5.73303071E-02 2.53050541E-01 0.00000000E+00
 4 11 1.14448133E-01-8.46009024E-02 3.68527387E-01 0.00000000E+00-4.30544016E-03
 4 12-7.85263650E-02 2.80417268E-01 0.00000000E+00-2.15577082E-03 6.22261191E-04
 4 13-2.27225910E-03-3.48202406E-04 0.00000000E+00 0.00000000E+00-9.97325470E-03
 4 14 1.03580362E-02-1.02130212E-02-1.98943751E-03 0.00000000E+00 0.00000000E+00
 4 15 4.64508571E-03 1.88451940E-02 1.48067430E-04-8.22474810E-03 0.00000000E+00
 4 16 0.00000000E+00 3.46552649E-04 3.37231820E-03 0.00000000E+00-2.24659888E-03
 4 17 0.00000000E+00-3.88104445E-04 0.00000000E+00 3.57053739E-04-2.80712930E-03
 4 18 0.00000000E+00 3.03824392E-02-1.14742747E-02 3.23177626E-02 0.00000000E+00
 4 19 2.82437242E-06 1.87777372E-01 1.68960388E-01-2.44286535E-02-7.53806621E-04
 4 20-6.27074644E-03 0.00000000E+00-4.10399915E-03-4.50964094E-02 0.00000000E+00
 4 21-3.35928271E-03 2.29639648E-02 0.00000000E+00 3.61935803E-03 1.46970931E-02
 4 22 2.79037404E-03 1.36825634E-03 0.00000000E+00 0.00000000E+00-1.71148287E-02
 4 23 7.19662434E-04 5.92463844E-03 4.57560636E-03 0.00000000E+00
 5  1 2.05909567E-02 2.23589043E-02-3.14665194E-02-1.12065183E-03 0.00000000E+00
 5  2 2.74549545E-02 2.20340620E-02 8.32986208E-03 0.00000000E+00-1.73831834E-02
 5  3 1.21421026E-02 4.49870084E-03 0.00000000E+00-4.18377583E-03-1.85707380E-03