!  energy decomposition analysis...U-DFT on closed shell water dimer
!  results should exactly match the closed shell test case
!  Note that what is stored here (ALL BASIS) is quite different
!  from the other test inputs (OWN BASIS).
!
! -------------
! ALL BASIS SET                                       HARTREE  KCAL/MOL
! -------------
! ELECTROSTATIC E.ERGY                  ES=         -0.015181     -9.53
! EXCHANGE E.ERGY                       EX=         -0.004243     -2.66
! REPULSION E.ERGY                     REP=          0.022911     14.38
! POLARIZATION E.ERGY                  POL=         -0.005288     -3.32
! DFT DISPERSION E.ERGY               DISP=         -0.004613     -2.89
! TOTAL INTERACTION E.ERGY HF OR DFT     E=         -0.006414     -4.02
!
!   this run takes 73 seconds on 2.66 GHz Cloverton (3 Nov 2009)
!
 $CONTRL SCFTYP=UHF RUNTYP=eda ICHARG=0 dfttyp=blyp ispher=1 $end
 $system mwords=8 timlim=40 $end
 $LMOEDA MATOM(1)=3,3 MCHARG(1)=0,0 MMULT(1)=1,1 $END
 $BASIS  GBASIS=ccd $END
 $SCF    DIIS=.T. SOSCF=.F. DIRSCF=.T. FDIFF=.F. CONV=1.0d-09 $END
 $DATA
water dimer
C1
Oxy         8.0   4.1110849272   2.2701110691  -0.7466010588
H           1.0   3.7576857645   2.8814288121  -0.0994910036
H           1.0   5.0699034117   2.3288469914  -0.6405031515
Oxy         8.0   7.0132175853   2.2595634263  -0.6391495442
H           1.0   7.3640590582   2.4825967547  -1.5040530844
H           1.0   7.3285731133   1.3688173263  -0.4716249975
 $END

! TRAVIS-CI SMALL

! TRAVIS-CI SKIP
