!        Actinium ion, plus one water...EDA analysis
!  This is a test from Jean-Pierre Dognon (jean-pierre.dognon@cea.fr)
!  The main purpose is to test LMOEDA for ECP basis sets and f atoms.
!  Toggle in $CONTRL below to run with CCSD(T) or with MP2, as you like.
!
!  MP2 results:
!     -------------
!     ALL BASIS SET                                 HARTREE    KCAL/MOL
!     -------------
!     ELECTROSTATIC E.ERGY                  ES=   -0.109375      -68.63
!     EXCHANGE E.ERGY                       EX=   -0.048846      -30.65
!     REPULSION E.ERGY                     REP=    0.113562       71.26
!     POLARIZATION E.ERGY                  POL=   -0.072604      -45.56
!     MP2 DISPERSION E.ERGY               DISP=   -0.002018       -1.27
!     TOTAL INTERACTION E.ERGY HF OR DFT     E=   -0.117263      -73.58
!     TOTAL INTERACTION E.ERGY MP2           E=   -0.119281      -74.85
!        this run takes 68 seconds on 2.66 GHz Cloverton (3 Nov 2009)
!
!  CCSD(T) results:  (copied from a log file from Hui, not actually tried)
!     -------------
!     ALL BASIS SET                                 HARTREE    KCAL/MOL
!     -------------
!     ELECTROSTATIC E.ERGY                  ES=   -0.109375      -68.63
!     EXCHANGE E.ERGY                       EX=   -0.048846      -30.65
!     REPULSION E.ERGY                     REP=    0.113562       71.26
!     POLARIZATION E.ERGY                  POL=   -0.072604      -45.56
!     MP2 DISPERSION E.ERGY               DISP=   -0.002018       -1.27
!     CCSD(T) DISPERSION E.ERGY           DISP=   -0.000077       -0.05
!     TOTAL INTERACTION E.ERGY HF OR DFT     E=   -0.117263      -73.58
!     TOTAL INTERACTION E.ERGY MP2           E=   -0.119281      -74.85
!     TOTAL INTERACTION E.ERGY CCSD(T)       E=   -0.117340      -73.63
!         Hui's computer time ratio for CCSD(T)/MP2 was 3417/122 s.conds
!         rethink the memory if you ever try the CC run.
!
!     Ac is beyond the initial Huckel guess, and maybe the core counting.
!     not sure why KDIAG was put in here.
!
 $contrl scftyp=rhf runtyp=eda icharg=3 pp=read
         mplevl=2 cctyp=none ispher=0 $end
 $system mwords=20 memddi=1 timlim=50 kdiag=3 $end
 $guess  guess=hcore $end
 $mp2    nacore=0 $end
 $ccinp  ncore=0 $end
 $lmoeda matom(1)=1 3 mcharg(1)=3 0 mmult(1)=1 1 $end
 $mp2    code=ddi $end
 $data
Ac3+ H2O
c1
Ac  89.0    0.000000    0.000000    0.000000
S   1
  1      0.9636000              1.0000000
S   1
  1      0.5266000              1.0000000
S   1
  1      0.1513000              1.0000000
S   1
  1      0.1194000              1.0000000
S   1
  1      0.0357000              1.0000000
P   1
  1      0.9402000              1.0000000
P   1
  1      0.6756000              1.0000000
P   1
  1      0.2585000              1.0000000
P   1
  1      0.0906000              1.0000000
P   1
  1      0.0289000              1.0000000
D   1
  1      1.3667000              1.0000000
D   1
  1      0.3422000              1.0000000
D   1
  1      0.1329000              1.0000000
D   1
  1      0.0463000              1.0000000
F   1
  1      0.1110000              1.0000000
F   1
  1      0.0239000              1.0000000
F   1
  1      0.0080000              1.0000000
F   1
  1      0.0032000              1.0000000

O   8.0  -0.00008330       0.00000262       2.42560646
S   8
  1  15330.0000000              0.0005080
  2   2299.0000000              0.0039290
  3    522.4000000              0.0202430
  4    147.3000000              0.0791810
  5     47.5500000              0.2306870
  6     16.7600000              0.4331180
  7      6.2070000              0.3502600
  8      0.6882000             -0.0081540
S   8
  1  15330.0000000             -0.0001150
  2   2299.0000000             -0.0008950
  3    522.4000000             -0.0046360
  4    147.3000000             -0.0187240
  5     47.5500000             -0.0584630
  6     16.7600000             -0.1364630
  7      6.2070000             -0.1757400
  8      0.6882000              0.6034180
S   1
  1      1.7520000              1.0000000
S   1
  1      0.2384000              1.0000000
P   3
  1     34.4600000              0.0159280
  2      7.7490000              0.0997400
  3      2.2800000              0.3104920
P   1
  1      0.7156000              1.0000000
P   1
  1      0.2140000              1.0000000
D   1
  1      2.3140000              1.0000000
D   1
  1      0.6450000              1.0000000
F   1
  1      1.4280000              1.0000000

H   1.0  0.76859669      -0.00001631       3.04094769
S   3
  1     33.8700000              0.0060680
  2      5.0950000              0.0453080
  3      1.1590000              0.2028220
S   1
  1      0.3258000              1.0000000
S   1
  1      0.1027000              1.0000000
P   1
  1      1.4070000              1.0000000
P   1
  1      0.3880000              1.0000000
D   1
  1      1.0570000              1.0000000

H   1.0  -0.76695454      -0.00001635       3.04320039
S   3
  1     33.8700000              0.0060680
  2      5.0950000              0.0453080
  3      1.1590000              0.2028220
S   1
  1      0.3258000              1.0000000
S   1
  1      0.1027000              1.0000000
P   1
  1      1.4070000              1.0000000
P   1
  1      0.3880000              1.0000000
D   1
  1      1.0570000              1.0000000

 $end
 $ecp
Ac-ECP GEN     78     4
  6      ----- G POTENTIAL     -----
     -1.20669997       2      1.11780000
    -12.14964867       2      2.49180007
    -36.28235626       2      5.99900007
   -139.70959473       2     18.06710052
   -308.30279541       2     56.65689850
    -58.80256653       1    171.80650330
  8      ----- S-G POTENTIAL     -----
    -22.83414078       2      0.97649997
     85.36679077       2      1.16690004
   -184.32901001       2      1.54069996
    361.85287476       2      2.26390004
   -391.65957642       2      3.54769993
    311.78582764       2      5.63149977
     31.91579056       1     16.93210030
     11.15847778       0     15.99460030
  8      ----- P-G POTENTIAL     -----
     41.84874725       2      1.28699994
   -150.01193237       2      1.48230004
    335.78051758       2      1.94239998
   -384.57653809       2      2.79509997
    335.67944336       2      4.23729992
   -153.28929138       2      6.32700014
     59.26359940       1      9.92879963
      5.42515993       0     36.35929871
  8      ----- D-G POTENTIAL     -----
     43.26000214       2      0.75120002
   -138.38842773       2      0.86790001
    263.83312988       2      1.12769997
   -327.39425659       2      1.58729994
    305.68560791       2      2.32139993
   -145.50318909       2      3.33249998
     48.99058914       1      4.73500013
      7.83579922       0     15.27309990
  8      ----- F-G POTENTIAL     -----
     -2.29345989       2      0.99159998
     34.95658493       2      1.79879999
   -103.22103882       2      2.35899997
    202.08523560       2      3.49049997
   -281.09320068       2      5.48509979
    342.86886597       2      8.97290039
     27.73361969       1     27.43889999
      9.87891960       0     23.89990044
O-ECP none
H-ECP none
H-ECP none
 $end

! TRAVIS-CI SMALL

! TRAVIS-CI SKIP
