!  Because of the diffuse functions, and the large spatial
!  extent of the F- anion, the Morokuma decomposition does
!  not converge.  (It does not enforce orbital orthogonality
!  completely, and this causes the failure).
!  
!                                           HARTREE    KCAL/MOLE
!    ES (ELECTROSTATIC, OR COULOMB)        -.161581    -101.39
!    EX (EXCHANGE REPULSION)                .106641      66.92
!    POL         MONOMER  1                -.004614      -2.90
!    POL         MONOMER  2                -.009503      -5.96
!    POL         MONOMER  3                -.009503      -5.96
!    POL         MONOMER  4                -.009503      -5.96
!    CT          MONOMER  1                -.018703     -11.74
!    CT          MONOMER  2                -.000237       -.15
!    CT          MONOMER  3                -.000237       -.15
!    CT          MONOMER  4                -.000237       -.15
!   
!             T.TAL COULOMB/EXCHANGE       -.054940     -34.48
!             T.TAL POLARIZATION           -.033122     -20.78
!             T.TAL CHARGE TRANSFER        -.019414     -12.18
!             T.TAL OF CEX+POL+CT          -.107475     -67.44
!             T.TAL INTERACTION ENERGY     -.105612     -66.27
!   
!    BSSE(VIR)   MONOMER  1                -.001150       -.72
!    BSSE(VIR)   MONOMER  2                -.000210       -.13
!    BSSE(VIR)   MONOMER  3                -.000210       -.13
!    BSSE(VIR)   MONOMER  4                -.000210       -.13
!    TOTAL BSSE                            -.001782      -1.12
!    BSSE CORRECTED TOTAL INTERACTION      -.103830     -65.15
!
!  Unfortunately I did not make a note of the person who sent this file.
!
!  This run takes 61 seconds on a 2.66 GHz Cloverton (3 Nov 2009)
!        answers in 2009 numerically identical to 2006.
!
 $contrl scftyp=rhf runtyp=eda icharg=-1 ispher=0 $end
 $system mwords=1 timlim=50 $end
 $basis  gbasis=n311 ngauss=6 ndfunc=1 diffsp=.true. polar=popn311
         npfunc=1 diffs=.true. $end
 $morokm morokm=.false. rvs=.true. bsse=.false. 
         iatm(1)=1 ichm(1)=-1
         iatm(2)=3 ichm(2)=0
         iatm(3)=3 ichm(3)=0
         iatm(4)=3 ichm(4)=0 $end
 $scf    damp=.f. shift=.f. nconv=5 diis=.f. soscf=.f. $end
 $data
F(-)(H2O)3 Complex
C1
 F      9           0.000000    0.000000    0.255029
 O      8           0.000000    2.563840   -0.053327
 H      1          -0.870224    2.627833   -0.449807
 H      1           0.060891    1.584001    0.111335
 O      8           2.220350   -1.281920   -0.053327
 H      1           2.710882   -0.560281   -0.449807
 H      1           1.341339   -0.844734    0.111335
 O      8          -2.220350   -1.281920   -0.053327
 H      1          -1.840659   -2.067552   -0.449807
 H      1          -1.402230   -0.739267    0.111335
 $end
 $VEC1
 1  1 5.47721737E-01 4.73369839E-01 0.00000000E+00 0.00000000E+00 0.00000000E+00
 1  2 6.34284769E-03 0.00000000E+00 0.00000000E+00 0.00000000E+00-2.34727395E-04
 1  3 0.00000000E+00 0.00000000E+00 0.00000000E+00 2.33211424E-04 0.00000000E+00
 1  4 0.00000000E+00 0.00000000E+00-2.28219669E-04-2.28219669E-04-2.28219669E-04
 1  5 0.00000000E+00 0.00000000E+00 0.00000000E+00
 2  1-1.24695074E-01-2.10707479E-01 0.00000000E+00 0.00000000E+00 0.00000000E+00
 2  2 6.19720994E-01 0.00000000E+00 0.00000000E+00 0.00000000E+00 4.99794983E-01
 2  3 0.00000000E+00 0.00000000E+00 0.00000000E+00 1.85325735E-02 0.00000000E+00
 2  4 0.00000000E+00 0.00000000E+00-3.52151792E-03-3.52151792E-03-3.52151792E-03
 2  5 0.00000000E+00 0.00000000E+00 0.00000000E+00
 3  1 0.00000000E+00 0.00000000E+00 1.33418868E-01-6.00248813E-02 2.52945453E-01
 3  2 0.00000000E+00 2.01287451E-01-9.05588210E-02 3.81615782E-01 0.00000000E+00
 3  3 1.82711525E-01-8.22015488E-02 3.46398154E-01 0.00000000E+00 6.86009410E-02
 3  4-3.08634259E-02 1.30058787E-01 0.00000000E+00 0.00000000E+00 0.00000000E+00
 3  5 0.00000000E+00 0.00000000E+00 0.00000000E+00
 4  1 0.00000000E+00 0.00000000E+00 2.56022149E-01-1.90221313E-02-1.39555726E-01
 4  2 0.00000000E+00 3.86257556E-01-2.86984622E-02-2.10546056E-01 0.00000000E+00
 4  3 3.50611559E-01-2.60500083E-02-1.91115694E-01 0.00000000E+00 1.31640754E-01
 4  4-9.78074638E-03-7.17563737E-02 0.00000000E+00 0.00000000E+00 0.00000000E+00
 4  5 0.00000000E+00 0.00000000E+00 0.00000000E+00
 5  1 0.00000000E+00 0.00000000E+00 4.51336672E-02 2.85342172E-01 4.39064908E-02
 5  2 0.00000000E+00 6.80926243E-02 4.30492325E-01 6.62411979E-02 0.00000000E+00
 5  3 6.18086578E-02 3.90764096E-01 6.01280914E-02 0.00000000E+00 2.32067030E-02
 5  4 1.46716442E-01 2.25757169E-02 0.00000000E+00 0.00000000E+00 0.00000000E+00
 5  5 0.00000000E+00 0.00000000E+00 0.00000000E+00
 6  1 3.39413411E-02 6.95475658E-02 0.00000000E+00 0.00000000E+00 0.00000000E+00
 6  2-1.06158894E-01 0.00000000E+00 0.00000000E+00 0.00000000E+00-1.17108947E+00
 6  3 0.00000000E+00 0.00000000E+00 0.00000000E+00 1.66605093E+00 0.00000000E+00
 6  4 0.00000000E+00 0.00000000E+00 3.95048677E-02 3.95048677E-02 3.95048677E-02
 6  5 0.00000000E+00 0.00000000E+00 0.00000000E+00
 7  1 0.00000000E+00 0.00000000E+00-5.63479464E-02 2.36203368E-02-1.14659807E-01
 7  2 0.00000000E+00-4.11772158E-02 1.72609610E-02-8.37895952E-02 0.00000000E+00
 7  3-2.82411213E-01 1.18383160E-01-5.74665401E-01 0.00000000E+00 5.62784625E-01
 7  4-2.35912100E-01 1.14518417E+00 0.00000000E+00 0.00000000E+00 0.00000000E+00
 7  5 0.00000000E+00 0.00000000E+00 0.00000000E+00
 8  1 0.00000000E+00 0.00000000E+00-1.16031809E-01 5.62035525E-03 5.81800109E-02
 8  2 0.00000000E+00-8.47922088E-02 4.10716976E-03 4.25160281E-02 0.00000000E+00
 8  3-5.81541760E-01 2.81687523E-02 2.91593368E-01 0.00000000E+00 1.15888727E+00
 8  4-5.61342466E-02-5.81082678E-01 0.00000000E+00 0.00000000E+00 0.00000000E+00
 8  5 0.00000000E+00 0.00000000E+00 0.00000000E+00
 9  1 0.00000000E+00 0.00000000E+00-1.55374066E-02-1.27633749E-01-1.86573766E-02
 9  2 0.00000000E+00-1.13542229E-02-9.32705234E-02-1.36341938E-02 0.00000000E+00
 9  3-7.78721874E-02-6.39689720E-01-9.35092172E-02 0.00000000E+00 1.55182470E-01
 9  4 1.27476361E+00 1.86343697E-01 0.00000000E+00 0.00000000E+00 0.00000000E+00
 9  5 0.00000000E+00 0.00000000E+00 0.00000000E+00
10  1 0.00000000E+00 0.00000000E+00-9.96055946E-02 4.75352559E-02-2.27931751E-01
10  2 0.00000000E+00-3.41117623E-01 1.62793200E-01-7.80594076E-01 0.00000000E+00
10  3 6.29080391E-01-3.00219054E-01 1.43955162E+00 0.00000000E+00-2.78550948E-01
10  4 1.32934206E-01-6.37420074E-01 0.00000000E+00 0.00000000E+00 0.00000000E+00
10  5 0.00000000E+00 0.00000000E+00 0.00000000E+00
11  1 0.00000000E+00 0.00000000E+00-2.30914947E-01 1.16108797E-02 1.03330697E-01
11  2 0.00000000E+00-7.90810577E-01 3.97635864E-02 3.53874919E-01 0.00000000E+00
11  3 1.45839263E+00-7.33309885E-02-6.52607071E-01 0.00000000E+00-6.45762698E-01
11  4 3.24702799E-02 2.88968343E-01 0.00000000E+00 0.00000000E+00 0.00000000E+00
11  5 0.00000000E+00 0.00000000E+00 0.00000000E+00
12  1 0.00000000E+00 0.00000000E+00-2.98457871E-02-2.48474033E-01-3.87768239E-02
12  2 0.00000000E+00-1.02212371E-01-8.50944887E-01-1.32798344E-01 0.00000000E+00
12  3 1.88497438E-01 1.56929079E+00 2.44903308E-01 0.00000000E+00-8.34649131E-02
12  4-6.94867370E-01-1.08440908E-01 0.00000000E+00 0.00000000E+00 0.00000000E+00
12  5 0.00000000E+00 0.00000000E+00 0.00000000E+00
13  1 1.10229881E-01 1.49076961E-01 0.00000000E+00 0.00000000E+00 0.00000000E+00
13  2-1.41891831E+00 0.00000000E+00 0.00000000E+00 0.00000000E+00 2.56372635E+00
13  3 0.00000000E+00 0.00000000E+00 0.00000000E+00-1.07900555E+00 0.00000000E+00
13  4 0.00000000E+00 0.00000000E+00-2.02175294E-01-2.02175294E-01-2.02175294E-01
13  5 0.00000000E+00 0.00000000E+00 0.00000000E+00
14  1 0.00000000E+00 0.00000000E+00 0.00000000E+00 0.00000000E+00 0.00000000E+00
14  2 0.00000000E+00 0.00000000E+00 0.00000000E+00 0.00000000E+00 0.00000000E+00
14  3 0.00000000E+00 0.00000000E+00 0.00000000E+00 0.00000000E+00 0.00000000E+00
14  4 0.00000000E+00 0.00000000E+00-7.83699515E-01 9.29768244E-01-1.46068729E-01
14  5-1.50948605E-04 1.15328760E-03 2.30642011E-03
15  1 0.00000000E+00 0.00000000E+00 0.00000000E+00 0.00000000E+00 0.00000000E+00
15  2 0.00000000E+00 0.00000000E+00 0.00000000E+00 0.00000000E+00 0.00000000E+00
15  3 0.00000000E+00 0.00000000E+00 0.00000000E+00 0.00000000E+00 0.00000000E+00
15  4 0.00000000E+00 0.00000000E+00 1.80937146E-03-2.09075436E-03 2.81382899E-04
15  5-5.22417507E-01 3.10889523E-01 7.93991501E-01
16  1 0.00000000E+00 0.00000000E+00 0.00000000E+00 0.00000000E+00 0.00000000E+00
16  2 0.00000000E+00 0.00000000E+00 0.00000000E+00 0.00000000E+00 0.00000000E+00
16  3 0.00000000E+00 0.00000000E+00 0.00000000E+00 0.00000000E+00 0.00000000E+00
16  4 0.00000000E+00 0.00000000E+00 7.55788276E-04-1.26359380E-03 5.07805522E-04
16  5 8.50017677E-01 2.63535764E-01 4.56089063E-01
17  1 0.00000000E+00 0.00000000E+00 0.00000000E+00 0.00000000E+00 0.00000000E+00
17  2 0.00000000E+00 0.00000000E+00 0.00000000E+00 0.00000000E+00 0.00000000E+00
17  3 0.00000000E+00 0.00000000E+00 0.00000000E+00 0.00000000E+00 0.00000000E+00
17  4 0.00000000E+00 0.00000000E+00-7.31733340E-04-6.23722647E-04 1.35545599E-03
17  5-6.74524089E-02 9.13177734E-01-4.01938749E-01
18  1 0.00000000E+00 0.00000000E+00 0.00000000E+00 0.00000000E+00 0.00000000E+00
18  2 0.00000000E+00 0.00000000E+00 0.00000000E+00 0.00000000E+00 0.00000000E+00
18  3 0.00000000E+00 0.00000000E+00 0.00000000E+00 0.00000000E+00 0.00000000E+00
18  4 0.00000000E+00 0.00000000E+00-6.21136611E-01-3.68136734E-01 9.89273345E-01
18  5-2.17598521E-04-1.30461100E-03 4.31312504E-04
19  1 0.00000000E+00 0.00000000E+00-4.48840250E-01 1.50728332E-01-1.17657340E+00
19  2 0.00000000E+00 5.19553386E-01-1.74475029E-01 1.36193823E+00 0.00000000E+00
19  3-2.81934315E-01 9.46784276E-02-7.39052294E-01 0.00000000E+00 1.03248121E-01
19  4-3.46725078E-02 2.70650845E-01 0.00000000E+00 0.00000000E+00 0.00000000E+00
19  5 0.00000000E+00 0.00000000E+00 0.00000000E+00
20  1 0.00000000E+00 0.00000000E+00-1.18318099E+00 3.26405873E-02 4.55542435E-01
20  2 0.00000000E+00 1.36958682E+00-3.77829922E-02-5.27311475E-01 0.00000000E+00
20  3-7.43202781E-01 2.05028440E-02 2.86144222E-01 0.00000000E+00 2.72170809E-01
20  4-7.50841598E-03-1.04789845E-01 0.00000000E+00 0.00000000E+00 0.00000000E+00
20  5 0.00000000E+00 0.00000000E+00 0.00000000E+00
21  1 0.00000000E+00 0.00000000E+00-8.44200673E-02-1.25885549E+00-1.29064675E-01
21  2 0.00000000E+00 9.77201394E-02 1.45718355E+00 1.49398341E-01 0.00000000E+00
21  3-5.30275835E-02-7.90736925E-01-8.10706276E-02 0.00000000E+00 1.94194110E-02
21  4 2.89578449E-01 2.96891492E-02 0.00000000E+00 0.00000000E+00 0.00000000E+00
21  5 0.00000000E+00 0.00000000E+00 0.00000000E+00
22  1-1.86616123E-01-7.35470083E-01 0.00000000E+00 0.00000000E+00 0.00000000E+00
22  2 2.89875021E+00 0.00000000E+00 0.00000000E+00 0.00000000E+00 1.09509380E+00
22  3 0.00000000E+00 0.00000000E+00 0.00000000E+00-3.94129378E-01 0.00000000E+00
22  4 0.00000000E+00 0.00000000E+00-1.56645304E+00-1.56645304E+00-1.56645304E+00
22  5 0.00000000E+00 0.00000000E+00 0.00000000E+00
23  1-2.40065892E+00 2.77694274E+00 0.00000000E+00 0.00000000E+00 0.00000000E+00
23  2-1.14201865E+00 0.00000000E+00 0.00000000E+00 0.00000000E+00-2.82648846E-01
23  3 0.00000000E+00 0.00000000E+00 0.00000000E+00 1.07111641E-01 0.00000000E+00
23  4 0.00000000E+00 0.00000000E+00 5.44707552E-01 5.44707552E-01 5.44707552E-01
23  5 0.00000000E+00 0.00000000E+00 0.00000000E+00
 $END
 $VEC2
 1  1 5.51516830E-01 4.71472081E-01 1.26100432E-03-1.23819036E-03-3.58433099E-04
 1  2 5.94505771E-03-5.61558108E-04 5.44483759E-04 1.56562002E-04-4.81428023E-04
 1  3 1.13297755E-04-1.10896502E-04-3.20484337E-05 5.52541810E-04 1.46753126E-05
 1  4-1.69833938E-05-5.30933518E-06-4.49091792E-04-3.84797024E-04-2.35712264E-04
 1  5-3.96927495E-05-6.30114845E-05-1.07206083E-04 2.14821675E-04 2.53543193E-04
 1  6-1.95016421E-04-3.44422238E-05 4.06604404E-05 1.91765106E-04 9.08870088E-05
 1  7 1.85699967E-04 2.58526792E-04-1.94578688E-04-2.23071492E-05-2.06425478E-04
 1  8-2.48294034E-05-4.19258332E-05
 2  1-1.13804874E-01-1.89753912E-01 2.29754495E-02-2.66945180E-02-8.35888209E-03
 2  2 5.42211905E-01 4.05340404E-02-4.53908368E-02-1.39933496E-02 3.85843718E-01
 2  3 1.29105787E-02-1.39296529E-02-4.22365931E-03-1.54303002E-02-2.78066888E-04
 2  4 1.11750197E-04 7.74858598E-06 3.90253040E-03 3.76781337E-03-4.51061102E-03
 2  5-1.38676377E-04 1.79170802E-03 5.37563948E-03 9.50220153E-02 8.39255519E-02
 2  6-4.60775049E-03 7.93474276E-03 5.26105478E-03 2.45901513E-02 1.16615707E-02
 2  7 8.53623018E-02 7.89522426E-02-3.39069165E-03 7.02140565E-03-2.60351385E-02
 2  8-3.74944618E-03-5.56103474E-03
 3  1-2.76237106E-03-4.71293943E-03 1.50703848E-01 1.46987201E-01 8.75855572E-02
 3  2 1.44687996E-02 2.33045715E-01 2.25691305E-01 1.34730156E-01 2.53908006E-02
 3  3 1.46679923E-01 1.40582296E-01 8.41502634E-02 8.95971841E-04 9.23159274E-03
 3  4 1.02785616E-02 5.92882385E-03 2.36066750E-02-2.05222164E-02-2.96516136E-03
 3  5-9.38200052E-04 3.53355104E-03-1.10261689E-02-1.48419979E-01-2.22246849E-01
 3  6-3.28208895E-02-1.25039419E-02 6.35364101E-03-3.01745299E-02-1.23895172E-02
 3  7 1.40118012E-01 2.13466658E-01 3.55366201E-02 1.25451317E-02-3.27252339E-02
 3  8 7.91966414E-03-1.40437026E-03
 4  1-3.84919146E-02-6.64266988E-02-1.81359292E-01 1.65369913E-01 4.59307402E-02
 4  2 2.04471634E-01-2.77005675E-01 2.51330697E-01 6.95999346E-02 3.16649290E-01
 4  3-2.10939605E-01 1.91112591E-01 5.28784162E-02 1.49499624E-02-4.13302211E-02
 4  4 3.88262305E-02 1.09713841E-02-8.54951802E-03-5.70052164E-03 8.09540463E-03
 4  5 1.21143497E-02 2.10309205E-03-6.32466152E-03-8.56652866E-02-1.51367170E-01
 4  6-1.66542319E-02 3.33163882E-04-2.82430132E-02-1.34225236E-02-1.01691409E-02
 4  7-9.47194576E-02-1.68765301E-01-2.43648468E-02-7.52130411E-04 1.89822304E-02
 4  8 2.37456415E-02 1.33451959E-02
 5  1-6.18122785E-08-1.06497945E-07-3.91524536E-02-1.15473413E-01 2.61156231E-01
 5  2 3.30287126E-07-6.05259889E-02-1.78510982E-01 4.03722844E-01 5.53811513E-07
 5  3-5.60183167E-02-1.65216548E-01 3.73655685E-01-3.38800582E-07-1.11594131E-02
 5  4-3.29118428E-02 7.44346558E-02-2.68426703E-03 7.95653136E-03-5.27227007E-03
 5  5-3.01323727E-03 1.07936715E-02-9.04328661E-03-2.31248179E-07-7.83877349E-07
 5  6 5.50056894E-07-9.73515203E-08-4.46247979E-03-1.31613360E-02 2.97657082E-02
 5  7-1.12363174E-07-3.61167141E-07 2.74325976E-07 3.41720301E-07-4.21688214E-03
 5  8-1.24371039E-02 2.81279490E-02
 6  1-1.66185009E-02-2.70571812E-02 2.90881371E-02-2.41237097E-02-6.30567308E-03
 6  2 1.05605424E-01 4.35535511E-02-3.55039847E-02-9.16891686E-03-9.53161837E-03
 6  3 6.97057776E-02-6.20000461E-02-1.69638857E-02 9.48528991E-01 5.83681948E-02
 6  4-4.16774737E-02-9.67755087E-03 6.62139253E-03 6.70289046E-03 5.03801341E-03
 6  5-2.13896058E-03-6.46098701E-04 6.04760872E-04 2.54682780E-03-6.16665494E-02
 6  6-4.99805965E-02-7.81070052E-01 2.38097007E-03 1.28728717E-02 6.04887569E-03
 6  7 7.14537309E-04-6.68634573E-02-4.78733770E-02-8.49990425E-01-1.54002543E-02
 6  8-1.05964126E-03-2.77731340E-03
 7  1 3.25683475E-04 4.83808976E-04 2.77010404E-02 2.39044830E-02 1.47226191E-02
 7  2-2.52706189E-03 5.26288342E-02 4.49316599E-02 2.77572261E-02 6.37563251E-03
 7  3-7.35037343E-03-6.54019112E-03-3.99374922E-03-5.04937217E-02 3.21602417E-01
 7  4 2.82520037E-01 1.73134247E-01-1.14859680E-04-4.83277969E-04-3.05298260E-04
 7  5-9.02456979E-05-1.59873400E-05-1.31093989E-04-1.19403920E-02 1.67407194E-02
 7  6-5.07690286E-02 2.55718568E+00 7.60089538E-04-1.34893909E-02-5.85055002E-03
 7  7 1.06114136E-02-2.02150157E-02 6.96813903E-02-2.51573634E+00-1.45610403E-02
 7  8 5.87024702E-04-1.92341468E-03
 8  1 1.75519429E-02 3.25710803E-02-1.01292969E-01 6.88304477E-02 1.52476752E-02
 8  2-6.12989748E-02-1.22803782E-01 7.64077767E-02 1.53733974E-02-5.32085445E-01
 8  3-3.66636392E-01 3.15053069E-01 8.43345699E-02-1.08552259E+00-2.63932320E-01
 8  4-4.70111518E-01-2.47424327E-01 1.43875421E-02 4.13109493E-03 1.07150743E-02
 8  5 6.70938393E-03 3.50621412E-03-2.63922286E-03 2.15988774E-02-3.46767591E-02
 8  6 7.81841188E-01-4.59137846E-01-5.63484742E-03-1.53772848E-03-1.52459558E-03
 8  7 6.27172639E-02-1.02170489E-01 2.45182505E+00-7.77652935E-01 1.50183512E-02
 8  8-3.26999524E-03 8.05762606E-04
 9  1-2.67858331E-02-4.97841193E-02-4.65898404E-03 2.91112099E-02 1.21722105E-02
 9  2 1.37872486E-01 2.44916885E-02 1.25995632E-02 9.24184752E-03 3.95475284E-01
 9  3-2.33526946E-01 2.75402066E-01 8.67561576E-02 3.61886680E+00 1.99470381E+00
 9  4-1.48463293E+00-3.57392054E-01-2.33207604E-02-1.41780803E-02-4.52190391E-04
 9  5-5.77079091E-04-4.93649571E-03-9.22529062E-03-3.50495948E-02 1.45394692E-01
 9  6-2.43317664E+00 2.02688010E-01 2.53585919E-02 1.92132194E-02 1.22972502E-02
 9  7-6.42538578E-02 1.76616499E-01-3.55118178E+00 5.34158202E-01-3.10033296E-02
 9  8-1.66103580E-02-1.19923297E-02
10  1 1.51937056E-07 2.77235315E-07 1.57356396E-02 4.64067615E-02-1.04955722E-01
10  2-1.05090917E-06 1.29529413E-02 3.82000197E-02-8.63949739E-02 4.20485456E-07
10  3 8.01646762E-02 2.36413775E-01-5.34687937E-01-3.55430750E-05-1.73977584E-01
10  4-5.13047164E-01 1.16036693E+00 1.02921502E-03-3.30857500E-03 2.27947984E-03
10  5 1.10466433E-03-4.16051176E-03 3.73849231E-03 3.45674472E-07-1.46502303E-06
10  6 2.68892322E-05 4.71400361E-07-1.57582878E-03-4.64730469E-03 1.05097036E-02
10  7 1.45512586E-07-1.02583938E-06 1.75506801E-05 1.22071700E-06-1.60653544E-03
10  8-4.73862648E-03 1.07175276E-02
11  1 1.00491257E-02 1.87945974E-02 2.79203118E-02 5.92748162E-02 3.03950957E-02
11  2-4.21738111E-02 4.26877976E-02 8.44228448E-02 4.37285300E-02-2.25772297E-01
11  3 3.00209993E-03 7.26939726E-02 3.25935521E-02-1.33693566E+00 1.22637770E+00
11  4 1.76482364E+00 9.64195227E-01-1.15995593E-02 2.22711602E-02 6.46449156E-03
11  5 2.90181758E-03-1.17603870E-03 1.04754583E-02 8.55673107E-02-2.23433911E-01
11  6 4.55984463E+00-7.06291172E-01 9.27588024E-03-3.25515754E-02-1.30024975E-02
11  7-4.65656784E-02 8.10653830E-02-2.14908433E+00 2.59101453E-01-1.63878694E-02
11  8 1.80779992E-02 5.53656271E-03
12  1-2.97458306E-03-5.90776385E-03-8.94833467E-02-7.55925357E-02-4.68394947E-02
12  2 8.77087237E-03-8.75909140E-02-7.96704103E-02-4.83588745E-02 1.34011315E-01
12  3-5.11867187E-01-4.31398812E-01-2.67487284E-01-5.79488597E-01 1.31858127E+00
12  4 1.29462944E+00 7.70117707E-01-1.75169955E-02 1.04385130E-02-1.62571669E-03
12  5 1.57981496E-03-1.56920692E-03 7.82160257E-03-5.11091037E-03-4.41822632E-02
12  6 2.16577218E-01 2.09032510E+00 7.78456171E-03-3.29391756E-03-2.89402916E-04
12  7 7.87232321E-03 2.60915466E-02 1.69972379E-01-1.96971180E+00-9.53463324E-04
12  8 7.78658364E-03 3.30000126E-03
13  1 2.58919152E-02 5.31199140E-02-2.78241719E-04-1.38792347E-02-6.17871522E-03
13  2-5.04892259E-02-2.62745044E-02 1.54462793E-02 2.89063028E-03-1.39172353E+00
13  3-3.81456398E-02-4.28250102E-02-2.46549023E-02 8.80858975E+00 1.83306594E+00
13  4-1.63673216E+00-4.48890448E-01 2.26867934E-02 2.84052798E-02 4.69849423E-02
13  5-4.72251571E-03-7.33944062E-03-1.32762676E-02-1.43436778E-02 2.01801281E-01
13  6-4.13707078E+00-3.34558288E-01 1.03574172E-02 2.42682240E-02 1.22832831E-02
13  7-1.26890914E-02 1.90485475E-01-3.91419780E+00-5.48247169E-01-2.48411760E-02
13  8-7.25723961E-03-6.93304121E-03
14  1-5.67541769E-03-9.59348767E-03 1.09801485E-01 6.88116081E-02 4.68872888E-02
14  2 2.85211768E-02 1.81922332E-01 1.12118402E-01 7.68482314E-02 1.02429129E-01
14  3 7.89524239E-01 5.27770483E-01 3.51725312E-01-4.98703670E-01-1.15442448E+00
14  4-7.24093747E-01-4.93237608E-01-1.80530955E-02 1.61252931E-02 5.15619670E-03
14  5-1.78914662E-03-4.49510240E-03 6.25767751E-03 7.85829447E-02 1.28634004E+00
14  6-2.40047726E+00 5.45332118E-01 1.87001965E-02-2.61374706E-03 1.64779173E-03
14  7-1.10575736E-01-1.89529383E+00 3.50500730E+00-7.27732839E-01-1.01649797E-03
14  8 1.35846292E-02 5.85425320E-03
15  1-3.45827926E-02-5.88940377E-02 6.38656307E-02-9.23639784E-02-3.12653354E-02
15  2 1.63917380E-01 1.23365225E-01-1.76627186E-01-5.96032919E-02 1.18521002E+00
15  3 5.35893732E-01-8.48174576E-01-2.94691225E-01-3.77250899E+00-8.23887785E-01
15  4 1.21201834E+00 4.12393569E-01 4.88317601E-03 3.29106386E-03 1.16955061E-02
15  5-1.34674715E-02-7.87403288E-03-8.49233507E-03-9.26661324E-02-2.33542245E+00
15  6 4.00325109E+00-4.59877003E-01 7.13476481E-03-2.78636640E-02-1.12506342E-02
15  7-6.12300406E-02-1.63249710E+00 2.78943909E+00-3.12641107E-01 2.19308463E-02
15  8-1.44526734E-02-3.10259353E-03
16  1-1.50162725E-03 6.54497192E-04 1.48050398E-01-1.67422347E-01-5.18321645E-02
16  2 2.02604015E-01 4.76718578E-01-5.18153134E-01-1.57638078E-01-1.67742197E+00
16  3-1.39789783E+00 1.58527526E+00 4.91376939E-01 1.89977569E+00 8.25518199E-01
16  4-9.35615853E-01-2.89933108E-01 2.00746559E-02 1.52643185E-02 2.75679771E-02
16  5 6.96171426E-03 1.38820252E-03-6.39673043E-03 3.68438022E-02 1.06648409E+00
16  6-1.03490824E+00-1.71486422E-01-6.42394589E-02 2.53188703E-01 1.02319981E-01
16  7 2.56669573E-02 9.46769011E-01-9.98686162E-01-1.20725043E-02-2.35671191E-01
16  8 8.33373604E-02 1.51709456E-03
17  1-2.15714616E-08-2.20874756E-08 3.36684852E-02 9.92990011E-02-2.24575589E-01
17  2 5.67832708E-07 1.20488821E-01 3.55360114E-01-8.03685703E-01-2.90430627E-06
17  3-2.16678210E-01-6.39049097E-01 1.44527920E+00 3.04381391E-06 9.94126371E-02
17  4 2.93195894E-01-6.63094505E-01 1.78291076E-04-2.35514460E-03 2.17709953E-03
17  5-1.57557128E-04-8.74783760E-04 2.51956093E-03 1.68542408E-08 5.77648891E-07
17  6-9.45463426E-07 6.94846830E-07-1.99391075E-03-5.88024485E-03 1.32991901E-02
17  7 7.08518752E-08 2.00676107E-06-1.76732403E-06-1.10928099E-06-5.94684885E-03
17  8-1.75374695E-02 3.96630207E-02
18  1-1.32789319E-03-2.44932205E-03-1.69616745E-01-1.26374864E-01-8.13073716E-02
18  2-6.29033939E-03-5.58734604E-01-4.04012083E-01-2.62405235E-01 8.48660532E-02
18  3 1.72435447E+00 1.26555726E+00 8.18098003E-01-1.39916930E-01-1.06491429E+00
18  4-7.78776176E-01-5.03997758E-01 8.13743279E-03-9.80832914E-03-1.79831952E-03
18  5-2.03236017E-04 1.32773052E-03-5.01197389E-03 3.68354012E-02 5.31271933E-01
18  6-1.78218760E-01-8.81317244E-01 2.69196343E-02 1.87853748E-01 8.70977921E-02
18  7-3.09863577E-02-7.23425692E-01 4.13213067E-01 8.67019009E-01 2.45231611E-01
18  8 2.42066280E-02 4.74681585E-02
19  1 2.68054105E-02 3.53728281E-02 1.51512443E-02-2.02771696E-02-6.69439918E-03
19  2-3.12165591E-01 9.75388548E-02-1.14074672E-01-3.58168215E-02 1.37706252E-01
19  3-7.95702183E-01 8.30423911E-01 2.47892205E-01-5.22034390E-01 1.13268280E-01
19  4-1.33459031E-01-4.20296928E-02-4.65166558E-02-4.46145028E-02-7.74042082E-02
19  5-1.12257449E-01-4.55694940E-02-3.86447657E-03-4.50408368E-02 6.74557723E-01
19  6-1.71602072E-01 1.14899152E-01 6.63644004E-01-2.38303654E-02 8.89558685E-02
19  7-4.67087245E-02 6.15288945E-01-1.59943372E-01 1.27591599E-01 1.03203198E-02
19  8-6.16552753E-01-2.71069670E-01
20  1 8.40869444E-08 1.10499487E-07-7.94869962E-04-2.34441526E-03 5.30210549E-03
20  2-1.36389805E-06-4.43754538E-03-1.30883508E-02 2.96003459E-02 4.09456871E-06
20  3 5.60907122E-03 1.65407455E-02-3.74100529E-02-3.77696079E-06-1.62626198E-03
20  4-4.79403894E-03 1.08436719E-02-2.18300406E-02-5.19062280E-02 7.37356872E-02
20  5-4.73328539E-02 7.76862996E-02 4.89522904E-02-3.02284928E-10-1.31716163E-06
20  6 1.55530952E-06 2.07597949E-07 9.14053210E-02 2.69586603E-01-6.09700026E-01
20  7 2.05662264E-08-1.20556528E-06 1.40746573E-06 2.48079931E-07-9.60540674E-02
20  8-2.83297482E-01 6.40708629E-01
21  1 9.40578716E-02 1.23257631E-01 2.10058505E-02-2.21500781E-02-6.64483802E-03
21  2-1.52376591E+00 1.31684619E-01-1.60708351E-01-5.13175382E-02 4.56296877E+00
21  3 6.56897891E-01-6.50602539E-01-1.89190601E-01-4.17474843E+00-6.54633050E-01
21  4 6.46999332E-01 1.87937163E-01-2.30107927E-01-2.20941039E-01-2.04377457E-01
21  5 3.61809779E-02 1.16182507E-02-2.81235829E-03 3.53959430E-03-1.43413544E+00
21  6 1.65510114E+00 2.80809699E-01-2.36332125E-01-2.31722148E-01-1.37888977E-01
21  7 1.15963197E-02-1.35537802E+00 1.60001141E+00 2.32618849E-01 2.40793520E-01
21  8 2.13985381E-01 1.30715235E-01
22  1 1.07679132E-09 4.82746506E-10 3.00549004E-03 8.86423579E-03-2.00474436E-02
22  2-2.20613454E-08-5.84479241E-03-1.72383448E-02 3.89863748E-02 9.53814515E-08
22  3 9.90457925E-02 2.92120480E-01-6.60662322E-01-3.34604641E-08-1.71819174E-02
22  4-5.06754030E-02 1.14607966E-01-2.46758806E-02 7.21518694E-02-4.74760100E-02
22  5-2.78941653E-02 9.91382074E-02-8.20918100E-02 1.15379419E-09 1.50375995E-08
22  6-3.41810086E-08 1.87601419E-08-1.06105593E-01-3.12942403E-01 7.07753290E-01
22  7 9.66360775E-09-3.31888885E-08 1.15062761E-08 4.48715187E-09-1.00686663E-01
22  8-2.96960151E-01 6.71607723E-01
23  1-9.28401791E-04-1.03818169E-03 5.37574890E-04 3.06408704E-03 1.43541899E-03
23  2 1.52921470E-02 1.01709760E-02 1.39740122E-02 7.70361445E-03 2.88670289E-02
23  3-7.05823380E-01-6.30180737E-01-3.84458921E-01-3.96940347E-03 2.55369799E-01
23  4 2.20262796E-01 1.35676834E-01-2.40402691E-02 2.74207411E-02 6.70556587E-03
23  5-1.02871791E-03-5.05991135E-03 1.25381289E-02 8.80999462E-02-7.19378023E-01
23  6 5.09176445E-01-1.45996652E-02 8.18657350E-01-1.89169967E-01 3.90882182E-02
23  7-9.59863459E-02 6.86403336E-01-5.18985985E-01 2.02148994E-02-1.39548245E-01
23  8 7.50369889E-01 3.10864970E-01
24  1 7.22929030E-03 1.12063931E-02-1.34883981E-01-8.45154351E-02-5.75912655E-02
24  2-3.91231926E-02-4.61738342E-01-2.79394682E-01-1.92761328E-01-2.91525019E-01
24  3 2.58311362E-02 1.57142790E-01 7.33553263E-02 6.75000186E-02-2.53043560E-01
24  4-2.45705985E-01-1.46578127E-01 1.69992385E-01-1.37368708E-01-6.09443751E-02
24  5-6.93801454E-03 3.45751551E-02-4.69462362E-02-4.80348021E-01 7.22574309E-01
24  6-1.14149798E+00 3.23088366E-01 4.56036221E-02-4.54483627E-01-1.94119052E-01
24  7 6.02258653E-01-5.68846961E-01 1.23145755E+00-3.78780863E-01-8.56057111E-01
24  8 1.83823087E-02-1.20211143E-01
25  1 4.29562076E-02 6.60522364E-02-7.84159941E-02 1.20688694E-01 4.16080526E-02
25  2-4.34427461E-01-2.83501901E-01 4.50013452E-01 1.56477102E-01-8.05872653E-01
25  3-1.82302261E-01 7.78672078E-02 7.09941569E-03-4.17191368E-01-3.67178672E-02
25  4 1.68094588E-01 6.88205416E-02-8.28650345E-04 1.82444453E-02-2.37240857E-01
25  5 2.14522817E-02 6.31896139E-02 1.71346623E-01 6.08952819E-01-2.18089240E-01
25  6 9.46419573E-01-1.98009274E-01 1.33979118E-01 8.75931040E-01 4.07390383E-01
25  7 3.29708448E-01 1.00435137E-01 4.07462337E-01-6.85097717E-02-7.02602280E-01
25  8-7.77404272E-02-1.39707292E-01
26  1 1.01194741E-02-1.20465500E-02 4.07864049E-02-4.47073334E-02-1.36532801E-02
26  2-1.53500546E-01-2.91282626E-01 4.00561562E-01 1.33444771E-01-2.12586395E+00
26  3-6.47345768E-01 7.61310958E-01 2.39574243E-01 2.27091136E+00 5.24231070E-01
26  4-5.88393962E-01-1.81573954E-01-1.61111334E-01-1.89973584E-01-7.52689225E-02
26  5-1.58810319E-02-2.76773091E-02-7.80366724E-02-1.02696190E+00 3.03230111E+00
26  6-2.24368551E+00 2.18950181E-01 8.25330111E-02 8.44760999E-01 3.85895386E-01
26  7-9.89301532E-01 2.61641080E+00-2.00409044E+00 2.25477777E-01-6.92477842E-01
26  8-2.04047978E-02-1.12837748E-01
27  1-2.26644240E-04 1.17316294E-04 2.05419215E-02 1.65526043E-02 1.03985728E-02
27  2 4.49285799E-02-4.81541755E-01-4.58668976E-01-2.74998693E-01 5.55349492E-02
27  3-5.94011027E-01-5.29615312E-01-3.23229811E-01-6.59806463E-03 3.97862180E-01
27  4 3.40319463E-01 2.10123759E-01-1.85886711E-01 1.75981923E-01 2.98418180E-02
27  5 1.38781308E-02-2.56044976E-02 9.32234171E-02 8.89383688E-01-2.40252736E+00
27  6 1.54217564E+00-3.68868754E-01-1.36479536E-01-8.70954031E-01-4.05564586E-01
27  7-1.05545246E+00 2.49319680E+00-1.65013559E+00 4.06839333E-01-8.91430305E-01
27  8-8.71199550E-02-1.72163460E-01
28  1 4.71527676E-10 1.17781409E-09 3.67507279E-04 1.08387559E-03-2.45130709E-03
28  2-6.77042461E-09 2.78035446E-03 8.20024192E-03-1.85457399E-02 1.73199086E-08
28  3-3.50696100E-02-1.03432524E-01 2.33923924E-01-1.26195831E-08 5.66445589E-03
28  4 1.67064877E-02-3.77835375E-02-2.33541163E-01 1.94132657E-01 3.94084971E-02
28  5-3.59673122E-01 8.95975703E-01-2.63547210E-01 8.54087066E-09-1.18884150E-08
28  6 1.06324936E-08-3.60671939E-09 1.92861273E-02 5.68814730E-02-1.28643650E-01
28  7 9.80099895E-09-1.98086507E-08 1.44240991E-08 6.06045082E-10 6.17987508E-02
28  8 1.82266057E-01-4.12214554E-01
29  1 3.98394232E-10 9.91783420E-10 2.54289084E-04 7.49988360E-04-1.69616556E-03
29  2-2.76302535E-09-1.15921735E-03-3.41892626E-03 7.73228080E-03-3.10790763E-08
29  3 2.33971381E-02 6.90063654E-02-1.56065371E-01 2.01242706E-08-4.09561811E-03
29  4-1.20794216E-02 2.73188926E-02-5.94163003E-02-6.34287856E-01 6.93704176E-01
29  5-2.25339630E-01 1.68773146E-01 6.51124497E-01-1.45415829E-08 2.96450920E-08
29  6-1.91296397E-08-3.42140333E-09-6.49713407E-02-1.91623171E-01 4.33376700E-01
29  7-3.06978633E-09 2.05905607E-08-1.25457223E-08 4.66389784E-09 1.23708091E-02
29  8 3.64858438E-02-8.25167164E-02
30  1-1.57744706E-03-3.39859928E-03 4.65378194E-03-8.72337583E-03-3.15946302E-03
30  2 6.35709226E-02 1.01237309E-02-7.41347749E-03-1.76022592E-03-3.69595461E-01
30  3-3.63183478E-01 3.26961131E-01 9.01220760E-02 1.25139651E-01 7.49903750E-02
30  4-6.36754045E-02-1.69124402E-02-1.14774143E-01-1.38975111E-01 2.57650472E-01
30  5 9.79902882E-01 3.74692837E-01-3.82349741E-02-1.53239665E-02 3.17227063E-01
30  6-1.44704414E-01 1.98101545E-02 4.29696553E-01-2.57162974E-02 5.30488269E-02
30  7-4.90839503E-03 3.03051887E-01-1.40034154E-01 9.87013447E-03 5.25228141E-03
30  8-3.55165944E-01-1.56253841E-01
31  1-2.08210205E-02-5.10045580E-02 2.05788713E-01-1.82450311E-01-4.98212006E-02
31  2 2.47360796E-02 7.27716484E-02-1.02214238E-01-3.42855152E-02 2.73222971E+00
31  3 1.04551234E+00-9.24045604E-01-2.51836809E-01-1.73280155E+00-5.07144659E-01
31  4 4.53503720E-01 1.24492045E-01 5.51414203E-01 1.74633294E-01-8.36013034E-01
31  5 1.15612931E-01 3.44880152E-01 6.91362920E-01-2.33212505E-01-1.53108482E+00