! This is a sample input for FMO2-DFTB2 for the alpha-helix of ((Ala)20),
! divided as 1 residue per fragment. 
!
!    Before you can run this calculation, you must get DFTB parameters
!    (known as Slater-Koster tables). Here is a plain instruction!
!    1. Go to www.dftb.org, fill in the form, download the license PDF.
!    2. Send the PDF to the address mentioned in the PDF.
!    3. Patiently wait for a few days until you get your account information.
!    4. Using it, log in to www.dftb.org and download parameter files.
!    5. Store these files on the computer where you run DFTB.
!    6. Modify $DFTBSK below specifying the location of the parameter files.
!
!    There are many parameter sets. Here, "mio-0-1" is used.
!
! The total energy (Euncorr(2)) is -268.521607972 after 9 monomer
! SCC iterations.
! Nuclear repulsion energy (in DFTB, Erep) is 8.971762499.
!
! This energy corresponds to the energy of the alpha-helix
! (1 res./fragm.) row 1, column 1 in Table 1, -268.521608, in
!
!   Nishimoto, Y.; Fedorov, D. G.; Irle, S. J. Chem. Theory Comput.
!   2014, 10, 4801-4812. 
!
! On one CPU core (E5-2650), this calculation took 2.3 seconds.
!
! This FMO run can be compared with the full DFTB one in 
! ~/gamess/tests/dftb/dftb2.inp .
!
! A short note on the use of input options in the above paper.
!  MODESD=2 was used in sections 3.2 and 3.3 in the FMO-DFTB paper.
!  MODGAM=1 was used in Table 3 and Figure 4 in FMO-DFTB paper.
!
! All FMO-DFTB calculations in the paper were conducted with the
! set of HOP orbitals ($FMOHYP), called HOP_C.
! Because the way to generate these orbitals was slightly improved
! since then, the following set is now recommended.
! DFTB 4 4
! 1 0 0.562060  0.000000  0.000000  0.827096
! 0 1 0.562060  0.779794  0.000000 -0.275699
! 0 1 0.562060 -0.389897  0.675322 -0.275698
! 0 1 0.562060 -0.389897 -0.675322 -0.275698
!
 $CONTRL RUNTYP=ENERGY NPRINT=-5 ISPHER=1 MAXIT=50 $END
 $SYSTEM MWORDS=40 MODIO=31 $END
 $BASIS GBASIS=DFTB $END
 $DFTB SCC=.TRUE. modgam=1 modesd=2 $END
 $FMOPRP
    NPRINT=138
 $END
 $DFTBSK
   C C "/share/apps/DFTB/slako/mio-0-1/C-C.skf" ! These paths have to be
   C H "/share/apps/DFTB/slako/mio-0-1/C-H.skf" ! modified depending on the
   C O "/share/apps/DFTB/slako/mio-0-1/C-O.skf" ! location you put downloaded
   C N "/share/apps/DFTB/slako/mio-0-1/C-N.skf" ! Slater-Koster tables
   H C "/share/apps/DFTB/slako/mio-0-1/H-C.skf"
   H H "/share/apps/DFTB/slako/mio-0-1/H-H.skf"
   H O "/share/apps/DFTB/slako/mio-0-1/H-O.skf"
   H N "/share/apps/DFTB/slako/mio-0-1/H-N.skf"
   O C "/share/apps/DFTB/slako/mio-0-1/O-C.skf"
   O H "/share/apps/DFTB/slako/mio-0-1/O-H.skf"
   O O "/share/apps/DFTB/slako/mio-0-1/O-O.skf"
   O N "/share/apps/DFTB/slako/mio-0-1/O-N.skf"
   N C "/share/apps/DFTB/slako/mio-0-1/N-C.skf"
   N H "/share/apps/DFTB/slako/mio-0-1/N-H.skf"
   N O "/share/apps/DFTB/slako/mio-0-1/N-O.skf"
   N N "/share/apps/DFTB/slako/mio-0-1/N-N.skf"
 $END
 $FMO
      MODGRD=10
      MODMUL=0
      MAXCAO=5
      MAXBND=20
      NLAYER=1
      NFRAG=20
      ICHARG(1)=   0,  0,  0,  0,  0,  0,  0,  0,  0,  0,
                   0,  0,  0,  0,  0,  0,  0,  0,  0,  0,
      FRGNAM(1)= Gly-1, Ala-3, Ala-4, Ala-5, Ala-6, 
                 Ala-7, Ala-8, Ala-9, Ala-10, Ala-11, 
                 Ala-12, Ala-13, Ala-14, Ala-15, Ala-16, 
                 Ala-17, Ala-18, Ala-19, Ala-20, Ala-21
      INDAT(1)= 0
                1     -8     11    -16      0
                9     10     17     18     21    -26      0
               19     20     27     28     31    -36      0
               29     30     37     38     41    -46      0
               39     40     47     48     51    -56      0
               49     50     57     58     61    -66      0
               59     60     67     68     71    -76      0
               69     70     77     78     81    -86      0
               79     80     87     88     91    -96      0
               89     90     97     98    101   -106      0
               99    100    107    108    111   -116      0
              109    110    117    118    121   -126      0
              119    120    127    128    131   -136      0
              129    130    137    138    141   -146      0
              139    140    147    148    151   -156      0
              149    150    157    158    161   -166      0
              159    160    167    168    171   -176      0
              169    170    177    178    181   -186      0
              179    180    187    188    191   -196      0
              189    190    197   -212      0
 $END
! Note that an improved set of orbitals for $FMOHYB is now
! available, see above. In the paper, the one below was used.
 $FMOHYB
 HOP_C        4   4
1 0  0.577 -0.003  0.002  0.817
0 1  0.552  0.786  0.003 -0.279
0 1  0.557 -0.386  0.677 -0.287
0 1  0.562 -0.384 -0.674 -0.286
 $END
 $FMOBND
        -8         9  HOP_C
       -18        19  HOP_C
       -28        29  HOP_C
       -38        39  HOP_C
       -48        49  HOP_C
       -58        59  HOP_C
       -68        69  HOP_C
       -78        79  HOP_C
       -88        89  HOP_C
       -98        99  HOP_C
      -108       109  HOP_C
      -118       119  HOP_C
      -128       129  HOP_C
      -138       139  HOP_C
      -148       149  HOP_C
      -158       159  HOP_C
      -168       169  HOP_C
      -178       179  HOP_C
      -188       189  HOP_C
 $END
 $DATA
 FMO calculation : input.xyz
 C1 
 C    6
 O    8
 H    1
 N    7
 $END
 $FMOXYZ
 C           6.0   0.1758995557  -0.5394920094  -0.9121913340
 C           6.0   0.1289526339  -0.4239136121   0.5860655296
 O           8.0   0.9346213696  -0.9917911941   1.3369807524
 H           1.0   0.8449515147  -1.3498730019  -1.2149455402
 H           1.0   0.5506898403   0.3947129389  -1.3504733917
 H           1.0  -0.8221950020  -0.7247610284  -1.3269388724
 N           7.0  -0.8937924280   0.3325715746   1.1111545431
 C           6.0  -0.8617671760   0.6962011340   2.5213718664
 C           6.0  -0.4538149660  -0.5084433524   3.3729301094
 O           8.0   0.4263532538  -0.4289666732   4.2367936145
 H           1.0  -1.4406722352   0.9385878920   0.4810338555
 H           1.0  -0.0999669798   1.5021511474   2.6903565051
 C           6.0  -2.2225645145   1.2142590678   2.9471903310
 H           1.0  -2.2062209229   1.5140358696   4.0002875763
 H           1.0  -2.9995121813   0.4485020311   2.8209079774
 H           1.0  -2.5098223902   2.0880398658   2.3484377106
 N           7.0  -1.1654605994  -1.6686529115   3.1900013514
 C           6.0  -1.0018975348  -2.7660841669   4.1351994413
 C           6.0   0.4665761468  -3.2062969195   4.2077072080
 O           8.0   0.9842748614  -3.5753072835   5.2683600224
 H           1.0  -1.9926892523  -1.6677978588   2.5763491455
 H           1.0  -1.3105458940  -2.4311967729   5.1593774038
 C           6.0  -1.8704662528  -3.9340885311   3.7127601915
 H           1.0  -1.7707884056  -4.7599642958   4.4247229214
 H           1.0  -1.5826991104  -4.3023432669   2.7192174094
 H           1.0  -2.9281023427  -3.6412957957   3.6733991941
 N           7.0   1.1328063636  -3.2580036793   3.0141064310
 C           6.0   2.5409325973  -3.6320815220   2.9865122624
 C           6.0   3.3842773681  -2.6374173048   3.7909188923
 O           8.0   4.2961019634  -3.0146382289   4.5414397066
 H           1.0   0.7647068463  -2.7088813947   2.2145878639
 H           1.0   2.6522287250  -4.6346159492   3.4656030974
 C           6.0   3.0175453507  -3.6985807471   1.5495605083
 H           1.0   4.0774939203  -3.9721008295   1.5093069911
 H           1.0   2.8908008943  -2.7280908618   1.0519770676
 H           1.0   2.4488337248  -4.4478703371   0.9835809117
 N           7.0   3.0963588784  -1.3146637159   3.6225048257
 C           6.0   3.8074095535  -0.3238936378   4.4187920850
 C           6.0   3.6718003358  -0.6610009983   5.9098149445
 O           8.0   4.6328169610  -0.5956434380   6.6902338948
 H           1.0   2.2760655631  -1.0252702801   3.0607435304
 H           1.0   4.8962495293  -0.3558768818   4.1618884858
 C           6.0   3.2594459744   1.0568690734   4.1239440445
 H           1.0   3.7692188344   1.8107164763   4.7341079801
 H           1.0   2.1830914985   1.1004041193   4.3398593591
 H           1.0   3.4058788679   1.3158143897   3.0669539422
 N           7.0   2.4251169466  -1.0217258137   6.3291775514
 C           6.0   2.1940142785  -1.3749081837   7.7217499898
 C           6.0   3.1357768947  -2.5148511432   8.1235793991
 O           8.0   3.7867498248  -2.4896894253   9.1802194563
 H           1.0   1.6382799723  -1.0506208103   5.6559894956
 H           1.0   2.4245950830  -0.4951664674   8.3758442222
 C           6.0   0.7456736744  -1.7784973138   7.9075631935
 H           1.0   0.5594202867  -2.0785696178   8.9449212053
 H           1.0   0.4915426004  -2.6196818828   7.2467722602
 H           1.0   0.0755397600  -0.9418999933   7.6679745232
 N           7.0   3.2117742451  -3.5620364086   7.2562169481
 C           6.0   4.0940409262  -4.6824948436   7.5423824139
 C           6.0   5.5125994711  -4.1677705318   7.8101807632
 O           8.0   6.2039352351  -4.6002065805   8.7476453890
 H           1.0   2.6270606030  -3.5757080251   6.3999388848
 H           1.0   3.7435766255  -5.2159062660   8.4640355102
 C           6.0   4.0858229621  -5.6421683808   6.3698365724
 H           1.0   4.7713376633  -6.4778560215   6.5505496110
 H           1.0   4.3935085411  -5.1264672994   5.4492688083
 H           1.0   3.0794448685  -6.0519540294   6.2109403483
 N           7.0   5.9824270569  -3.2316991984   6.9408255873
 C           6.0   7.3208503414  -2.6872743032   7.1035271736
 C           6.0   7.4674206801  -2.0738797855   8.4993656087
 O           8.0   8.4824009188  -2.2552379228   9.1936053916
 H           1.0   5.3835605147  -2.8947641575   6.1634533716
 H           1.0   8.0751255147  -3.5110681908   7.0130442820
 C           6.0   7.5757798469  -1.6475243615   6.0312699143
 H           1.0   8.5671942206  -1.1976953631   6.1578019458
 H           1.0   6.8184193032  -0.8525385100   6.0801186865
 H           1.0   7.5296280716  -2.1012073716   5.0323799934
 N           7.0   6.4331791156  -1.2991248355   8.9252788625
 C           6.0   6.4692546692  -0.6950324764  10.2473025452
 C           6.0   6.6592749055  -1.7810272775  11.3120338126
 O           8.0   7.4336932920  -1.6321715440  12.2727155537
 H           1.0   5.5965071751  -1.1713345747   8.3243643470
 H           1.0   7.3409925013   0.0055671663  10.3166445778
 C           6.0   5.1842216586   0.0711228794  10.4871852650
 H           1.0   5.1748523721   0.5038634559  11.4940992861
 H           1.0   4.3158425313  -0.5939399930  10.3808081752
 H           1.0   5.0783260627   0.8882000339   9.7612256323
 N           7.0   5.9112477438  -2.9073657920  11.1578028220
 C           6.0   6.0393661826  -4.0047421649  12.1030352162
 C           6.0   7.4977240609  -4.4709844025  12.1595882722
 O           8.0   8.0671800333  -4.7207840291  13.2357728943
 H           1.0   5.2789294255  -3.0044342434  10.3401505085
 H           1.0   5.7549820677  -3.6523583100  13.1279287679
 C           6.0   5.1266787164  -5.1398192476  11.6857345076
 H           1.0   5.2391273199  -5.9946368537  12.3625389490
 H           1.0   5.3632483885  -5.4650064105  10.6626497326
 H           1.0   4.0760997518  -4.8207552714  11.7074981660
 N           7.0   8.1275954110  -4.6117293100  10.9615650334
 C           6.0   9.5224761822  -5.0192829994  10.9127613749
 C           6.0  10.3724698281  -4.0514798487  11.7429338514
 O           8.0  11.2587056357  -4.4500459055  12.5179486664
 H           1.0   7.6209473804  -4.4033866933  10.0792711184
 H           1.0   9.6327668234  -6.0405549799  11.3609751124
 C           6.0   9.9898245604  -5.0449356804   9.4717194094
 H           1.0  11.0517752960  -5.3102927446   9.4145614918
 H           1.0   9.8455983219  -4.0601503287   9.0050311247
 H           1.0   9.4197990636  -5.7833252153   8.8923325516
 N           7.0  10.1119363556  -2.7273849484  11.5676345055
 C           6.0  10.8528434019  -1.7310645973  12.3236979854
 C           6.0  10.7198377597  -2.0162680766  13.8230635638
 O           8.0  11.6923107761  -1.9474388405  14.5942119155
 H           1.0   9.3751161845  -2.4247731306  10.9009825177
 H           1.0  11.9409457601  -1.7893086694  12.0607590963
 C           6.0  10.3249163640  -0.3504094974  11.9905937475
 H           1.0  10.8428376979   0.4141454463  12.5811586512
 H           1.0   9.2476406160  -0.2915321446  12.2018048159
 H           1.0  10.4764537450  -0.1236970855  10.9268273133
 N           7.0   9.4700151038  -2.3253896502  14.2632272465
 C           6.0   9.2393503833  -2.6283210871  15.6662228155
 C           6.0  10.1234650414  -3.8031842640  16.0994470920
 O           8.0  10.7225147168  -3.8104124367  17.1882207978
 H           1.0   8.6769172761  -2.3598499963  13.5933247654
 H           1.0   9.5182363599  -1.7424386738  16.2934679569
 C           6.0   7.7747320169  -2.9562973462  15.8745917460
 H           1.0   7.5841068888  -3.2276845679  16.9193666417
 H           1.0   7.4759115575  -3.7956942696  15.2308158192
 H           1.0   7.1442692049  -2.0930242196  15.6231411799
 N           7.0  10.1942346034  -4.8481973660  15.2308863897
 C           6.0  11.0240364156  -6.0007950214  15.5394299819
 C           6.0  12.4710251640  -5.5538094082  15.7743132634
 O           8.0  13.1641974523  -6.0311768929  16.6881028724
 H           1.0   9.6715660702  -4.8158615796  14.3338400116
 H           1.0  10.6601257738  -6.4855818156  16.4820224252
 C           6.0  10.9503559078  -6.9946702188  14.3980380350
 H           1.0  11.6032006511  -7.8537440037  14.5911999946
 H           1.0  11.2603235184  -6.5191822293  13.4567177467
 H           1.0   9.9242196773  -7.3646674445  14.2709387486
 N           7.0  12.9568907590  -4.6257754672  14.9052622911
 C           6.0  14.3091469082  -4.1130020122  15.0552138998
 C           6.0  14.4674740187  -3.4567653686  16.4329254267
 O           8.0  15.4651991549  -3.6487508504  17.1454061982
 H           1.0  12.3497501628  -4.2570995312  14.1477504795
 H           1.0  15.0399372832  -4.9601978175  14.9957362050
 C           6.0  14.5937101031  -3.1166870250  13.9498028624
 H           1.0  15.5946864466  -2.6851736558  14.0663854938
 H           1.0  13.8541819144  -2.3036477090  13.9684887396
 H           1.0  14.5412835986  -3.6019239010  12.9660643166
 N           7.0  13.4494245482  -2.6402362990  16.8227157945
 C           6.0  13.4880463263  -2.0051563038  18.1297110863
 C           6.0  13.7096874110  -3.0722979395  19.2100818269
 O           8.0  14.5194937631  -2.9222830899  20.1334321944
 H           1.0  12.6309578333  -2.4925418017  16.2011669908
 H           1.0  14.3472817098  -1.2866071666  18.1767650952
 C           6.0  12.1916217643  -1.2575011793  18.3655484500
 H           1.0  12.1814958049  -0.8063000512  19.3646403379
 H           1.0  11.3341421930  -1.9398758785  18.2765530711
 H           1.0  12.0657934948  -0.4552074450  17.6257794947
 N           7.0  12.9399046393  -4.1947188825  19.1013281979
 C           6.0  13.0901425470  -5.2715218296  20.0666433905
 C           6.0  14.5421727098  -5.7653008307  20.0778861798
 O           8.0  15.1522712047  -6.0144165097  21.1301710563
 H           1.0  12.2622693544  -4.2905929419  18.3215881809
 H           1.0  12.8485271722  -4.8936691543  21.0933212558
 C           6.0  12.1475730628  -6.4022609230  19.7069527759
 H           1.0  12.2702815460  -7.2436837900  20.3990342605
 H           1.0  12.3446752122  -6.7546814451  18.6844237832
 H           1.0  11.1023967411  -6.0678875208  19.7558604243
 N           7.0  15.1162633927  -5.9426270067  18.8556051904
 C           6.0  16.4768755833  -6.4368274458  18.7457157176
 C           6.0  17.4464743393  -5.5345438934  19.5139281657
 O           8.0  18.4867192497  -5.9827686146  20.0281769764
 H           1.0  14.5706630117  -5.7521976150  17.9926385288
 H           1.0  16.5442814003  -7.4635336295  19.1920985131
 C           6.0  16.8721178474  -6.5004251283  17.2836105824
 H           1.0  17.9122278152  -6.8301370352  17.1799692174
 H           1.0  16.7660220118  -5.5111567652  16.8164331424
 H           1.0  16.2305383563  -7.2054683586  16.7377189650
 N           7.0  17.1326576492  -4.2121823184  19.5755791412
 C           6.0  18.0236742566  -3.2830189545  20.2441970343
 C           6.0  18.2195991388  -3.6502527658  21.7198840116
 O           8.0  19.2036089576  -3.2323978315  22.3554173426
 H           1.0  16.2675216213  -3.8573357330  19.1256411295
 H           1.0  19.0355335435  -3.3292190765  19.7613888579
 C           6.0  17.4820151501  -1.8732460759  20.1186047874
 H           1.0  18.1075057618  -1.1729406359  20.6840674455
 H           1.0  16.4533233286  -1.8184948423  20.4978537514
 H           1.0  17.4716819614  -1.5551210652  19.0672864339
 N           7.0  17.2677710724  -4.4262271473  22.3100455160
 C           6.0  17.4119378555  -4.8180321653  23.7003113209
 C           6.0  18.5933779938  -5.7770874474  23.9220776305
 O           8.0  18.9366369213  -6.1058556075  25.0632343408
 H           1.0  16.4919032847  -4.8406770776  21.7521164399
 H           1.0  17.6332513795  -3.9001790508  24.3038418217
 C           6.0  16.1228642523  -5.4387071294  24.1981934876
 H           1.0  16.2506563617  -5.7981503844  25.2257279779
 H           1.0  15.8265653015  -6.2851958677  23.5665597229
 H           1.0  15.3044234048  -4.7067931789  24.1860027684
 N           7.0  19.2485242638  -6.2266928798  22.8092558429
 C           6.0  20.4197582895  -7.0704946278  22.9319676776
 C           6.0  21.7145671278  -6.2940267650  22.6486049136
 O           8.0  22.7997888352  -6.8733039959  22.5243689167
 H           1.0  18.8986032186  -5.9986997028  21.8542739891
 H           1.0  20.4588367872  -7.4085519489  23.9974230267
 C           6.0  20.3144546129  -8.2757024369  22.0152569429
 H           1.0  21.2533874542  -8.8413630399  22.0319910308
 H           1.0  20.1179362823  -7.9607692712  20.9824817282
 H           1.0  19.4990978200  -8.9411390446  22.3285606859
 N           7.0  21.6032391239  -4.9315805823  22.5764881082
 C           6.0  22.7483565832  -4.1101960340  22.3217597334
 H           1.0  20.6707643729  -4.4772936720  22.6398567109
 H           1.0  22.9105945323  -3.3718558121  23.1331014326
 H           1.0  22.6427943166  -3.5414349985  21.3752895120
 H           1.0  23.6349721995  -4.7574152850  22.2489229101
 $END
