!
!  An input for FMO-UHF Hessian. 
!  The structure is optimized at the same level of theory
!  (except modgrd=42 is used during optimization).
!  It reproduces two entrees in TABLE 3, S=1/2, isomer E in 
!  H. Nakata, D. G. Fedorov, S. Yokojima, K. Kitaura, S. Nakamura, 
!  Chem. Phys. Lett. 603 (2014) 67-74.
!
!  Nota bene: all frequencies in the paper are scaled by 0.8953!
!
!  The two entrees in Table 3 are as follows.
!
!          GAMESS prints                        Table 3 in CPL 2014
!   mode 194 1703.711 cm-1, scaled to 1525.3; compare to v_{7a} 1525.3
!   mode 195 1714.848 cm-1, scaled to 1535.3; compare to v_{8a} 1535.3
!
! Total energy of the molecule: Euncorr(2)=    -1880.599981582
!
---------------------------------------------------------------------------
!              E         H         G         CV        CP        S
!         KCAL/MOL  KCAL/MOL  KCAL/MOL CAL/MOL-K CAL/MOL-K CAL/MOL-K
! ELEC.      0.000     0.000    -0.411     0.000     0.000     1.377
! TRANS.     0.889     1.481   -11.891     2.981     4.968    44.849
! ROT.       0.889     0.889   -10.710     2.981     2.981    38.903
! VIB.     482.683   482.683   435.001   136.911   136.911   159.927
! TOTAL    484.461   485.053   411.990   142.872   144.860   245.056
---------------------------------------------------------------------------
!
! Note that:
! a) RUNTYP=FMOHESS computes FMO gradient without SCZV terms,
!    no matter what MODGRD says.
!    Therefore, if you optimized the structure with MODGRD=42
!    and run RUNTYP=FMOHESS, you will not see a zero gradient,
!    even if you use the same MODGRD=42.
! b) MODGRD should have the bit "2" set in RUNTYP=FMOHESS
!    Other bits such as 8 affect only the gradient, or are ignored (bit 32),
!    so that they do not affect the Hessian, but bit 2 does!
!    Normally, MODGRD=2 is used in RUNTYP=FMOHESS.
! c) RUNTYP=Raman should be normally run with MODGRD=42.
!
! This run does take the amount of memory specified below,
! and on 1 node with 8 Xeon cores it took 40070.9 seconds. 
!
 $contrl units=angs nprint=-5 RUNTYP=fmohess maxit=100 ispher=1
  SCFTYP=UHF ICHARG=-1 MULT=2 $end
 $system BALTYP=NXTVAL memory=350000000 $end
 $gddi   ngroup=1 parout=.t. $end
 $scf  dirscf=.t. NPUNCH=0 diis=.t. soscf=.f.  $end
 $elmom  where=cocharge $end
 $basis gbasis=n31 ngauss=6 ndfunc=1 $end
 $fmoprp modorb=3 nprint=9 $end
 $FMOLMO
  631-Gd 15 5
 1 0  -0.065034    0.288264    0.000000    0.000000    0.604413
       0.290129    0.000000    0.000000    0.319045   -0.017106
      -0.017106    0.057935    0.000000    0.000000    0.000000
 0 1  -0.065041    0.288294    0.569833    0.000000   -0.201457
       0.290147    0.300784    0.000000   -0.106342    0.049599
      -0.017106   -0.008771    0.000000   -0.027223    0.000000
 0 1  -0.065040    0.288293   -0.284917   -0.493490   -0.201456
       0.290146   -0.150393   -0.260487   -0.106341   -0.000428
       0.032923   -0.008771    0.033353    0.013612    0.023577
 0 1  -0.065040    0.288293   -0.284917    0.493490   -0.201456
       0.290146   -0.150393    0.260487   -0.106341   -0.000428
       0.032923   -0.008771   -0.033353    0.013612   -0.023577
 0 1   1.010938   -0.011976    0.000000    0.000000    0.000000
      -0.054085    0.000000    0.000000   -0.000001   -0.003175
      -0.003175   -0.003175    0.000000    0.000000    0.000000
  MINI         5   5
    1 0  -0.104883   0.308874   0.000000   0.000000   0.521806
    0 1  -0.104883   0.308874   0.491961   0.000000  -0.173934
    0 1  -0.104883   0.308876  -0.245980  -0.426050  -0.173933
    0 1  -0.104883   0.308876  -0.245980   0.426050  -0.173933
    0 1   0.988209   0.063992   0.000000   0.000000   0.000000
 $end
 $fmo
  SCFTYP(1)=UHF
  resdim=2.0 resppc=0 modgrd=10
  nlayer=1 nbody=2 
      NFRAG=4
      ICHARG(1)=  0,  0,  0, -1
      MULT(1)=    2,  1,  1,  1
      FRGNAM(1)=AMINO001, AMINO002, AMINO003, AMINO004
      SCFFRG(1)=UHF, RHF, RHF, RHF 
      MPLEVL(1)=0
      INDAT(1)=0
                1    -18     47    -65     80      0
               19    -27     66    -70      0
               28    -37     71    -79      0
               38    -46     81      0
 $END
 $FMOBND
 -13   19   631-Gd  MINI
 -22   28   631-Gd  MINI
 -32   38   631-Gd  MINI
 $END
 $DATA

c1
H-1 1
C-1 6
N-1 7
O-1 8
 $END
 $FMOXYZ
      1      N    -5.63888621700     2.00953947940     1.95087908130
      2      H    -5.63374450570     2.26441515760     2.91991924890
      3      C    -4.57355307880     2.70667048320     1.24632049140
      4      H    -4.60917892760     2.38575042990     0.20905119780
      5      C    -4.61753510600     4.25282914250     1.28405776890
      6      C    -3.39838740450     4.84517124360     0.56471480640
      7      C    -5.93463650000     4.78224404810     0.69290435050
      8      H    -4.56946369580     4.54293100470     2.33086962530
      9      C    -3.28840033700     2.19714867870     1.89324627970
     10      O    -3.05048662690     2.44439315790     3.05173028090
     11      N    -2.46864607450     1.47440628250     1.11507751920
     12      H    -2.74929942190     1.19273894450     0.20232095620
     13      C    -1.26886978780     0.85093732460     1.63205824150
     14      H    -0.81025382390     1.54569089880     2.31744337750
     15      C    -1.60225867760    -0.47207015330     2.37263154970
     16      H    -2.55676274650    -0.31776490590     2.86020562830
     17      H    -1.73945882760    -1.25714839740     1.63799823650
     18      C    -0.59066113370    -0.88450261040     3.41659098730
     19      C    -0.38988967980     0.57261472720     0.41003835540
     20      O    -0.92449188480     0.16364722120    -0.59623067720
     21      N     0.92877141620     0.78246576790     0.47563252940
     22      C     1.75250175390     0.44352399650    -0.67367864680
     23      H     1.33385628960     0.88234260530    -1.56854081280
     24      C     3.11914128810     1.05140552050    -0.31475940020
     25      H     3.94225896720     0.52837507860    -0.78468156310
     26      H     3.14888771280     2.08493083810    -0.64656265750
     27      C     3.14532282580     0.97911168880     1.21274308040
     28      C     1.86542158820    -1.07338800960    -0.85864034180
     29      O     1.80520034890    -1.82419004890     0.08463419340
     30      N     2.09082225440    -1.45335865080    -2.11685402090
     31      H     2.17729086300    -0.77020428750    -2.83729599360
     32      C     2.46563497300    -2.79713283340    -2.52951042750
     33      H     2.78498374440    -3.33755884720    -1.64947360530
     34      C     1.28775913330    -3.54012362000    -3.20527992890
     35      C     1.73027308250    -4.91826641590    -3.71350782890
     36      C     0.08152907930    -3.64148476410    -2.25701844970
     37      H     0.99731466940    -2.93705987090    -4.06306815140
     38      C     3.62543067330    -2.60659200920    -3.51295471260
     39      O     3.52283681160    -1.73584652680    -4.35791829710
     40      N     4.66265857870    -3.40531676930    -3.36257048980
     41      H     4.70706082550    -4.10594701180    -2.64842710290
     42      C     5.84638917630    -3.43223667470    -4.19897495280
     43      H     5.58094534070    -3.61538830700    -5.23388929320
     44      H     6.36278336130    -2.47995018690    -4.16236736390
     45      C     6.79705352870    -4.55849787490    -3.69951280440
     46      O     7.83641048980    -4.65796678990    -4.33941649680
     47      H    -6.00078487520     4.49387684900    -0.35551520940
     48      H    -6.76963914370     4.30434362130     1.19579947000
     49      C    -6.12721718500     6.29575154260     0.81361534600
     50      H    -2.47006224500     4.49191640130     0.99829823320
     51      H    -3.39780637530     4.57803609580    -0.48966866830
     52      H    -3.38705501350     5.92653942470     0.63121491200
     53      H    -6.01591436260     6.62224357900     1.84401381940
     54      H    -5.41701186710     6.85001335380     0.21075859000
     55      H    -7.12234339480     6.57862045960     0.48375063920
     56      C    -0.64761828100    -0.28833072090     4.70107134630
     57      C     0.41209901420    -1.84314223070     3.14454222770
     58      C     1.32810536560    -2.20770714210     4.12092464610
     59      C     0.25325565950    -0.63727790940     5.69162285690
     60      C     1.27489793950    -1.61990752750     5.43332908230
     61      H     0.48902037290    -2.26874962020     2.16174547150
     62      H     2.09852805230    -2.92913232330     3.92244006050
     63      H    -1.40734646440     0.44783418740     4.89886170570
     64      H     0.21688641880    -0.19626686980     6.67066831160
     65      O     2.09168922220    -1.94473840530     6.32626796750
     66      C     1.70330733720     1.29820166590     1.60502420350
     67      H     3.39444786350    -0.02464664930     1.53183688540
     68      H     3.85167923050     1.66891164250     1.65915172840
     69      H     1.55195815510     2.36990586890     1.70603513600
     70      H     1.42223420510     0.82358685650     2.53158931860
     71      H     2.54694590240    -4.84688509640    -4.42043657130
     72      H     2.06090527190    -5.54980077550    -2.89252844580
     73      H     0.91401881840    -5.42669373200    -4.21390476840
     74      H     0.34693165070    -4.26395534870    -1.40513762180
     75      H    -0.14227493110    -2.65954344890    -1.85965910620
     76      C    -1.18965200740    -4.18771314410    -2.91212906120
     77      H    -1.45257152610    -3.61151731700    -3.79585156430
     78      H    -1.09161879420    -5.22605030600    -3.21050984920
     79      H    -2.02580819180    -4.12651355540    -2.22116305680
     80      H    -6.53830781350     2.22120243540     1.56989751330
     81      O     6.38213320180    -5.20303336310    -2.72811364960
 $END
