!   2,2-dichloroethenyl dimethyl phosphate in DMSO using SMD model.
!   This test changed by me to C-PCM and coarse FIXPVA tesselation.
!   RHF energy...191 AOs in 6-31G(d) basis
!
!   The 1st step is a gas-phase total energy calculation:
!   FINAL RHF ENERGY IS    -1714.7064242686 AFTER  14 ITERATIONS
!
!   The 2nd step is a liquid-phase total energy calculation:
!   SURFACE AREA= 201.61462670(A**2)    CAVITY VOLUME= 226.64374412 (A**3)
!   FINAL RHF ENERGY IS    -1714.7176368889 AFTER  10 ITERATIONS
!
!   The free energy of solvation is a difference between those two,
!   DELTA INTERNAL ENERGY        =   0.64 KCAL/MOL
!   ELECTROSTATIC INTERACTION    =  -7.56 KCAL/MOL
!   CDS INTERACTION              =  -0.13 KCAL/MOL
!   FREE ENERGY OF SOLVATION     =  -7.04 KCAL/MOL
!   FREE ENERGY OF SOLVATION     =  -5.14 KCAL/MOL (1 ATM STANDARD STATE)
!
!   This run takes 53 seconds on 2.66 GHz Cloverton (22 Oct 2015)
!
 $CONTRL SCFTYP=RHF RUNTYP=ENERGY $end
 $system mwords=1 $end
 $BASIS  GBASIS=N31 NGAUSS=6 NDFUNC=1 $END

 $PCM    SOLVNT=DMSO SMD=.true. $end

!    How to run conventional PCM taking SMD's choice for radii,
!    and add the original cavitation/dispersion/repulsion terms.
!    The radii were gleaned from the log file of the SMD run.
x$pcm    solvnt=dmso smd=.false. icav=1 idisp=1 $end
x$pcmdis iclav=1 $end
x$pcmcav rin(1)=1.85, 1.85, 2.38, 2.38, 1.85, 1.85, 2.12, 
x               2.294, 2.294, 2.294, 2.294,
x               1.20, 1.20, 1.20, 1.20, 1.20, 1.20, 1.20  alpha=1.0 $end
!    the results of the traditional C-PCM run match the electrostatics
!    only energy to one microHartree, whereas a large cavitation energy
!    seems to lead to a prediction of positive solvation energy:
!  FREE ENERGY IN SOLVENT = <PSI| H(0)+V/2 |PSI>     = -1714.7174360079 A.U.
!  INTERNAL ENERGY IN SOLVENT = <PSI| H(0) |PSI>     = -1714.7053970759 A.U.
!  DELTA INTERNAL ENERGY =  <D-PSI| H(0) |D-PSI>     =     0.0000000000 A.U.
!  ELECTROSTATIC INTERACTION                         =    -0.0120389320 A.U.
!  PIEROTTI CAVITATION ENERGY                        =     0.0454307062 A.U.
!  DISPERSION FREE ENERGY                            =    -0.0197651970 A.U.
!  REPULSION FREE ENERGY                             =     0.0015760638 A.U.
!  TOTAL INTERACTION (DELTA + ES + CAV + DISP + REP) =     0.0152026410 A.U.
!  TOTAL FREE ENERGY IN SOLVENT                      = -1714.6901944349 A.U.
! 
!  FREE ENERGY IN SOLVENT       =    -1076001.55 KCAL/MOL
!  INTERNAL ENERGY IN SOLVENT   =    -1075994.00 KCAL/MOL
!  DELTA INTERNAL ENERGY        =           0.00 KCAL/MOL
!  ELECTROSTATIC INTERACTION    =          -7.55 KCAL/MOL
!  PIEROTTI CAVITATION ENERGY   =          28.51 KCAL/MOL
!  DISPERSION FREE ENERGY       =         -12.40 KCAL/MOL
!  REPULSION FREE ENERGY        =           0.99 KCAL/MOL
!  TOTAL INTERACTION            =           9.54 KCAL/MOL
!  TOTAL FREE ENERGY IN SOLVENT =    -1075984.46 KCAL/MOL

 $DATA
SMD/RHF/6-31G(d) solvation - 2,2-dichloroethenyl dimethyl phosphate in DMSO
C1
   C         6                     0.886551   -0.538770   -0.226736
   C         6                     2.109190   -0.074290    0.021097
   CL       17                     3.518080   -0.909728   -0.542886
   CL       17                     2.401932    1.375529    0.919716
   C         6                    -2.465672   -0.979038    2.029287
   C         6                    -2.068974    2.143247   -0.946365
   P        15                    -1.697440   -0.391916   -0.374109
   O         8                    -0.220540    0.125132    0.263049
   O         8                    -1.640803   -1.790632   -0.933197
   O         8                    -2.118546    0.766386   -1.436114
   O         8                    -2.666476   -0.071969    0.901438
   H         1                    -3.288305   -0.770059    2.717206
   H         1                    -2.507263   -2.021027    1.692938
   H         1                    -1.504946   -0.768477    2.512545
   H         1                    -1.056232    2.392251   -0.612402
   H         1                    -2.345630    2.756441   -1.807206
   H         1                    -2.787066    2.283774   -0.132406
   H         1                     0.715195   -1.451011   -0.790243
 $END

! TRAVIS-CI SMALL

