! Test Monte Carlo optimization for a mixed AI/EFP water system
!
! This is a sample input file for testing mixed systems in globop.
! Due to the random nature of movements in a Monte Carlo run
! there is no way to predict what the final energy will be,
! but the output must include the line:
! TOTAL NUMBER OF GEOMETRIES =     80 
!
! and the lowest energy should be within an order of magnitude of
! MINIMUM ENERGY FOUND =            -75.3900196963
!
 $contrl ispher=1 scftyp=rhf runtyp=GLOBOP 
   mplevl=2 maxit=100  icharg=1 $end
 $scf dirscf=.t. $end
 $basis gbasis=mini  $end
 $system timlim=999999100 mwords=100 $end
 $GLOBOP TEMPI=200 RNDINI=.TRUE. NBLOCK=20 SEPTOL=1.5
     NROT=2 NTRAN=2 MCMIN=.FALSE. MCTYP=5 NAIFG=1
     XMAX=7 XMIN=-7 JSTRND=.f.
     YMAX=7 YMIN=-7
     ZMAX=7 ZMIN=-7
     $END
 $GLBFRG AIFRG(1)=1,1,1,1 $END
 $DATA

 c1
 O           8.0  -6.8370008810   0.6904657218   0.7021397540
 H           1.0  -7.5016565391   0.7179196908  -0.0642453653
 H           1.0  -6.4692622115  -0.2354075206   0.7185769030
 H           1.0  -6.1288276156   1.3106740387   0.4342432721
 $END
 $EFRAG
 COORD=CART POSITION=OPTIMIZE
  FRAGNAME=H2ODFT  !   1
 O1                 0.578241750900   -0.825674442493    0.530883173986
 H2                 0.636960006031   -0.753392690981    1.470141375431
 H3                 1.353404941119   -1.281997736173    0.244929446534
 FRAGNAME=H2ODFT  !   2
 O1                 0.207612772719    2.629102560758   -0.347885644755
 H2                 0.263383837971    2.452775285152   -1.273453975146
 H3                 0.719010582336    1.965009986360    0.086086459204
 FRAGNAME=H2ODFT  !   3
 O1                -2.285031472894    2.822302097284    0.573043689734
 H2                -2.064068130857    2.880683629292    1.488819455008
 H3                -1.487261420140    2.972165659975    0.091398270807
 FRAGNAME=H2ODFT  !   4
 O1                 3.110989051998    3.341051770223    0.766261363784
 H2                 2.797456854831    3.934128898301    0.102306895797
 H3                 3.301882591561    2.524737433285    0.332592118929
 FRAGNAME=H2ODFT  !   5
 O1                 0.200044451637    4.986531919301    0.620396386946
 H2                 0.274086279297    4.119043992008    0.255895415997
 H3                 0.671505671461    4.978380818128    1.438037097660
 FRAGNAME=H2ODFT  !   6
 O1                -3.745587588974    5.004448653875   -0.174060310988
 H2                -3.732838358250    5.798893488951    0.335423069709
 H3                -3.068809111038    4.447095667088    0.175520858402
 FRAGNAME=H2ODFT  !   7
 O1                -2.913453075357    0.309113223451   -0.065431190744
 H2                -2.536268168957    1.116332737563    0.246027725470
 H3                -2.290972820561   -0.373544946198    0.127893949550
 FRAGNAME=H2ODFT  !   8
 O1                -2.007172264645   -1.924367863254    0.641834668105
 H2                -1.228061933356   -2.343734694202    0.313205687573
 H3                -1.858387963153   -1.755722991764    1.558513779363
 FRAGNAME=H2ODFT  !   9
 O1                 2.551837546516   -1.933123344465   -0.731300496041
 H2                 2.193051859127   -2.200182586341   -1.562462722038
 H3                 3.342516269473   -2.432635614342   -0.604048370803
 FRAGNAME=H2ODFT  !  10
 O1                -4.542731966307   -3.118162759773    0.511404916035
 H2                -4.477065346044   -3.976294663112    0.123879451680
 H3                -3.670124435273   -2.758606482354    0.523807908398
 FRAGNAME=H2ODFT  !  11
 O1                 3.589818489455    0.735564429578    0.055531345255
 H2                 3.049945827908    0.050828401935   -0.305789199178
 H3                 4.452293457410    0.622890671682   -0.310965596069
 FRAGNAME=H2ODFT  !  12
 O1                 4.907861911523   -2.740216450410    0.275613881534
 H2                 5.644609029311   -3.168972077031   -0.129664727745
 H3                 5.259116694989   -2.052771941030    0.818677945603
 FRAGNAME=H2ODFT  !  13
 O1                 1.216740670566   -4.900529580590    0.964339753728
 H2                 0.572037308981   -4.257274451465    1.212248746064
 H3                 2.049890367022   -4.457275616790    0.948031444917
 FRAGNAME=H2ODFT  !  14
 O1                -3.553367573891   -5.674180079256   -0.125214736655
 H2                -3.782235248589   -6.583814741146   -0.230394694035
 H3                -2.703474064689   -5.653942653618    0.284846141371
 FRAGNAME=H2ODFT  !  15
 O1                -5.169674267121    2.525738196184    0.247998217787
 H2                -5.148817443055    3.468595451304    0.209740624766
 H3                -4.273813253486    2.232415949230    0.200316378925
 FRAGNAME=H2ODFT  !  16
 O1                -5.167050645426   -0.664579531082   -0.681833275692
 H2                -4.365424768552   -0.166620557937   -0.699476083195
 H3                -4.942295925094   -1.529872927993   -0.379126970806
 FRAGNAME=H2ODFT  !  17
 O1                -1.171334950155   -1.184349177255    3.242629659055
 H2                -0.677803122223   -0.380045066215    3.262621803780
 H3                -1.217984143546   -1.496190093152    4.132268658873
 FRAGNAME=H2ODFT  !  18
 O1                 0.034117597488    1.553519888686    3.716173305597
 H2                -0.570852559583    1.889680542530    4.357956429346
 H3                 0.851192765870    1.405548475415    4.164917201531
 FRAGNAME=H2ODFT  !  19
 O1                 1.354158911973    4.066276216713    2.758937440360
 H2                 0.914601314827    3.322929529637    3.139861679115
 H3                 2.064576495651    3.724637007806    2.239834404531
 FRAGNAME=H2ODFT  !  20
 O1                -0.400845939848   -3.509013018365    2.418133546499
 H2                -0.583106752302   -4.069222114511    3.155578608120
 H3                -0.386616252987   -2.624246117734    2.746559339687
 FRAGNAME=H2ODFT  !  21
 O1                -0.504929630515   -2.289280521946    5.499053588865
 H2                -0.428003828620   -3.228702185975    5.449578219002
 H3                -0.824415144971   -2.088441974916    6.364195969140
 FRAGNAME=H2ODFT  !  22
 O1                -1.757895966648    2.531656813199    5.415429515324
 H2                -2.591622640291    2.089192419252    5.413545952141
 H3                -1.871811505809    3.327108484537    4.920294844181
 FRAGNAME=H2ODFT  !  23
 O1                -0.137194640151    2.409661284529   -2.788210405583
 H2                 0.172454965624    1.753220574538   -3.391601795958
 H3                -0.206621493295    3.214967339517   -3.275591697725
 FRAGNAME=H2ODFT  !  24
 O1                 0.965677281063   -1.396032057765   -3.653876197031
 H2                 1.115776270832   -2.287578558101   -3.924973200109
 H3                 0.100799103401   -1.369081237362   -3.276864466240
 FRAGNAME=H2ODFT  !  25
 O1                 1.444613354386   -4.182055598176   -3.583938304707
 H2                 2.084345235023   -4.747093635780   -3.986869553213
 H3                 0.862559922872   -4.738792870567   -3.091865275107
 FRAGNAME=H2ODFT  !  26
 O1                -0.738439191216    5.580205090425   -1.967147360834
 H2                -1.585489655722    5.565556579917   -1.551011102153
 H3                -0.100847856358    5.694337114945   -1.280612857140
 FRAGNAME=H2ODFT  !  27
 O1                -1.719390072616    6.124911129820    1.887146074157
 H2                -1.640917818209    7.061200099356    1.797237649174
 H3                -1.062933306669    5.742624849910    1.326967380610
 FRAGNAME=H2ODFT  !  28
 O1                -1.580115470974    4.643128944759    4.041705888912
 H2                -1.348673685036    5.306118319907    4.672386665716
 H3                -1.512315746263    5.043692231509    3.189748903668
 FRAGNAME=H2ODFT  !  29
 O1                -0.468004461572   -4.966859364331    5.258159230556
 H2                -0.181723634411   -5.446455800432    4.497298533354
 H3                -0.197032844826   -5.466583159312    6.011637143780
 FRAGNAME=H2ODFT  !  30
 O1                 0.126538215289   -6.180773645189    3.018049135113
 H2                 0.030120679567   -7.118778395719    2.976465474151
 H3                 0.676214772557   -5.932119899455    2.292166602472
 FRAGNAME=H2ODFT  !  31
 O1                 0.778495988417    0.919897820025   -4.734191924719
 H2                 1.063473049281    0.023177304359   -4.659634258226
 H3                 1.183203192045    1.269387460283   -5.511975650926
 FRAGNAME=H2ODFT  !  32
 O1                -0.046761413310    4.760495775413   -4.253767625378
 H2                -0.321936746574    5.010694381729   -5.121268430813
 H3                -0.200187139324    5.505591316828   -3.695044406933
 $END
! TRAVIS-CI SKIP
! NEED DETERMINISTIC OUTPUT FOR	VALIDATION

