!    build cluster of 16 waters and 16 methanols in random order.
!    note that the input file simply repeats the same coordinates
!    for water and for methanol, 16 times, as the random initial
!    coordinates will ensure they are actually at different places.
!
!    Lyuda used this for input, for temperature annealing with
!    minimization for pure water, before I turned off the ability
!    to do a genuine GLOBOP run after the cluster build (3/2010):
!       $globop  tempi=12000 tempf=1800 nprt=1 mcmin=.t. 
!                nstmin=30 nfrmov=4 rndini=.t.  $end
!    She agrees that clusters tend to come out 1D or 2D in shape,
!    so something favoring placing particles as close as possible
!    to the origin might lead to 3D clusters.
!
 $contrl runtyp=globop coord=fragonly $end
 $system mwords=2 $end
 $globop rndini=.true. riord=rand mcmin=.true. $end
 $statpt nstep=200 $end
 $efrag 
coord=cart
FRAGNAME=WATER
O1               -2.8091763203009  -2.1942725073400  -0.2722207394107
H2               -2.3676165499399  -1.6856118830379  -0.9334073942601
H3               -2.1441965467625  -2.5006167998896   0.3234583094693
FRAGNAME=WATER
O1               -2.8091763203009  -2.1942725073400  -0.2722207394107
H2               -2.3676165499399  -1.6856118830379  -0.9334073942601
H3               -2.1441965467625  -2.5006167998896   0.3234583094693
FRAGNAME=WATER
O1               -2.8091763203009  -2.1942725073400  -0.2722207394107
H2               -2.3676165499399  -1.6856118830379  -0.9334073942601
H3               -2.1441965467625  -2.5006167998896   0.3234583094693
FRAGNAME=WATER
O1               -2.8091763203009  -2.1942725073400  -0.2722207394107
H2               -2.3676165499399  -1.6856118830379  -0.9334073942601
H3               -2.1441965467625  -2.5006167998896   0.3234583094693
FRAGNAME=WATER
O1               -2.8091763203009  -2.1942725073400  -0.2722207394107
H2               -2.3676165499399  -1.6856118830379  -0.9334073942601
H3               -2.1441965467625  -2.5006167998896   0.3234583094693
FRAGNAME=WATER
O1               -2.8091763203009  -2.1942725073400  -0.2722207394107
H2               -2.3676165499399  -1.6856118830379  -0.9334073942601
H3               -2.1441965467625  -2.5006167998896   0.3234583094693
FRAGNAME=WATER
O1               -2.8091763203009  -2.1942725073400  -0.2722207394107
H2               -2.3676165499399  -1.6856118830379  -0.9334073942601
H3               -2.1441965467625  -2.5006167998896   0.3234583094693
FRAGNAME=WATER
O1               -2.8091763203009  -2.1942725073400  -0.2722207394107
H2               -2.3676165499399  -1.6856118830379  -0.9334073942601
H3               -2.1441965467625  -2.5006167998896   0.3234583094693
FRAGNAME=WATER
O1               -2.8091763203009  -2.1942725073400  -0.2722207394107
H2               -2.3676165499399  -1.6856118830379  -0.9334073942601
H3               -2.1441965467625  -2.5006167998896   0.3234583094693
FRAGNAME=WATER
O1               -2.8091763203009  -2.1942725073400  -0.2722207394107
H2               -2.3676165499399  -1.6856118830379  -0.9334073942601
H3               -2.1441965467625  -2.5006167998896   0.3234583094693
FRAGNAME=WATER
O1               -2.8091763203009  -2.1942725073400  -0.2722207394107
H2               -2.3676165499399  -1.6856118830379  -0.9334073942601
H3               -2.1441965467625  -2.5006167998896   0.3234583094693
FRAGNAME=WATER
O1               -2.8091763203009  -2.1942725073400  -0.2722207394107
H2               -2.3676165499399  -1.6856118830379  -0.9334073942601
H3               -2.1441965467625  -2.5006167998896   0.3234583094693
FRAGNAME=WATER
O1               -2.8091763203009  -2.1942725073400  -0.2722207394107
H2               -2.3676165499399  -1.6856118830379  -0.9334073942601
H3               -2.1441965467625  -2.5006167998896   0.3234583094693
FRAGNAME=WATER
O1               -2.8091763203009  -2.1942725073400  -0.2722207394107
H2               -2.3676165499399  -1.6856118830379  -0.9334073942601
H3               -2.1441965467625  -2.5006167998896   0.3234583094693
FRAGNAME=WATER
O1               -2.8091763203009  -2.1942725073400  -0.2722207394107
H2               -2.3676165499399  -1.6856118830379  -0.9334073942601
H3               -2.1441965467625  -2.5006167998896   0.3234583094693
FRAGNAME=WATER
O1               -2.8091763203009  -2.1942725073400  -0.2722207394107
H2               -2.3676165499399  -1.6856118830379  -0.9334073942601
H3               -2.1441965467625  -2.5006167998896   0.3234583094693
FRAGNAME=MEOH
O1               -2.6382545835775  -1.4867843354045   3.9412329191304
H2               -3.3382038873859  -1.2410922866231   3.3602772549447
C3               -2.1262917539569  -0.3601759462510   4.5986123716694
FRAGNAME=MEOH
O1               -2.6382545835775  -1.4867843354045   3.9412329191304
H2               -3.3382038873859  -1.2410922866231   3.3602772549447
C3               -2.1262917539569  -0.3601759462510   4.5986123716694
FRAGNAME=MEOH
O1               -2.6382545835775  -1.4867843354045   3.9412329191304
H2               -3.3382038873859  -1.2410922866231   3.3602772549447
C3               -2.1262917539569  -0.3601759462510   4.5986123716694
FRAGNAME=MEOH
O1               -2.6382545835775  -1.4867843354045   3.9412329191304
H2               -3.3382038873859  -1.2410922866231   3.3602772549447
C3               -2.1262917539569  -0.3601759462510   4.5986123716694
FRAGNAME=MEOH
O1               -2.6382545835775  -1.4867843354045   3.9412329191304
H2               -3.3382038873859  -1.2410922866231   3.3602772549447
C3               -2.1262917539569  -0.3601759462510   4.5986123716694
FRAGNAME=MEOH
O1               -2.6382545835775  -1.4867843354045   3.9412329191304
H2               -3.3382038873859  -1.2410922866231   3.3602772549447
C3               -2.1262917539569  -0.3601759462510   4.5986123716694
FRAGNAME=MEOH
O1               -2.6382545835775  -1.4867843354045   3.9412329191304
H2               -3.3382038873859  -1.2410922866231   3.3602772549447
C3               -2.1262917539569  -0.3601759462510   4.5986123716694
FRAGNAME=MEOH
O1               -2.6382545835775  -1.4867843354045   3.9412329191304
H2               -3.3382038873859  -1.2410922866231   3.3602772549447
C3               -2.1262917539569  -0.3601759462510   4.5986123716694
FRAGNAME=MEOH
O1               -2.6382545835775  -1.4867843354045   3.9412329191304
H2               -3.3382038873859  -1.2410922866231   3.3602772549447
C3               -2.1262917539569  -0.3601759462510   4.5986123716694
FRAGNAME=MEOH
O1               -2.6382545835775  -1.4867843354045   3.9412329191304
H2               -3.3382038873859  -1.2410922866231   3.3602772549447
C3               -2.1262917539569  -0.3601759462510   4.5986123716694
FRAGNAME=MEOH
O1               -2.6382545835775  -1.4867843354045   3.9412329191304
H2               -3.3382038873859  -1.2410922866231   3.3602772549447
C3               -2.1262917539569  -0.3601759462510   4.5986123716694
FRAGNAME=MEOH
O1               -2.6382545835775  -1.4867843354045   3.9412329191304
H2               -3.3382038873859  -1.2410922866231   3.3602772549447
C3               -2.1262917539569  -0.3601759462510   4.5986123716694
FRAGNAME=MEOH
O1               -2.6382545835775  -1.4867843354045   3.9412329191304
H2               -3.3382038873859  -1.2410922866231   3.3602772549447
C3               -2.1262917539569  -0.3601759462510   4.5986123716694
FRAGNAME=MEOH
O1               -2.6382545835775  -1.4867843354045   3.9412329191304
H2               -3.3382038873859  -1.2410922866231   3.3602772549447
C3               -2.1262917539569  -0.3601759462510   4.5986123716694
FRAGNAME=MEOH
O1               -2.6382545835775  -1.4867843354045   3.9412329191304
H2               -3.3382038873859  -1.2410922866231   3.3602772549447
C3               -2.1262917539569  -0.3601759462510   4.5986123716694
FRAGNAME=MEOH
O1               -2.6382545835775  -1.4867843354045   3.9412329191304
H2               -3.3382038873859  -1.2410922866231   3.3602772549447
C3               -2.1262917539569  -0.3601759462510   4.5986123716694
FRAGNAME=MEOH
O1               -2.6382545835775  -1.4867843354045   3.9412329191304
H2               -3.3382038873859  -1.2410922866231   3.3602772549447
C3               -2.1262917539569  -0.3601759462510   4.5986123716694
 $end

!   the potentials in this file are probably from Ivana.

 $MeOH
PLEASE REPLACE THIS LINE WITH AN APPROPRIATE TITLE/DESCRIPTION
 COORDINATES 
O1         4.9515153249    .4286994611   1.3368662306  15.9949100  8.0
H2         5.3392575544    .1717424606   3.0555957053   1.0078250  1.0
C3         6.2191743799   2.5592349960    .4064662379  12.0000000  6.0
H4         5.7024200977   2.7548960076  -1.5604873643   1.0078250  1.0
H5         5.6658856694   4.2696553371   1.4008542042   1.0078250  1.0
H6         8.2588049857   2.3458272252    .5282762681   1.0078250  1.0
BO21       5.1453864396    .3002209608   2.1962309680    .0000000   .0
BO31       5.5853448524   1.4939672285    .8716662343    .0000000   .0
BO43       5.9607972388   2.6570655018   -.5770105632    .0000000   .0
BO53       5.9425300246   3.4144451665    .9036602210    .0000000   .0
BO63       7.2389896828   2.4525311106    .4673712530    .0000000   .0
 STOP
MONOPOLES
O1        -8.2588413038   8.00000
H2        -0.6131829529   1.00000
C3        -4.9711585431   6.00000
H4        -0.7168806642   1.00000
H5        -0.7497270689   1.00000
H6        -0.7497270689   1.00000
BO21      -0.3259097951   0.00000
BO31      -0.1493897048   0.00000
BO43      -0.5180118382   0.00000
BO53      -0.4735855301   0.00000
BO63      -0.4735855301   0.00000
 STOP
  DIPOLES
  O1          0.4164263099    0.3498326714    0.4661381846
  H2         -0.0014029358   -0.0294496484    0.0607606038
  C3         -0.1426578118   -0.2306685927    0.0846532150
  H4         -0.0158743554    0.0073447064   -0.0633649710
  H5         -0.0170105103    0.0536339572    0.0267506380
  H6          0.0620962068   -0.0050596262    0.0001293793
  BO21       -0.1378778095   -0.0367817844   -0.3286172991
  BO31       -0.0678593933   -0.0530965254   -0.0845830964
  BO43        0.0970312013   -0.0147236217    0.3207963235
  BO53        0.0922219944   -0.2502469818   -0.1781562494
  BO63       -0.3139072150    0.0510824058   -0.0414842810
   STOP
 QUADRUPOLES
O1         -4.7556249249   -4.4465832707   -3.9892516412    0.3696501731 >
   0.1468077115   -0.2965365094
H2         -0.3932541638   -0.3926019941   -0.3716104104    0.0061099748 >
  0.0096000389   -0.0003994100
C3         -3.0416237376   -2.8563456684   -3.1066053887    0.1630077648 >
-0.0853733853   -0.1274172169
H4         -0.5041750964   -0.5033698251   -0.5071035718    0.0009693816 >
 -0.0007653833    0.0000872764
H5         -0.5561848631   -0.5591593670   -0.5567638738    0.0008284554 >
 -0.0002368958   -0.0014263539
H6         -0.5599350698   -0.5556610211   -0.5565120131   -0.0001378239 >
0.0000199104   -0.0003553464
BO21       -0.0335504562   -0.0387491177    0.1301442619    0.0157489827 >
 0.0578407611   -0.0104170414
BO31        0.5980110890    0.6371770440    0.5073031180    0.0469192418 >
  -0.0253122968   -0.0048997757
BO43       -0.3524982907   -0.3406671987   -0.3969788900    0.0277853521 >
 0.0001055954    0.0109505528
BO53       -0.2126978221   -0.3444210215   -0.2276993514    0.0162423091 >
 -0.0344543034   -0.0268452607
BO63       -0.3395327662   -0.1954215367   -0.2498638924   -0.0371149382 >
 0.0198188100   -0.0174886944
STOP
OCTUPOLES
O1          1.2436923542    1.1207714077    1.2323136168    0.3745884531 >
  0.4080474395    0.4117547026    0.4077107790    0.4214468215 >
  0.3749298687    0.0031290859
 H2         -0.0256697738   -0.0662527021    0.0528253415   -0.0228973167 >
  0.0222470638   -0.0083582887    0.0228257717   -0.0143411372 >
 -0.0204446067   -0.0011185361
C3         -0.5442225636   -0.6194868020    0.3575460965   -0.1516781685 >
 0.0559908598   -0.0240429894   -0.0348586336   -0.0478114860 >
 -0.2309330800    0.0014019495
 H4         -0.0208702766    0.0159258180   -0.0973580943    0.0054385350 >
 -0.0324273349   -0.0070188553   -0.0322689765   -0.0068886056 >
0.0052644456    0.0002386101
 H5         -0.0236503915    0.0796905765    0.0353971890    0.0264623009 >
 0.0116683397   -0.0079445081    0.0117819444   -0.0077042406 >
0.0264749820    0.0001208993
  H6          0.0900620892   -0.0047991233   -0.0028135768   -0.0014385487 >
 -0.0010443626    0.0298487149   -0.0010118566    0.0301298629 >
 -0.0016159874    0.0000810369
 BO21       -0.4380760087   -0.1930727882   -0.9633666327   -0.0616693599 >
 -0.2978402705   -0.1462485662   -0.2886389477   -0.1696910103 >
 -0.0585604161    0.0057048810
BO31       -0.2863365047   -0.3790420113   -0.3370052856   -0.1452939603 >
 -0.0672641137   -0.1704107538   -0.0282277792   -0.1495178198 >
 -0.0966181212    0.0130496773
BO43        0.3354888092    0.0011530003    1.0413718170   -0.0058415415 >
 0.3299649375    0.1003394869    0.3220630140    0.1333444273 >
 0.0037506586   -0.0041960568
BO53        0.2413429781   -0.7185377139   -0.5778681484   -0.2729296438 >
 -0.1629262625    0.1069129119   -0.2185440548    0.0611273175 >
 -0.2724750848    0.0250837455
BO63       -0.9868791543    0.0868880378   -0.1826732372    0.0885726013 >
-0.0751553641   -0.2977766698   -0.0259281620   -0.3134937934 >
0.0500948982   -0.0138237349
STOP
 POLARIZABLE POINTS
CT1   5.1948296283    .3321402162   2.2727842608
     .8179263273    1.1207261733    3.2710750237     .1506916127 >
     .1840564863    -.9433958568     .0361187762     .4365672034 >
    -.6031519276
CT2   5.8433219840   3.7378788204   1.1014528017
    2.6072565162    4.7368294445    3.1200138639    -.7897372390 >
    -.4779670560    1.4896032211    -.8309693397    -.5208608282 >
    1.2874971879
CT3   5.4633359333   1.2511112107   1.0445521467
    1.7525477964    3.5584976591    1.4541765513    1.6208683112 >
    -.6455634665   -1.1815717690    1.6734548568    -.7617341970 >
   -1.3384013563
CT4   7.6275283699   2.4140789905    .5010260171
    5.7611631668    2.3936355870    2.3093689742    -.4662863310 >
     .2509311181    -.0051497830    -.3362183949     .0975969650 >
    -.0676538795
CT5   5.8706841487   2.6975818347   -.9341167596
    2.5122054971    2.3637689146    5.5693533263    -.0357854215 >
     .8363653586    -.3748947658    -.0472761338     .8616225570 >
    -.3410014462
CT6   4.3884348622    .5595541758   1.3126821701
    2.9839898552    1.4157532527    1.2154723956     .2360844589 >
    -.1440403337    -.3615100347     .2667212990    -.1513964220 >
    -.3065744098
CT7   5.1722487262   -.0219968454   1.0489131581
    1.1395130286    2.9437822833    1.5317689707    -.0708169334 >
    -.3286546466     .3652803115    -.1174454406    -.2862964546 >
     .3572081653
 STOP
 DYNAMIC POLARIZABLE POINTS
CT1   5.1948296283    .3321402162   2.2727842608
     .8179323088    1.1206697300    3.2709489687     .1506229274 >
     .1841144864    -.9432366029     .0360847531     .4366460424 >
    -.6028773302
CT2   5.8433219840   3.7378788204   1.1014528017
    2.6072410257    4.7367561812    3.1199896353    -.7898261400 >
    -.4778011394    1.4895280770    -.8309718305    -.5208504731 >
    1.2874282198
CT3   5.4633359333   1.2511112107   1.0445521467
    1.7522295655    3.5581857319    1.4539474009    1.6204311513 >
    -.6454279018   -1.1814111341    1.6732498716    -.7618808705 >
   -1.3383654523
CT4   7.6275283699   2.4140789905    .5010260171
    5.7609592142    2.3935193243    2.3095083585    -.4663702823 >
     .2508970397    -.0050885684    -.3361479473     .0975534206 >
    -.0676854809
CT5   5.8706841487   2.6975818347   -.9341167596
    2.5122742217    2.3637048925    5.5691836256    -.0358637970 >
     .8362566381    -.3749733376    -.0473623402     .8616081327 >
    -.3408049001
CT6   4.3884348622    .5595541758   1.3126821701
    2.9841050724    1.4158626416    1.2155008258     .2359731122 >
    -.1439380924    -.3618103485     .2666287973    -.1514663520 >
    -.3065336893
CT7   5.1722487262   -.0219968454   1.0489131581
    1.1395446024    2.9439112136    1.5320082193    -.0708700085 >
    -.3289353134     .3652542175    -.1174552702    -.2862878007 >
     .3573117067
CT1   5.1948296283    .3321402162   2.2727842608
     .8178817675    1.1204285173    3.2690772257     .1506120563 >
     .1839740497    -.9425747635     .0361249576     .4363929924 >
    -.6023672661
CT2   5.8433219840   3.7378788204   1.1014528017
    2.6058988766    4.7330192452    3.1181160786    -.7888005998 >
    -.4773887712    1.4879168088    -.8301104508    -.5203686356 >
    1.2859394265
CT3   5.4633359333   1.2511112107   1.0445521467
    1.7512119091    3.5558187617    1.4534179500    1.6191688105 >
    -.6448617519   -1.1805311198    1.6719913354    -.7613231101 >
   -1.3374967466
CT4   7.6275283699   2.4140789905    .5010260171
    5.7560932571    2.3924999142    2.3084410836    -.4659866069 >
     .2506715976    -.0052100427    -.3356928564     .0974629897 >
    -.0676538331
CT5   5.8706841487   2.6975818347   -.9341167596
    2.5110272713    2.3627381571    5.5649015666    -.0357100619 >
     .8352716438    -.3748256833    -.0472660507     .8607497926 >
    -.3404865422
CT6   4.3884348622    .5595541758   1.3126821701
    2.9818586069    1.4153071142    1.2151734056     .2354375292 >
    -.1437558913    -.3614171004     .2664300922    -.1512333872 >
    -.3063005230
CT7   5.1722487262   -.0219968454   1.0489131581
    1.1392817661    2.9416348330    1.5314180267    -.0706926059 >
    -.3285405314     .3649491632    -.1175193592    -.2861540818 >
     .3568832919
CT1   5.1948296283    .3321402162   2.2727842608
     .8175828683    1.1190144487    3.2581556195     .1505435648 >
     .1831594515    -.9387072477     .0363579592     .4349136516 >
    -.5993956617
CT2   5.8433219840   3.7378788204   1.1014528017
    2.5980654786    4.7112627570    3.1071901249    -.7828442705 >
    -.4749853444    1.4785345455    -.8250913174    -.5175620111 >
    1.2772835195
CT3   5.4633359333   1.2511112107   1.0445521467
    1.7452812020    3.5420178099    1.4503209817    1.6118098326 >
    -.6415646626   -1.1753993858    1.6646510792    -.7580673048 >
   -1.3324206626
CT4   7.6275283699   2.4140789905    .5010260171
    5.7277651197    2.3865426407    2.3022106526    -.4637401937 >
     .2493521851    -.0059126575    -.3330516913     .0969363387 >
    -.0674709012
CT5   5.8706841487   2.6975818347   -.9341167596
    2.5037482325    2.3570862326    5.5399456524    -.0348187348 >
     .8295445468    -.3739528417    -.0467043646     .8557494779 >
    -.3386341484
CT6   4.3884348622    .5595541758   1.3126821701
    2.9687933404    1.4120608552    1.2132550118     .2323314568 >
    -.1426912634    -.3591310307     .2652631508    -.1498806421 >
    -.3049409129
CT7   5.1722487262   -.0219968454   1.0489131581
    1.1377397169    2.9283908082    1.5279742023    -.0696730643 >
    -.3262513212     .3631804096    -.1178866376    -.2853706750 >
     .3543997947
CT1   5.1948296283    .3321402162   2.2727842608
     .8164955843    1.1140371227    3.2203846121     .1502411496 >
     .1804047744    -.9252594610     .0371429203     .4297614929 >
    -.5891791044
CT2   5.8433219840   3.7378788204   1.1014528017
    2.5709491062    4.6366458136    3.0694848286    -.7626007067 >
    -.4667103847    1.4463424846    -.8078259935    -.5079196034 >
    1.2477515777
CT3   5.4633359333   1.2511112107   1.0445521467
    1.7248647658    3.4944232634    1.4395110261    1.5864486813 >
    -.6302452504   -1.1576934165    1.6393097502    -.7467916182 >
   -1.3147736522
CT4   7.6275283699   2.4140789905    .5010260171
    5.6306320422    2.3658235077    2.2806242442    -.4558757715 >
     .2447408155    -.0082634477    -.3241010316     .0951289328 >
    -.0668596188
CT5   5.8706841487   2.6975818347   -.9341167596
    2.4785338486    2.3373958846    5.4540288041    -.0318105174 >
     .8100018415    -.3707893950    -.0447646892     .8385626611 >
    -.3322954508
CT6   4.3884348622    .5595541758   1.3126821701
    2.9241573398    1.4007718476    1.2065176172     .2218363286 >
    -.1389921816    -.3513342570     .2611352770    -.1452860825 >
    -.3002507705
CT7   5.1722487262   -.0219968454   1.0489131581
    1.1322966298    2.8830848064    1.5160609631    -.0663439972 >
    -.3185162807     .3572060407    -.1190699869    -.2826204950 >
     .3460203691
CT1   5.1948296283    .3321402162   2.2727842608
     .8130993472    1.0998336691    3.1177928638     .1489296683 >
     .1733819186    -.8882203413     .0391134689     .4155023468 >
    -.5618928156
CT2   5.8433219840   3.7378788204   1.1014528017
    2.4971014797    4.4385768150    2.9676721338    -.7102101931 >
    -.4445407331    1.3608780791    -.7616656589    -.4822191125 >
    1.1705394961
CT3   5.4633359333   1.2511112107   1.0445521467
    1.6701022484    3.3661728273    1.4093910781    1.5182560565 >
    -.6001295289   -1.1099289040    1.5708387267    -.7160621417 >
   -1.2661819856
CT4   7.6275283699   2.4140789905    .5010260171
    5.3730153382    2.3086760624    2.2216590562    -.4338845786 >
     .2319169990    -.0140775232    -.3011259638     .0903411232 >
    -.0653363249
CT5   5.8706841487   2.6975818347   -.9341167596
    2.4097273191    2.2828163475    5.2236501468    -.0242008581 >
     .7588975818    -.3611447204    -.0395340582     .7927036109 >
    -.3155813165
CT6   4.3884348622    .5595541758   1.3126821701
    2.8068845896    1.3696316749    1.1874350241     .1951742570 >
    -.1288588161    -.3309505674     .2493372777    -.1333962827 >
    -.2876019496
CT7   5.1722487262   -.0219968454   1.0489131581
    1.1166618643    2.7636603009    1.4836249337    -.0586653447 >
    -.2987882431     .3419849665    -.1216298852    -.2748468351 >
     .3247893346
CT1   5.1948296283    .3321402162   2.2727842608
     .8024642308    1.0631123900    2.8806185116     .1434395897 >
     .1593205300    -.8004289589     .0427692823     .3812760400 >
    -.5012792432
CT2   5.8433219840   3.7378788204   1.1014528017
    2.3252525401    4.0029274463    2.7352130351    -.6014264085 >
    -.3951091163    1.1739922825    -.6591602930    -.4253941186 >
    1.0069313444
CT3   5.4633359333   1.2511112107   1.0445521467
    1.5468040412    3.0750685649    1.3357716837    1.3644141051 >
    -.5337647898   -1.0013736140    1.4147468104    -.6447368203 >
   -1.1509409562
CT4   7.6275283699   2.4140789905    .5010260171
    4.8081568856    2.1720660631    2.0831700671    -.3808577387 >
     .2014817687    -.0248359719    -.2543112120     .0800511090 >
    -.0622561396
CT5   5.8706841487   2.6975818347   -.9341167596
    2.2488193036    2.1508297628    4.7068798010    -.0094794572 >
     .6507194374    -.3339827431    -.0278412643     .6912028546 >
    -.2794195901
CT6   4.3884348622    .5595541758   1.3126821701
    2.5541865674    1.2950784152    1.1391653654     .1427465577 >
    -.1054546506    -.2875873643     .2201892624    -.1085206856 >
    -.2588309803
CT7   5.1722487262   -.0219968454   1.0489131581
    1.0759170062    2.5049025427    1.4076071551    -.0466231799 >
    -.2588325445     .3112151223    -.1242364865    -.2553912591 >
     .2829647929
CT1   5.1948296283    .3321402162   2.2727842608
     .7682588754     .9755059319    2.4195279853     .1248785770 >
     .1377616925    -.6263301348     .0461355585     .3113721267 >
    -.3923392407
CT2   5.8433219840   3.7378788204   1.1014528017
    1.9854901748    3.2232008161    2.2913449832    -.4269097949 >
    -.3061767448     .8509175953    -.4774786914    -.3242295681 >
     .7364420873
CT3   5.4633359333   1.2511112107   1.0445521467
    1.3163649307    2.5284831127    1.1783679515    1.0800710756 >
    -.4160212790    -.7980896521    1.1214599106    -.5072741781 >
    -.9210797693
CT4   7.6275283699   2.4140789905    .5010260171
    3.8074496655    1.8894189786    1.8031672824    -.2769760251 >
     .1439666967    -.0375665546    -.1815632975     .0631494115 >
    -.0563473602
CT5   5.8706841487   2.6975818347   -.9341167596
    1.9278848332    1.8728002297    3.7596255816     .0095487525 >
     .4729968240    -.2687172196    -.0079438306     .5115638347 >
    -.2167369505
CT6   4.3884348622    .5595541758   1.3126821701
    2.1142981593    1.1403143901    1.0295974830     .0700880471 >
    -.0626294924    -.2146631103     .1626257629    -.0673756493 >
    -.2046159148
CT7   5.1722487262   -.0219968454   1.0489131581
     .9793836621    2.0527209228    1.2521029119    -.0361977216 >
    -.1960416149     .2623879222    -.1187778650    -.2132498802 >
     .2227507938
CT1   5.1948296283    .3321402162   2.2727842608
     .6699889505     .7949499940    1.7150334324     .0832316693 >
     .1093792563    -.3712758587     .0409014928     .2027074355 >
    -.2454887156
CT2   5.8433219840   3.7378788204   1.1014528017
    1.4444799410    2.1463552547    1.6205097949    -.2272956003 >
    -.1868804154     .4548308199    -.2497856332    -.1912523763 >
     .4134183365
CT3   5.4633359333   1.2511112107   1.0445521467
     .9736622798    1.7366206755     .9046912844     .6831581475 >
    -.2599921867    -.5093475470     .7058318794    -.3099825717 >
    -.5767243208
CT4   7.6275283699   2.4140789905    .5010260171
    2.4618196559    1.4097918883    1.3397333843    -.1383301185 >
     .0712813020    -.0408524856    -.1008366814     .0425742732 >
    -.0440235914
CT5   5.8706841487   2.6975818347   -.9341167596
    1.4113774827    1.3953810554    2.4443310295     .0200186898 >
     .2641259884    -.1595738295     .0113991832     .2831299709 >
    -.1339604172
CT6   4.3884348622    .5595541758   1.3126821701
    1.5134493454     .8770350760     .8209659701     .0101716451 >
    -.0107690703    -.1242201982     .0831360630    -.0186838329 >
    -.1265275355
CT7   5.1722487262   -.0219968454   1.0489131581
     .7889737113    1.4397433315     .9827323032    -.0339309408 >
    -.1225409032     .1990906846    -.0936532413    -.1438218373 >
     .1620482532
CT1   5.1948296283    .3321402162   2.2727842608
     .4654694418     .5106240875     .9314720538     .0319306378 >
     .0693280344    -.1392479038     .0215303095     .0922582449 >
    -.1083427438
CT2   5.8433219840   3.7378788204   1.1014528017
     .8008663128    1.0672829971     .8704597839    -.0817274792 >
    -.0787469449     .1556978736    -.0801770592    -.0764782831 >
     .1585177606
CT3   5.4633359333   1.2511112107   1.0445521467
     .5781001550     .9124371214     .5483745196     .3046349474 >
    -.1168790287    -.2287231979     .3096090413    -.1278457485 >
    -.2435040723
CT4   7.6275283699   2.4140789905    .5010260171
    1.1794390434     .7984267396     .7607432752    -.0386323995 >
     .0210621645    -.0257967047    -.0417934279     .0223445252 >
    -.0238305472
CT5   5.8706841487   2.6975818347   -.9341167596
     .7890458916     .7884472325    1.1721565148     .0136429538 >
     .1024695292    -.0558885365     .0138433792     .1020276387 >
    -.0564841043
CT6   4.3884348622    .5595541758   1.3126821701
     .8709874755     .5343874348     .5177575196    -.0134794514 >
     .0174287724    -.0485150065     .0151111569     .0113338788 >
    -.0512359222
CT7   5.1722487262   -.0219968454   1.0489131581
     .5067796854     .8035747370     .6127780244    -.0345927903 >
    -.0610458099     .1246971842    -.0563610457    -.0699925297 >
     .1071451316
CT1   5.1948296283    .3321402162   2.2727842608
     .2088851351     .2155783227     .3361296298     .0046187440 >
     .0262689798    -.0278716117     .0046881095     .0261160211 >
    -.0280778353
CT2   5.8433219840   3.7378788204   1.1014528017
     .2881398960     .3453826053     .3049048076    -.0192574426 >
    -.0203721863     .0318616816    -.0151413270    -.0187904159 >
     .0377057942
CT3   5.4633359333   1.2511112107   1.0445521467
     .2361592927     .3238326867     .2245415697     .0820109283 >
    -.0323963837    -.0610480321     .0815632000    -.0314092181 >
    -.0597175156
CT4   7.6275283699   2.4140789905    .5010260171
     .3709235583     .2892430615     .2782606796    -.0068806441 >
     .0043559132    -.0077831696    -.0132753249     .0077978565 >
    -.0068563560
CT5   5.8706841487   2.6975818347   -.9341167596
     .2856608923     .2851552974     .3693820373     .0038305262 >
     .0257383684    -.0085003764     .0052994334     .0224997725 >
    -.0128653267
CT6   4.3884348622    .5595541758   1.3126821701
     .3461282186     .2201315906     .2173760665    -.0114127225 >
     .0123928771    -.0108804681    -.0080352045     .0105398280 >
    -.0112998090
CT7   5.1722487262   -.0219968454   1.0489131581
     .2184557286     .3103594935     .2548208889    -.0220690223 >
    -.0223063913     .0522024681    -.0242609007    -.0230674173 >
     .0490986156
CT1   5.1948296283    .3321402162   2.2727842608
     .0441403807     .0443110456     .0616279530     .0001683986 >
     .0044488676    -.0026711754     .0004312186     .0038694110 >
    -.0034521863
CT2   5.8433219840   3.7378788204   1.1014528017
     .0519736828     .0578927549     .0540564865    -.0026153927 >
    -.0028323792     .0036792303    -.0017042166    -.0025375371 >
     .0048842601
CT3   5.4633359333   1.2511112107   1.0445521467
     .0482464144     .0597805481     .0459467223     .0111050995 >
    -.0044077153    -.0079619914     .0108911442    -.0039359815 >
    -.0073261849
CT4   7.6275283699   2.4140789905    .5010260171
     .0613306684     .0521035188     .0504887359    -.0010481295 >
     .0006907644    -.0010331410    -.0024112349     .0013923239 >
    -.0008952274
CT5   5.8706841487   2.6975818347   -.9341167596
     .0516222396     .0512761174     .0613619958     .0004678868 >
     .0035936911    -.0002800023     .0008038204     .0028530364 >
    -.0012782504
CT6   4.3884348622    .5595541758   1.3126821701
     .0691997290     .0454023052     .0452358343    -.0030293729 >