!  test of MP2 etc. on a partially biradical species...HCN2 anion
!    M.S.Gordon, S.R.Kass  J.Phys.Chem. 99, 6548-6550(1995)
!  using 6-31++G(d,p) has just 63 AOs.  This is the "bent" isomer #1.
!
!  FINAL E(RHF)= -147.1812926338, 14 iters, E(MP2)= -147.6549188698
!  this test case goes on to ask for MP2 property evaluation, too:
!    THERE ARE    21.6644 ELECTRONS IN PRINCIPAL MP2 NATURAL ORBITALS.
!    THERE ARE     0.3356 ELECTRONS IN S.CONDARY MP2 NATURAL ORBITALS.
!  and dipole for the 1st order wfn is 2.945834 Debye
!
!  This test takes 2 seconds on 2.66 GHz Cloverton (1 Apr 2015)
!  this test has been around since late 1990's.
!
!  --------------------------------------------------------------------------
!  unlike the planar isomer, the optimized geometries are all about the same:
!   method    r(CN)   r(NN)  r(CH)  o.p.bend(H-CNN)
!      RHF    1.523   1.194  1.113    74.1
!      DFT    1.592   1.231  1.131    77.3  (revTPSS)
!      MP2    1.582   1.249  1.119    76.7
!     CCSD    1.569   1.235  1.121    76.2
!  CCSD(T)    1.585   1.244  1.123    76.7
!    MCSCF    1.607   1.241  1.149    77.5
!
!  At its optimized geometry, MCSCF occupation numbers are
!    1.9965, 1.9921, 1.9907, 1.9754, 1.9740, 1.9551, 1.9370, 1.9126
!      and   0.0936, 0.0775, 0.0386, 0.0287, 0.0282
!
 $contrl scftyp=rhf $end
 $system mwords=3 memddi=0 $end
!      to run MP2 for its occupation numbers,
 $contrl mplevl=2 $end
 $mp2    code=ims mp2prp=.true. $end
!      to get the famous T1 diagnostic, and CCSD occupation numbers,
--- $contrl cctyp=ccsd $end
--- $system mwords=80 $end
--- $ccinp  ccprp=.true. $end
!      to run a DFT,
--- $contrl dfttyp=revTPSS $end
!      to run full valence MCSCF, also provide VVOS=.TRUE. orbs from RHF
!      there are 828,497 determinants in Cs
--- $contrl scftyp=mcscf mplevl=2 local=ruednbrg $end
--- $system mwords=25 $end
--- $guess  guess=moread norb=63 $end
--- $det    ncore=3 nact=13 nels=16 $end
--- $local  orient=.true. $end

 $contrl runtyp=energy $end
 $contrl icharg=-1 nzvar=6 $end
 $basis  gbasis=n31 ngauss=6 ndfunc=1 npfunc=1 diffsp=.t. diffs=.t. $end
 $zmat   izmat(1)=1,1,2,  1,1,3,  1,2,3,  1,1,4,  2,4,1,2,  4,4,1,3,2 $end
 $data
diazirinyl anion, HCN2- bent form at RHF/6-31++G(d,p)
Cs

C  6.0   0.0486222312  -0.4793407437   0.0000000000
N  7.0  -0.0185911949   0.9206616690   0.5970115205
H  1.0   1.1327658605  -0.7325671374   0.0000000000
 $end

RHF geometry:          -147.1812926338
C  6.0   0.0486222312  -0.4793407437   0.0000000000
N  7.0  -0.0185911949   0.9206616690   0.5970115205
H  1.0   1.1327658605  -0.7325671374   0.0000000000

revTPSS geometry:      -148.1862497958
C  6.0   0.0475241905  -0.5265073380   0.0000000000
N  7.0  -0.0191312929   0.9405880160   0.6158259009
H  1.0   1.1608486609  -0.7246897105   0.0000000000

MP2 geometry:          -147.6610306030
C  6.0   0.0478527655  -0.5160978295   0.0000000000
N  7.0  -0.0188169270   0.9358966256   0.6247728708
H  1.0   1.1482005578  -0.7182663394   0.0000000000

CCSD geometry:         -147.6701537  (by numerical nuclear gradients)
C  6.0   0.0479952996  -0.5078689591   0.0000000000
N  7.0  -0.0188589975   0.9326196539   0.6172519600
H  1.0   1.1476725126  -0.7251833305   0.0000000000

CCSD(T) geometry:      -147.6939247  (by numerical nuclear gradients)
C  6.0   0.0481126599  -0.5191155050   0.0000000000
N  7.0  -0.0190823770   0.9374674611   0.6218322508
H  1.0   1.1524825464  -0.7259868587   0.0000000000

MCSCF geometry:        -147.3764494874
C  6.0   0.0468391759  -0.5361252507   0.0000000000
N  7.0  -0.0194658752   0.9450334402   0.6206168366
H  1.0   1.1783026184  -0.7337033994   0.0000000000
MRMP energy on this geometry is -147.670244


! TRAVIS-CI SMALL

! TRAVIS-CI SKIP
