!    nicotine cation...to create a doublet state UMP2 test
!
!    FINAL E= -495.4205096237, 3 iters, <S**2> = 0.875
!    E(MP2) = -496.9789337022, NOON= 86.0401, 0.9599, RMS= 0.014545307
!
!    This run takes 1019 seconds on 2.66 GHz Cloverton ( 1 Apr 2015)
!
 $contrl scftyp=uhf mplevl=2 runtyp=gradient mult=2 icharg=+1 coord=zmt $end
 $system mwords=100 memddi=300 $end
 $basis  gbasis=n31 ngauss=6 ndfunc=1 $end
 $guess  guess=moread norb=208 $end
 $scf    dirscf=.true. $end
 $mp2    code=serial $end
 $data
C10H14N2...UHF/6-31G(d)//RHF/AM1...208 AOs
C1
N
C  1 rC2N
C  2 rC3C   1 aC3CN
C  3 rC4C   2 aC4CC    1  wC4CCN
C  4 rC5C   3 aC5CC    2  wC5CCC
C  5 rC6C   4 aC6CC    3  wC6CCC
C  5 rC7C   4 aC7CC    3  wC7CCC
C  7 rC8C   5 aC8CC    4  wC8CCC
C  8 rC9C   7 aC9CC    5  wC9CCC
C  9 rC10C  8 aC10CC   7  wC10CCC
N 10 rN11C  9 aN11CC   8  wN11CCC
C 11 rC12N 10 aCNC     9  wCNCC
H  2 rCH13  1 aH13CN   6  wH13CNC
H  3 rCH14  2 aH14CC   1  wH14CCN
H  4 rCH15  3 aH15CC   2  wH15CCC
H  6 rCH16  5 aH16CC   4  wH16CCC
H  7 rCH17  8 aH17CC  11  aH17CN   -1
H  8 rCH18  7 aH18CC  11  wH18CCN
H  8 rCH19  7 aH19CC  11  wH19CCN
H  9 rCH20  8 aH20CC   7  wH20CCC
H  9 rCH21  8 aH21CC   7  wH21CCC
H 10 rCH22  9 aH22CC   8  wH22CCC
H 10 rCH23  9 aH23CC   8  wH23CCC
H 12 rCH24 11 aH24CN  10  wH24CNC
H 12 rCH25 11 aH25CN  10  wH25CNC
H 12 rCH26 11 aH26CN  10  wH26CNC

rC2N=1.3477136
rC3C=1.4057960
rC4C=1.3956774
rC5C=1.3996014
rC6C=1.4122564
aC3CN=123.3635184
aC4CC=118.5173328
aC5CC=119.1108035
aC6CC=117.9903743
wC4CCN=-0.0117517
wC5CCC=0.2870648
wC6CCC=-0.4312595
rC7C=1.5013214
rC8C=1.5485744
rC9C=1.5215643
rC10C=1.5352799
rN11C=1.4629915
rC12N=1.4403149
aC7CC=120.4025004
aC8CC=110.6303342
aC9CC=106.0768957
aC10CC=106.0596714
aN11CC=109.4673384
aCNC=114.3094104
wC7CCC=178.7568497
wC8CCC=-104.1519694
wC9CCC=-137.2055836
wC10CCC=9.4453579
wN11CCC=-2.0843142
wCNCC=-135.0412540
rCH13=1.1043858
rCH14=1.0973267
rCH15=1.0998966
rCH16=1.1055416
aH13CN=115.7637921
aH14CC=120.4861683
aH15CC=120.3041384
aH16CC=120.5101263
wH13CNC=179.9746256
wH14CCN=-179.8666478
wH15CCC=-179.7016730
wH16CCC=-179.2150671
rCH17=1.1340120
aH17CC=108.0285448
aH17CN=109.9988080
rCH18=1.1179532
rCH19=1.1162145
rCH20=1.1169675
rCH21=1.1176646
rCH22=1.1244731
rCH23=1.1251927
aH18CC=110.3737020
aH19CC=110.0308527
aH20CC=111.1404752
aH21CC=110.9930543
aH22CC=110.4963647
aH23CC=110.0818784
wH18CCN=106.3395586
wH19CCN=-134.5305567
wH20CCC=129.6569155
wH21CCC=-110.4721415
wH22CCC=115.4093046
wH23CCC=-125.7675740
rCH24=1.1214633
rCH25=1.1253721
rCH26=1.1216531
aH24CN=108.7011052
aH25CN=113.8122307
aH26CN=108.4245355
wH24CNC=-176.4832030
wH25CNC=62.5140361
wH26CNC=-58.2563744
 $end

 $contrl nzvar=96 $end
 $zmat izmat(1)=1,1,2,  1,2,3,  1,3,4,  1,4,5,  1,5,6,  1,6,1,
     2,1,2,3,  2,2,3,4,  2,3,4,5,  2,4,5,6,  2,5,6,1,  2,6,1,2,
     3,1,2,3,4,  3,2,3,4,5,  3,3,4,5,6,  3,4,5,6,1,  3,5,6,1,2,  3,6,1,2,3,
        1,2,13,  2,13,2,1,  2,13,2,3,  4,13,2,1,3,
        1,3,14,  2,14,3,2,  2,14,3,4,  4,14,3,2,4,
        1,4,15,  2,15,4,3,  2,15,4,5,  4,15,4,3,5,
        1,6,16   2,16,6,5,  2,16,6,1,  4,16,6,5,1,  ! end H's on pyridine !
           1,5,7,  2,7,5,4,  2,7,5,6,  4,7,5,4,6,
           2,5,7,8,  2,5,7,11,  4,5,7,8,11,  3,8,7,5,4,   ! end of ring join !
        1,7,8,  1,8,9,  1,9,10,  1,10,11,  1,11,7,
        2,7,8,9,  2,8,9,10,  2,9,10,11,  2,10,11,7,  2,11,7,8
        3,7,8,9,10,  3,8,9,10,11,  3,9,10,11,7,  3,10,11,7,8,  3,11,7,8,9,
           1,7,17,  2,17,7,5, 2,17,7,8, 2,17,7,11,    ! methine !
    1,8,18,  1,8,19,
    2,18,8,19,  2,18,8,9,  2,19,8,9,  2,18,8,7,  2,19,8,7,
    1,9,20,  1,9,21,
    2,20,9,21,  2,20,9,10,  2,21,9,10,  2,20,9,8,  2,21,9,8,
    1,10,22,  1,10,23,
    2,22,10,23,  2,22,10,11,  2,23,10,11,  2,22,10,9,  2,23,10,9, ! end Hs !
        1,11,12,  2,12,11,10,  2,12,11,7,  4,12,11,10,7
        1,12,24,  1,12,25,  1,12,26,
        2,24,12,25, 2,25,12,26, 2,26,12,24, 2,26,12,11, 2,24,12,11, 2,25,12,11,
        3,24,12,11,10   ! end methyl !

       ijs(1)=1,1,  2,2,  3,3,  4,4,  5,5,  6,6,
            7,7, 8,7, 9,7,10,7,11,7,12,7
            7,8, 8,8, 9,8,10,8,11,8,12,8
                 9,9, 9,9,     11,9,12,9
           13,10,14,10,15,10,16,10,17,10,18,10
           13,11,      15,11,16,11,      18,11
           13,12,14,12,15,12,16,12,17,12,18,12   ! end of pyridine ring !
               19,13,  20,14,21,14,  22,15,
               23,16,  24,17,25,17,  26,18,
               27,19,  28,20,29,20,  30,21,
               31,22,  32,23,33,23,  34,24,      ! end H's on pyridine !
            35,25,  36,26,37,26,  38,27,
            39,28,40,28,  41,29,  42,30   ! end of ring join !
         43,31,  44,32,  45,33,  46,34,  47,35,
         48,36,49,36,50,36,51,36,52,36,
               49,37,50,37,51,37,52,37,
         53,38,54,38,55,38,56,38,57,38,
         53,39,54,39,      56,39,57,39,    ! end pyrrolidine ring !
            58,40,  59,41,60,41,61,41,  60,42,61,42,  ! methine !
         62,43,  63,44,
         64,45,65,45,66,45,67,45,68,45,
               65,46,66,46,67,46,68,46,
               65,47,66,47,67,47,68,47,
               65,48,66,48,67,48,68,48,
         69,49,  70,50,
         71,51,72,51,73,51,74,51,75,51,
               72,52,73,52,74,52,75,52,
               72,53,73,53,74,53,75,53,
               72,54,73,54,74,54,75,54,
         76,55,  77,56,
         78,57,79,57,80,57,81,57,82,57,
               79,58,80,58,81,58,82,58,
               79,59,80,59,81,59,82,59,
               79,60,80,60,81,60,82,60,   ! end H's on pyrrolidine !
        83,61,  84,62,85,62,  86,63,
        87,64,  88,65,  89,66,
        90,67,91,67,92,67,93,67,94,67,95,67,
        90,68,91,68,92,68,
              91,69,92,69,
                          93,70,94,70,95,70,
                                94,71,95,71,
        96,72   ! end methyl !


       sij(1)= 1.0, 1.0, 1.0, 1.0, 1.0, 1.0,
          1.0,-1.0, 1.0,-1.0, 1.0,-1.0,
          2.0,-1.0,-1.0, 2.0,-1.0,-1.0,
               1.0,-1.0,      1.0,-1.0
          1.0,-1.0, 1.0,-1.0, 1.0,-1.0,
          1.0,     -1.0, 1.0,     -1.0,
         -1.0, 2.0,-1.0,-1.0, 2.0,-1.0    ! end of pyridine ring !
             1.0,  1.0,-1.0,  1.0
             1.0,  1.0,-1.0,  1.0
             1.0,  1.0,-1.0,  1.0
             1.0,  1.0,-1.0,  1.0         ! end H's on pyridine !
           1.0,  1.0,-1.0,  1.0,
           1.0,-1.0,  1.0,  1.0   ! end of ring join !
           1.0,     1.0,    1.0,    1.0,    1.0,
        1.0, -0.8090, 0.3090,  0.3090, -0.8090,
             -1.1180, 1.8090, -1.8090, 1.1180,
        0.3090, -0.8090, 1.0, -0.8090, 0.3090,
        -1.8090, 1.1180,      -1.1180, 1.8090,  ! end pyrrolidine ring !
           1.0,   2.0,-1.0,-1.0,  1.0,-1.0,           ! methine !
         1.0, 1.0,
         4.0,-1.0,-1.0,-1.0,-1.0,
              1.0,-1.0, 1.0,-1.0,
              1.0, 1.0,-1.0,-1.0,
              1.0,-1.0,-1.0, 1.0,
         1.0, 1.0,
         4.0,-1.0,-1.0,-1.0,-1.0,
              1.0,-1.0, 1.0,-1.0,
              1.0, 1.0,-1.0,-1.0,
              1.0,-1.0,-1.0, 1.0,
         1.0, 1.0,
         4.0,-1.0,-1.0,-1.0,-1.0,
              1.0,-1.0, 1.0,-1.0,
              1.0, 1.0,-1.0,-1.0,
              1.0,-1.0,-1.0, 1.0,   ! end of H's on pyrrolidine !
        1.0,   1.0,-1.0,   1.0,
        1.0,  1.0,  1.0,
        1.0, 1.0, 1.0,-1.0,-1.0,-1.0,
        2.0,-1.0,-1.0,
             1.0,-1.0,
                       2.0,-1.0,-1.0,
                            1.0,-1.0,
        1.0   ! end methyl !
 $end

----- $data
C10H14N2...RHF/6-31G(d) tightly optimized geometry...E= -495.7186746240
C1
N     7.0   2.4289382837   0.2155379912   1.3184392419
C     6.0   3.3041471202  -0.0298561536   0.3568735706
C     6.0   2.9390122938  -0.2769678703  -0.9518771251
C     6.0   1.5898873613  -0.2646814443  -1.2690666513
C     6.0   0.6578777192  -0.0017868659  -0.2804754225
C     6.0   1.1491958310   0.2282959388   1.0029981779
C     6.0  -0.8242248839   0.0715496142  -0.5822240448
C     6.0  -1.3821608345   1.5112650077  -0.6309850433
C     6.0  -2.8316592481   1.3926566979  -0.1091008018
C     6.0  -3.0028466242  -0.1011985426   0.1819616864
N     7.0  -1.6524156619  -0.5714182278   0.4260743462
C     6.0  -1.5401067738  -2.0096959179   0.4850954516
H     1.0   4.3405558067  -0.0318758897   0.6459426899
H     1.0   3.6853316822  -0.4772007433  -1.6984261702
H     1.0   1.2691377314  -0.4601566360  -2.2780442313
H     1.0   0.4612163055   0.4209356971   1.8061633748
H     1.0  -0.9891678618  -0.3979301026  -1.5583003024
H     1.0  -0.7965265523   2.1603838482   0.0075918986
H     1.0  -1.3271109333   1.9145537636  -1.6355307359
H     1.0  -2.9554878780   1.9718355963   0.7979424327
H     1.0  -3.5640274404   1.7482385802  -0.8242957315
H     1.0  -3.6356429659  -0.3004431728   1.0393526448
H     1.0  -3.4480437824  -0.6088681480  -0.6800279425
H     1.0  -0.5213218187  -2.2986008299   0.7091416500
H     1.0  -1.8355217214  -2.4920032042  -0.4517831544
H     1.0  -2.1766202104  -2.3907011219   1.2755897649
 $end

--- OPEN SHELL ORBITALS --- GENERATED AT Thu May 27 12:18:20 2004
C10H14N2...UHF/6-31G(d)//RHF/AM1...208 AOs
E(UHF)=     -495.4205096126, E(NUC)=  693.2743211498,   29 ITERS
 $VEC
 1  1 9.95373076E-01 2.44356108E-02-5.83773844E-04-5.34068604E-04-2.00668659E-03
 1  2-6.76520427E-03 8.91062365E-04 7.70988786E-04 2.91131948E-03-2.35235865E-03
 1  3-3.08219160E-03-2.60405967E-03-4.36459377E-05-6.95980613E-05 1.66870548E-04
 1  4 1.15392495E-05 3.01453359E-04-3.84614611E-05 1.08785759E-05 3.48269288E-05
 1  5 4.22717953E-03-2.39018041E-03-4.21708230E-05-3.87172733E-04-2.80213524E-04
 1  6-1.03602388E-04-3.30278617E-04 8.72591804E-05 2.96112831E-04-8.63600585E-05
 1  7 4.05624538E-05 1.82170160E-04-2.30663121E-06-1.43524961E-05-5.30647954E-05
 1  8-3.50198343E-03 1.59340062E-03-4.39157143E-04-1.43142975E-03 4.95905763E-05
 1  9 3.99507553E-05-1.42701405E-06 9.99975655E-06 3.65523207E-05-1.51446185E-05
 1 10-3.40212929E-05-1.53817373E-04-9.93901437E-06-7.39354660E-06-2.54507329E-05
 1 11 3.17448961E-03 6.55200373E-04 4.88756764E-04 1.80349319E-03-2.57046542E-05
 1 12-6.52002736E-05-2.46018197E-05-1.38170601E-06-1.77644769E-06 1.45449687E-05
 1 13 3.76150016E-05 1.86219353E-04 3.62666932E-06-9.60247873E-06-2.69362695E-05
 1 14-3.45766587E-03-2.34014670E-03-1.42483845E-04-7.69603707E-04-9.78703037E-06
 1 15 3.56778902E-05 2.23260124E-05-1.10293682E-05-4.92036968E-05-3.55344648E-06
 1 16 8.84334315E-06 2.73423429E-04 3.65298863E-05-3.59267306E-06 2.49778495E-06
 1 17 4.56533625E-03 1.92612411E-03-4.98844361E-04-1.67187654E-03-5.34799860E-04
 1 18-8.47089457E-05-8.53064817E-05-3.11751777E-05-1.65051799E-04 5.16628075E-06
 1 19-1.53427180E-05-4.86549038E-05-2.84752020E-05-1.30094141E-05-2.69917432E-05
 1 20-4.55921845E-04-2.95301295E-04 8.48498819E-05 1.14766987E-04-1.65525294E-05
 1 21-2.64256644E-05-3.68170436E-05 2.47164909E-06 2.31303539E-06-7.97172620E-06
 1 22-3.12902497E-07 9.96333369E-06-8.66823449E-06 4.91480270E-07-4.72537687E-06
 1 23-7.19469595E-05 2.95140452E-06 6.91688276E-05-4.19281112E-05-1.08729944E-05
 1 24-5.33189857E-06-4.41532276E-06 1.69628657E-06-1.69596678E-06 7.32716374E-06
 1 25 5.35603694E-07 6.55764757E-07-2.18776937E-07-1.62050044E-06-3.48138493E-06
 1 26 2.23179851E-05 2.40903050E-05-7.11468532E-06 2.39276494E-05 2.45412224E-06
 1 27 1.02113541E-06 2.26486056E-06 6.31033056E-07-8.51676484E-07 5.99785936E-07
 1 28 2.63012321E-06 1.18845330E-05 2.08840581E-06-8.13270877E-07-6.44270105E-07
 1 29-6.51805167E-05-3.51193962E-05-7.52596599E-06 2.06578835E-06 1.91990192E-06
 1 30 4.35127933E-06 3.97832968E-06-8.33320642E-07 1.25627769E-06 2.12029327E-06
 1 31 2.53691591E-06 1.14414992E-05-5.50032154E-06-4.89317567E-06-7.46586761E-06
 1 32-8.90385039E-05-2.85646793E-05 5.08595403E-07 5.67128063E-05-5.41677364E-06
 1 33-7.16761885E-06 5.14051396E-06-3.64865600E-06-3.05050515E-07 9.30396514E-08
 1 34-5.04343462E-07-5.20974224E-06 2.93387098E-06 6.81638048E-06 1.54635139E-06
 1 35 4.26441371E-05 1.45413677E-06 1.17514202E-05-1.79556639E-05-3.93434528E-07
 1 36 5.96868145E-06-9.43254032E-07 1.75823757E-06 8.66385758E-07-1.63975863E-06
 1 37 3.34998081E-05 4.70325302E-04-6.29818418E-05-5.15539564E-04 5.92624240E-05
 1 38 4.85546276E-04 4.04566619E-05 5.12654343E-04 1.44392402E-05 5.02201675E-05
 1 39 1.67264692E-05-4.93955886E-05-4.97032203E-07-1.38821446E-05-4.51794288E-06
 1 40 1.41975397E-07 2.83186905E-06 1.46883453E-05 6.36139594E-06-2.53688195E-06
 1 41-1.98239170E-07-5.36262418E-06-1.37884072E-07-8.04023952E-06-2.82981092E-06
 1 42-1.58429943E-05-4.68998327E-07 1.69908813E-06
 2  1 2.94316471E-06 2.00684980E-05-2.46180591E-06 1.61014878E-06-2.10881589E-07
 2  2-2.00993972E-04 1.39548472E-04 8.99394545E-07 1.31013363E-05 2.89809864E-06
 2  3 1.09379979E-05 1.16486201E-05-2.73794655E-06-4.59412045E-06 1.37244688E-06
 2  4 5.04341969E-07 2.34596984E-06-2.82824221E-06 1.35862442E-06 1.21973735E-06
 2  5 1.55285989E-05 4.28105468E-05-2.26611117E-05-7.82113761E-05-6.42997798E-07
 2  6 1.18280716E-06-5.32001719E-07 1.19658605E-06 1.93846375E-06-1.33913546E-06
 2  7-2.21744081E-06-1.22605074E-05-1.46280466E-06 4.71205273E-06-1.34371511E-06
 2  8 1.60865426E-04-1.36907353E-04-3.95947285E-05-9.73347219E-05 5.57394775E-06
 2  9-6.17590479E-06-3.09220985E-06 2.85374406E-06 3.15655210E-06-4.60725239E-07
 2 10-1.32721150E-07-8.93324711E-06 6.86266077E-06-9.50786236E-06 6.30158116E-06
 2 11-8.53524750E-05-2.54063067E-04 4.04416445E-05 1.03897577E-04 2.35830017E-06
 2 12-2.18007240E-06 2.32841640E-05-2.67369392E-06-1.96035259E-05 2.00062739E-06
 2 13-6.64593572E-06 6.55646031E-06 6.07189340E-05 2.29445708E-06 9.20041106E-06
 2 14 1.00678782E-05-1.99955867E-04 1.09473444E-04-8.96189923E-05-6.31181633E-05
 2 15-3.27793564E-05-2.38292364E-05-1.02698840E-05 2.27309953E-05-2.08396812E-05
 2 16 1.84278881E-06 6.03308921E-06-5.22422105E-06 2.36755344E-06-9.17433441E-06
 2 17 2.08827637E-04 2.52667876E-04-1.80541453E-05 2.96519055E-05 1.25559631E-07
 2 18 3.58307342E-06 5.12945669E-06-6.65086010E-06 1.83804773E-06 3.11961248E-06
 2 19-3.52105105E-05 8.15375710E-05-1.58071652E-04-1.84740654E-04 2.13903098E-04
 2 20 2.54136686E-03-1.22117804E-03-3.28780390E-04 4.88765467E-04-8.31462285E-05
 2 21-9.67818222E-05-1.68037034E-04-1.99228686E-06 7.95663374E-06 2.52821278E-05
 2 22 5.73561040E-06 4.97317669E-05-3.10294951E-05 8.62324211E-05-1.04855996E-05
 2 23-6.17706279E-04 9.64278430E-05 2.59899327E-04-1.28982311E-04 1.36991532E-05
 2 24-5.82018790E-05-9.43999734E-06-4.23622746E-06-1.42203190E-05-3.89189155E-06
 2 25 6.76930785E-06 5.08631014E-05 2.02069051E-06 5.66101184E-05-5.36244305E-05
 2 26-5.36492625E-04 1.06508735E-04 4.42843453E-04 3.89476182E-05 3.06855706E-06
 2 27-5.24654088E-05 6.04602742E-06-1.55660002E-05-2.19752922E-05 1.11185299E-05
 2 28-1.98642050E-05 1.16236875E-04 3.04789576E-04-2.04870801E-04-5.95757543E-05
 2 29 2.28090432E-03 3.17695298E-04-2.07364401E-04-8.02003166E-04-1.37221627E-04
 2 30-7.64781098E-05-6.68567404E-05 4.06755089E-05-3.66533711E-05 9.11213839E-06
 2 31 9.95140529E-01 2.53351741E-02-5.86407162E-04 3.75808918E-05-1.19877922E-03
 2 32-5.33934400E-03 7.99018388E-04-3.71675391E-04 1.82744568E-03-3.09692706E-03
 2 33-3.14488024E-03-2.99846082E-03-5.02641977E-06 1.80542472E-04 4.69332208E-05
 2 34 2.25255118E-06 2.26964392E-04 5.32363430E-05 3.29347321E-04 4.29041597E-05
 2 35 1.63252633E-03-1.20556072E-04 5.85735611E-04-2.60184694E-04-7.77012541E-05
 2 36-1.24201858E-04-6.81572109E-05-5.45383153E-05 1.25086014E-05-8.90393022E-05
 2 37-2.88575031E-06-5.69592397E-06-4.58017991E-06-3.13197772E-06-1.88998083E-05
 2 38 1.10193388E-04 2.11013415E-05-2.08848028E-05-1.23921641E-04-3.50402153E-04
 2 39 3.83585777E-05-4.55921873E-05 1.97470875E-05 1.23760764E-05-9.82906233E-07
 2 40-9.57977983E-05 5.91579156E-05 4.91467223E-05-6.63860247E-05 5.47213992E-05
 2 41-1.50307299E-04-3.71311748E-04-7.31698418E-05-8.60893866E-05-1.39463088E-04
 2 42-3.11592509E-04-7.02203857E-05-9.08439783E-05
 3  1-2.68227344E-04 3.89284059E-04 9.19292562E-05-1.16883762E-05-3.47594032E-05
 3  2-1.28473047E-03-5.37317731E-04 3.33061349E-04 1.18119708E-03-3.66478561E-04
 3  3 1.81368528E-04-2.35334025E-04 6.24837951E-05 1.60857127E-04-1.47493656E-04
 3  4 9.95332759E-01 2.80850743E-02-7.83368747E-04 5.33466758E-06-6.22860017E-05
 3  5-8.92561382E-03-1.57811442E-04 5.56393444E-04 1.99238264E-03-2.03966745E-03
 3  6-2.36583932E-03-1.78945102E-03-6.98748220E-05-2.03715145E-04 2.06089159E-04
 3  7 1.87743049E-02 5.90946272E-04-3.99531958E-05-3.98268621E-05-1.48313198E-04
 3  8 2.23701885E-03 1.76398100E-03 3.09260563E-04 1.29278146E-03-3.80107751E-04
 3  9-1.38440770E-04-5.12878707E-04-2.75854509E-05-1.30086918E-04-1.25177287E-04
 3 10 4.55980133E-05-2.64562063E-04-2.23886414E-05-1.16603981E-06-4.40505650E-06
 3 11 1.88992483E-03 1.17676722E-03 3.04060692E-04 1.18529155E-03 1.12439780E-04
 3 12-5.56306602E-05 6.42072330E-05 1.08257298E-05 5.73584393E-05 4.02780020E-05
 3 13-4.19046868E-04 1.40356184E-04-7.26469973E-06-1.89016620E-06-4.18041852E-06
 3 14-2.86666323E-03-1.90928195E-03-4.20252140E-04-1.69005168E-03-8.84209343E-06
 3 15 1.78216239E-05-4.91433036E-05-7.37172500E-06-3.79829609E-05-2.16070038E-05
 3 16-2.32371253E-03-5.09320153E-04-1.17838353E-05 1.82354673E-05 7.22672961E-05
 3 17 3.14749695E-03 1.17673344E-03-7.55583474E-04-2.68807211E-03 1.94826774E-04
 3 18-1.12403614E-04 4.84863464E-05-9.29499346E-06 2.89640205E-06 5.54789905E-05
 3 19-1.38924544E-05-2.90268761E-05-2.26369921E-05-1.25415091E-05-2.04449251E-05
 3 20-5.90202694E-04-4.25814612E-04 1.71206307E-04 2.74251687E-04-2.40941715E-05
 3 21-1.93773373E-05-1.34455006E-05 6.32176995E-06 1.78056760E-05-3.02353730E-06
 3 22-2.01519639E-07 9.77167153E-06-5.21113551E-06 7.41882916E-06-4.11779108E-06
 3 23-1.19015609E-04-4.17225030E-06 3.90912522E-05-6.22460368E-05-5.74685016E-06
 3 24-1.91925831E-06-1.26004699E-06-2.01463238E-06-1.24381639E-06 9.05187303E-06
 3 25 2.37820600E-06 6.45035935E-06 3.89277086E-06-4.17858010E-06-1.98612108E-06
 3 26 1.81521935E-05 9.59811394E-06 1.73610270E-05 2.70628873E-05 3.49117981E-06
 3 27 2.33185153E-06 5.98292665E-06 2.92411775E-06 1.71403301E-06 3.22190191E-11
 3 28 5.81789031E-06 1.54777658E-05 1.86056789E-05 3.63547284E-07-2.25942345E-06
 3 29-5.82182047E-06-5.45613869E-05-3.12625543E-05 1.74728506E-05 9.24265243E-06
 3 30 7.61178905E-06 6.19466386E-06-1.25171441E-06 6.24216540E-06 2.76560030E-06
 3 31 3.55921316E-07 4.55762388E-06-1.06094983E-05 5.68414726E-06 7.98653193E-07
 3 32-8.04625410E-05 1.80413162E-05-9.55598553E-05 1.72406514E-05-4.23502618E-06
 3 33-4.72434274E-06 5.85813647E-06 1.28841662E-06-3.69339994E-06 3.27525737E-06
 3 34-2.27748806E-07-1.25244381E-06-1.74166020E-07-2.54006675E-06 4.12886980E-07
 3 35-2.80661635E-05-1.53218527E-05-1.67803215E-05-2.55662067E-05-1.61917577E-06
 3 36-5.92295561E-07 2.59440830E-07-2.32916283E-06-9.63270701E-07-2.28896094E-06
 3 37-9.14078132E-05 1.55121461E-03-1.39767672E-04-3.41861421E-04 4.80398105E-05
 3 38 5.24625655E-04 1.44237689E-04 9.63003421E-04 3.30595393E-05 1.22456403E-04
 3 39 1.08795168E-05 6.74868725E-06 8.92041811E-07-1.31624739E-05-3.06166987E-06
 3 40-1.25919734E-05 2.59290469E-06 9.34941499E-06 1.28290197E-05-3.34661254E-05
 3 41-5.61493796E-06-2.52745810E-05 2.34637776E-06 3.21596873E-07-3.06142869E-07
 3 42-1.83985484E-05 1.65937992E-06 4.82525262E-06
 4  1-2.69369021E-04 4.10564747E-04-8.23791227E-05 6.11210737E-06 2.47409775E-05
 4  2-1.56314472E-03 1.29251220E-03 1.81913143E-04 7.06575852E-04-4.89895176E-04
 4  3 2.01881444E-04-1.23289084E-04 5.13887743E-06-4.83193442E-05-1.11993320E-04
 4  4 2.23549406E-03-3.53133185E-04 4.51682057E-05 1.66854546E-05 6.97491669E-05
 4  5 2.57475313E-03-2.39812186E-03-3.64124861E-04-1.53873097E-03 1.44874497E-04
 4  6-1.13758414E-04 5.68162953E-05-2.47675792E-05-6.14389929E-05 5.96169647E-05
 4  7-3.20773939E-04 1.67348116E-04 7.90343267E-06-1.58986025E-05-5.33128481E-05
 4  8-3.32316973E-03 1.12509846E-03-5.05648645E-04-1.72864139E-03-4.28182685E-06
 4  9 2.96514627E-05-4.46028168E-05-8.20825670E-07-5.68239030E-06-2.44295908E-05
 4 10 8.66691096E-05-3.26308780E-04 1.44053781E-05-4.01312560E-06-2.11490123E-05
 4 11 2.83800091E-03 4.66055236E-05 5.05010451E-04 1.77589176E-03 7.02834728E-05
 4 12-6.95736434E-05 1.00428602E-04-1.86275485E-05-4.19863596E-05 6.43047727E-05
 4 13 2.30666326E-02 7.88657500E-04-6.42588292E-06-2.49898539E-05-1.24436564E-04
 4 14 2.06006489E-03-1.28396274E-03 5.42517745E-04 2.00018368E-03-3.33353646E-04
 4 15-1.28762351E-04-5.72542903E-04-7.67624323E-07-4.53534537E-05-1.45019052E-04
 4 16 9.95253306E-01 2.80858202E-02 6.52906113E-04-1.33736576E-04-5.07408106E-04
 4 17-8.68329494E-03 1.64248261E-03 3.82069701E-04 1.68774041E-03-1.71876518E-03
 4 18-2.36621579E-03-2.00533950E-03 4.53346481E-05 2.46569719E-04 1.04267694E-04
 4 19-1.24437854E-06-4.41949876E-05-4.38907904E-05-2.07910709E-05-8.68381849E-05
 4 20-1.20430242E-03 2.68776562E-06 3.81406892E-05-3.05257954E-04 2.95699428E-05
 4 21-5.26942623E-05-7.78656343E-06 8.62588822E-06 1.39138792E-05 3.18490592E-05
 4 22-5.99151148E-06 1.66528848E-05-2.51249413E-05 4.12143583E-05-4.62870602E-05
 4 23-1.83579589E-04-1.38446812E-04-4.17744418E-04 2.15643026E-04-8.13904631E-06
 4 24 5.38914063E-05-1.16356596E-05 2.48580675E-06-1.55717314E-05-3.29929009E-06
 4 25 1.04728438E-05 3.03175159E-05 2.03023911E-05-7.24099628E-06 1.27586245E-05
 4 26-1.75574684E-04-1.40279367E-04 1.53191993E-04-6.08025388E-05 1.25793218E-06
 4 27 1.87522848E-06 2.65252824E-05 6.00929044E-06 3.40468746E-06-4.83680503E-06
 4 28 4.24279847E-06-1.44148180E-05 2.92614971E-05-3.59316651E-06-1.37126809E-06
 4 29 1.83878233E-04-1.07853057E-04-1.97555323E-05-6.28541875E-05 2.51525546E-06
 4 30 3.18022376E-05 4.44958928E-06-1.01669991E-05-6.33575820E-06 7.87660329E-06
 4 31-2.59992286E-05-6.22104953E-05-7.61143710E-05-2.09512920E-05-3.07453866E-05
 4 32 5.20121237E-04 3.35569727E-04 2.10577461E-04-6.57064703E-05-9.62679922E-05
 4 33-9.06799054E-05-5.16384558E-05 1.65455288E-05-2.01804170E-05-2.18315395E-05
 4 34 3.98407385E-06-4.39730387E-06 4.88929556E-06 9.28559900E-06 4.50280085E-06
 4 35 1.47606271E-05-1.09190898E-04 8.29553827E-05 1.09611453E-06-1.01476934E-05
 4 36 3.65461935E-05 1.38226564E-05-1.09971442E-05-5.66278879E-06 5.11146963E-06
 4 37 1.55074508E-04 9.55498841E-04-5.77472271E-05-5.15044298E-04 5.24173027E-05
 4 38 5.22195121E-04-3.37780559E-05 1.55957435E-03 4.20262034E-05 8.60218754E-05
 4 39-1.37261871E-04 5.95589328E-04 4.60319332E-05 1.55040093E-04 2.20258904E-05
 4 40-6.72683797E-05-8.19451380E-06-6.56492563E-05 2.08986099E-05-2.92198764E-05
 4 41-1.35929536E-05-9.90157176E-05-2.72642543E-06 9.12310590E-05-7.20840313E-06
 4 42-2.14897518E-05-4.22611244E-06 3.92845946E-06
 5  1 6.65570267E-05 1.44494046E-04 6.99527744E-06-2.65228393E-06-5.94787456E-06
 5  2-2.33157037E-03 2.81186092E-04 2.31351714E-04 8.67890879E-04 1.92986123E-04
 5  3 8.21491026E-05 1.28840163E-04-7.07003581E-07 1.65021589E-05 1.45537900E-05
 5  4 3.22563628E-04-7.37410248E-05 1.56472060E-05 4.95109875E-06 2.72467899E-05
 5  5 1.68821740E-03-9.60365495E-04-5.93238272E-05-3.42790299E-04 3.41927772E-06
 5  6-4.75188094E-05 9.27530147E-06-8.68478958E-07 5.63993471E-06 1.82274353E-05
 5  7 3.03455353E-03 5.43426404E-05 2.92640552E-05 1.15301718E-06 5.43892871E-06
 5  8-2.14967027E-03 7.74615884E-04-2.77977666E-04-8.62759531E-04 1.25327869E-04
 5  9 3.71920448E-06 1.91221051E-05-5.54604519E-06-1.25666938E-05 6.95718668E-06
 5 10 1.39057694E-02 1.79578433E-04 1.00647244E-04-4.81096063E-05-1.51924275E-04
 5 11 6.11881391E-03-6.79258108E-04 7.98448852E-04 2.58026797E-03-4.75993638E-04
 5 12-1.98830293E-04-4.25482597E-04 4.41941124E-05 1.62140566E-04-7.54535128E-05
 5 13 9.95230763E-01 2.88484532E-02 4.74939840E-04 1.50881057E-04 3.05948685E-04
 5 14-1.59367151E-02-3.10685065E-03-2.80584911E-04-1.06775093E-03-1.75024428E-03
 5 15-2.09977101E-03-1.66071138E-03-6.07026057E-05-6.99395612E-05 1.42001047E-04
 5 16-2.35305162E-02-7.87195997E-04 1.90881287E-05 5.56679222E-05 1.65054722E-04
 5 17 6.73080192E-03 4.05143919E-04-7.16461386E-04-2.60148125E-03-2.25579606E-04
 5 18-1.03202424E-04-4.91768519E-04-3.96508606E-05-1.43286531E-04-1.38062361E-04
 5 19 5.84515708E-03 7.75700548E-04 9.02018109E-05 8.17999867E-05-4.37039281E-06
 5 20-1.75950651E-03 5.45204802E-04-1.14086528E-03-2.65118333E-04-3.62306278E-04
 5 21-8.08438559E-05-3.40858829E-05 4.15793945E-06-7.86202476E-05 3.34075445E-05
 5 22-1.38698520E-04-4.39786503E-04-1.37034396E-04 3.34733725E-05 4.97464309E-06
 5 23 2.21775762E-03 1.24929687E-03-1.14180009E-03 3.01725743E-04-6.59538982E-05
 5 24-2.52629984E-05-1.74099888E-04-8.34923495E-05 9.03211107E-05-2.90918970E-05
 5 25 1.11999794E-05 2.25775689E-05 2.58780734E-05-5.49528095E-06 5.96695551E-05
 5 26-1.08261312E-04-1.11616229E-04 3.82319158E-04-6.17220620E-04 2.33273437E-05
 5 27-2.80359530E-05 3.32208419E-05 1.92419775E-05-1.93132948E-05 1.20804617E-06
 5 28-5.45755104E-06-8.94003711E-05 4.76129765E-05-1.80891140E-05-1.63187945E-05
 5 29 9.58876411E-04 8.26915676E-05 1.13996092E-04-3.02006971E-05-9.00585347E-06
 5 30 3.71887789E-05-1.69106211E-05-2.78883424E-05-7.20781153E-07 2.13100711E-07
 5 31-3.54206455E-05-1.80740008E-04-1.20227076E-04 1.52248312E-05 3.43256358E-05
 5 32 7.17444344E-04 7.72825657E-04 8.17645950E-05-3.71210176E-04-3.54897041E-05
 5 33-9.39938633E-05-1.04292635E-04 7.56274999E-05-2.29951501E-05-4.28821989E-05
 5 34 1.36280848E-05 8.64969434E-05-2.86446449E-05-5.92538569E-05-7.36414203E-06
 5 35-6.15943507E-04-3.37700910E-04 1.29494403E-04 1.91231226E-04-1.80416032E-05
 5 36 3.82786599E-05 2.64021673E-05-5.02292296E-05-6.95682008E-06 3.25810542E-05
 5 37 2.15952208E-05 2.52737045E-04-4.04617560E-05-1.62086776E-04-2.45999570E-05
 5 38 3.29073169E-04-3.25825557E-05 1.49481083E-04 2.03989616E-05-1.45533829E-04
 5 39-2.77653225E-04 1.05557706E-04-3.53979938E-05-5.86738654E-05 4.07026745E-05
 5 40 6.88483664E-05-5.69048194E-05-1.75155265E-04-4.57267613E-05-6.08762959E-05
 5 41-1.96684937E-05-1.05752477E-04-6.44018947E-05 5.53006749E-04 3.67574862E-05
 5 42 7.64092744E-05 1.25192839E-05-2.31388709E-05
 6  1 7.69115606E-05 1.88212336E-04-2.56870514E-06-3.14102882E-06-1.05903736E-05
 6  2-2.76911474E-03 1.86893963E-04 2.59753153E-04 9.58737480E-04 1.88157373E-04
 6  3 1.15423729E-04 1.84615453E-04-1.31872884E-05-4.01144918E-05 2.51272769E-05
 6  4-1.92604078E-02-6.75619669E-04 6.33260453E-05 4.22745891E-05 1.58435507E-04
 6  5 6.67146277E-03-2.19097393E-03-4.40612296E-04-1.79727475E-03-2.09147588E-04
 6  6-1.14874684E-04-5.10066454E-04-2.97660075E-06-2.53687423E-05-1.36056081E-04
 6  7 9.95280478E-01 2.85614858E-02-1.97787143E-04 1.55848973E-04 5.73162632E-04
 6  8-1.56572247E-02 2.72749647E-03-8.07856765E-04-2.69418527E-03-1.92928622E-03
 6  9-2.30272823E-03-1.93309212E-03 2.70799418E-05 1.44160688E-04 1.24179026E-04
 6 10 1.47792809E-02 8.95021022E-05-1.23929502E-04-1.62006612E-05-7.39170295E-05
 6 11 7.23980730E-03 1.80057487E-03 6.58496343E-04 2.53827543E-03-4.56450706E-04
 6 12-2.04820753E-04-2.91530511E-04 2.89040167E-06-2.05210352E-05-2.90698440E-05
 6 13-3.19351570E-03-5.21856986E-05-1.50535132E-05-3.11921885E-06-9.01791892E-06
 6 14-2.84242191E-03-1.43748960E-03 1.66262798E-04 4.31914043E-04 9.22610149E-05
 6 15 4.28053727E-05 5.01120231E-05-8.67058310E-06-2.74868951E-05 4.28790564E-06
 6 16 4.67464297E-04-3.06785658E-05 1.03685284E-05 7.65429008E-06 2.78774798E-05
 6 17 1.28086368E-03 8.17308344E-04-1.84721090E-04-5.91016565E-04 4.27206875E-06
 6 18-2.73348356E-05 1.54812067E-05-2.75263594E-06-6.48303156E-06 1.53681920E-05
 6 19-1.88092222E-05-4.35479167E-05-2.40724926E-05 1.01625697E-05 5.17479787E-06
 6 20-8.85657672E-05 2.76693169E-04-9.41639552E-05-3.02589511E-04 6.84971117E-06
 6 21-1.97369110E-05-2.72854786E-05-9.03523114E-06-1.57499642E-05 5.33197801E-06
 6 22-2.55263477E-06-3.40932276E-06-6.56333009E-06-9.27186127E-06-9.67384877E-07
 6 23 7.65819497E-05-1.95636034E-05-6.20376060E-06 7.01312700E-05-7.14120460E-06
 6 24 5.24966865E-06-5.70660098E-06 9.22357175E-06 3.65897473E-07-8.42044073E-06
 6 25-2.46602634E-06-1.19683943E-05 7.36097476E-07 3.47695308E-06 5.20010404E-06
 6 26 1.51319684E-05-1.02183107E-05-4.74017827E-05-2.61050509E-05-1.43172549E-06
 6 27-1.10998744E-06-3.89692272E-06-6.10736506E-06-1.37640047E-06-1.58050565E-06
 6 28-3.40105560E-06-1.02604563E-05-6.75699630E-06 3.80852674E-06 4.41087074E-06
 6 29-3.10449935E-05-1.71358364E-06 5.51186399E-06 2.64406671E-06-3.84821775E-06
 6 30-3.99964431E-06-5.14414056E-06 1.85057429E-06-4.04379630E-06-1.04638277E-06
 6 31-4.43456015E-06-1.72104134E-05 2.82889492E-06-5.10248681E-06-5.98592341E-07
 6 32 1.97292083E-04-2.64892525E-05 1.02246747E-04-5.55464616E-05-1.65195554E-05
 6 33-3.94223154E-06-7.09181997E-06-9.16616631E-07 8.74969358E-07-9.11176594E-06
 6 34 2.19540674E-06 7.65858732E-06 2.26755789E-06 2.76034137E-06-4.57494929E-06
 6 35-1.22091200E-05 1.44983514E-06-5.14241086E-06 4.37123197E-05 1.76255053E-06
 6 36 2.07054692E-06 4.39813940E-06 1.66624018E-06 2.16994493E-07 2.31126412E-06
 6 37-2.41552465E-05 3.46513833E-04-1.97756503E-04 8.88809202E-04 5.97242156E-06
 6 38 4.66331303E-04 3.60544955E-05 2.67462948E-04-4.34905763E-05-2.91434824E-05
 6 39-7.35908472E-06-1.68257868E-05 5.77043275E-06 7.51227273E-06 4.72222394E-06
 6 40 1.86964801E-05-4.38661586E-06-1.54634459E-05 2.68802946E-06-2.28928907E-06
 6 41 2.39362779E-06-1.66715219E-06 2.18245609E-06 3.29415900E-06 4.63931360E-06
 6 42 2.33484308E-05-2.84689019E-06-1.37906781E-05
 7  1-2.28303521E-05-1.01288498E-04 8.00680885E-06 7.89470986E-06 2.82405326E-05
 7  2 1.00541614E-03-8.00695987E-05-8.59106216E-05-3.27474478E-04-5.85327591E-05
 7  3-6.19201486E-05-5.63921880E-05-1.07392431E-06-2.23682136E-06 1.97975699E-06
 7  4 2.12763201E-04-1.15968447E-04 2.73843650E-05 6.36082065E-06 2.38370917E-05
 7  5-1.48663781E-03 4.90603039E-04 5.43661207E-05 2.55684970E-04 7.32617188E-05
 7  6-9.05073718E-06 9.36603636E-05 9.78298795E-06 4.36365160E-05 3.43621858E-05
 7  7-1.53773129E-02-6.12910645E-04 2.03383833E-04-1.02737072E-05-2.17884340E-05