!  BiAt3...using all-electron SARC-DK3 basis set...632 AOs, 548 MOs.
!  The purpose of this test is to test multi-center contracted f integrals.
!  Note that there are no g-functions present in this run.
!
!  FINAL RHF E= -90152.1292044624, after 15 iters (d.p. relativity)
!     q.p. rel= -90152.1292043033 and needs 4967 s.conds for 1e- integrals!
!
!      Molecular geometry by SBKJC(d), C3v is positive definite.
!      SARC-DK3 is a relativistic basis set from the PNNL web site,
!      to ensure we have contracted f orbitals present on all atoms.
!      Apart from the first shell in each angular momentum s/p/d/f,
!      this is an uncontracted basis set.  References are below.
!
!  there should be 776,908,122 non-zero integrals, requiring 12.4 GBytes.
!  This run takes 690 seconds on 2.66 GHz Cloverton (28 Aug 2013)
!       1e- ints=120.0, 2e- ints=319.6, RHF iters=233.4
!
 $contrl scftyp=rhf runtyp=energy relwfn=iotc ispher=1 inttyp=best $end
 $system mwords=30 $end
 $scf dirscf=.t.   $end
 $basis  basnam(1)=bi-sarc,at-sarc,at-sarc,at-sarc $end
 $guess  guess=huckel $end
 $relwfn modeqr=1 $end
 $data
BiAt3...both atoms have occupied 4f orbitals.
Cnv 3

Bi 83.0   0.0000000000   0.0000000000   0.2606352450
At 85.0   2.5643659654   0.0000000000  -1.0868784150
 $end

!
! 5d block:
!    Dimitrios. A. Pantazis, Xian-Yang Chen, Clark R. Landis, and Frank Neese,
!    All-E- Scalar Relativistic Basis Sets for Third-Row Transition Metal Atoms
!    Journal of Chemical Theory and Computation 4(6), 908-919 (2008).
! lanthanides: Dimitrios A. Pantazis and Frank Neese,
!    All-electron scalar relativistic basis sets for the lanthanides,
!    J. Chem. Theory Comput. 5, 2229 (2009).
! 6p block: Dimitrios A. Pantazis and Frank Neese,
!    All-electron scalar relativistic basis sets for the 6p elements,
!    Theor. Chem. Acc. 131, 1292 (2012).
! actinides: Dimitrios A. Pantazis and Frank Neese
!    All-electron scalar relativistic basis sets for the actinides,
!    J. Chem. Theory Comput. 7, 677 (2011).
!
 $bi-sarc
S   8
  1 47874457.7203579992         0.0485735032
  2 21761117.1456170008        -0.0311857884
  3 9891416.8843709994          0.0912562355
  4 4496098.5838050004          0.0103537570
  5 2043681.1744570001          0.1447611673
  6 928945.9883900000           0.1331142852
  7 422248.1765410000           0.3199394101
  8 191930.9893370000           0.4620491439
S   1
  1  87241.3587890000           1.0000000
S   1
  1  39655.1630860000           1.0000000
S   1
  1  18025.0741300000           1.0000000
S   1
  1   8193.2155140000           1.0000000
S   1
  1   3724.1888700000           1.0000000
S   1
  1   1692.8131230000           1.0000000
S   1
  1    769.4605100000           1.0000000
S   1
  1    349.7547770000           1.0000000
S   1
  1    158.9794440000           1.0000000
S   1
  1     72.2633840000           1.0000000
S   1
  1     32.8469930000           1.0000000
S   1
  1     14.9304510000           1.0000000
S   1
  1      6.7865690000           1.0000000
S   1
  1      3.0848040000           1.0000000
S   1
  1      1.4021840000           1.0000000
S   1
  1      0.6373560000           1.0000000
S   1
  1      0.2897070000           1.0000000
S   1
  1      0.1316850000           1.0000000
S   1
  1      0.0598570000           1.0000000
S   1
  1      0.0272080000           1.0000000
S   1
  1      0.0123670000           1.0000000
P   8
  1 1349691.8971620000          0.0035763910
  2 562371.6238170000           0.0008268572
  3 234321.5099240000           0.0090783714
  4  97633.9624680000           0.0131704911
  5  40680.8176950000           0.0374057686
  6  16950.3407060000           0.0898541884
  7   7062.6419610000           0.2491180388
  8   2942.7674840000           0.7232933436
P   1
  1   1226.1531180000           1.0000000
P   1
  1    510.8971330000           1.0000000
P   1
  1    212.8738050000           1.0000000
P   1
  1     88.6974190000           1.0000000
P   1
  1     36.9572580000           1.0000000
P   1
  1     15.3988570000           1.0000000
P   1
  1      6.4161910000           1.0000000
P   1
  1      2.6734130000           1.0000000
P   1
  1      1.1139220000           1.0000000
P   1
  1      0.4641340000           1.0000000
P   1
  1      0.1933890000           1.0000000
P   1
  1      0.0805790000           1.0000000
P   1
  1      0.0335750000           1.0000000
D   7
  1  15989.5599240000           0.0002020081
  2   6395.8239700000           0.0006528150
  3   2558.3295880000           0.0035212081
  4   1023.3318350000           0.0188719142
  5    409.3327340000           0.0919091715
  6    163.7330940000           0.3440716427
  7     65.4932370000           0.6776313594
D   1
  1     26.1972950000           1.0000000
D   1
  1     10.4789180000           1.0000000
D   1
  1      4.1915670000           1.0000000
D   1
  1      1.6766270000           1.0000000
D   1
  1      0.6706510000           1.0000000
D   1
  1      0.2682600000           1.0000000
D   1
  1      0.1073040000           1.0000000
D   1
  1      0.0429220000           1.0000000
F   8
  1   2872.4938300000           0.0000384918
  2   1063.8866040000           0.0002907724
  3    394.0320760000           0.0033255234
  4    145.9378060000           0.0277323984
  5     54.0510390000           0.1591058014
  6     20.0189030000           0.4391057971
  7      7.4144090000           0.4945259914
  8      2.7460770000           0.1857621948
F   1
  1      1.0170660000           1.0000000
F   1
  1      0.3766910000           1.0000000
F   1
  1      0.1395150000           1.0000000

 $END

 $at-sarc
S   8
  1 50231960.3244210035         0.0500500782
  2 22832709.2383730002        -0.0323079942
  3 10378504.1992610004         0.0937811234
  4 4717501.9087549997          0.0096580169
  5 2144319.0494340002          0.1474340171
  6 974690.4770150000           0.1328138376
  7 443041.1259160000           0.3213123142
  8 201382.3299620000           0.4580662385
S   1
  1  91537.4227100000           1.0000000
S   1
  1  41607.9194140000           1.0000000
S   1
  1  18912.6906430000           1.0000000
S   1
  1   8596.6775650000           1.0000000
S   1
  1   3907.5807110000           1.0000000
S   1
  1   1776.1730510000           1.0000000
S   1
  1    807.3513870000           1.0000000
S   1
  1    366.9779030000           1.0000000
S   1
  1    166.8081380000           1.0000000
S   1
  1     75.8218810000           1.0000000
S   1
  1     34.4644910000           1.0000000
S   1
  1     15.6656780000           1.0000000
S   1
  1      7.1207630000           1.0000000
S   1
  1      3.2367100000           1.0000000
S   1
  1      1.4712320000           1.0000000
S   1
  1      0.6687420000           1.0000000
S   1
  1      0.3039740000           1.0000000
S   1
  1      0.1381700000           1.0000000
S   1
  1      0.0628040000           1.0000000
S   1
  1      0.0285470000           1.0000000
S   1
  1      0.0129760000           1.0000000
P   8
  1 1419894.3199499999          0.0037590125
  2 591622.6333110000           0.0008573192
  3 246509.4305460000           0.0094762115
  4 102712.2627280000           0.0136055528
  5  42796.7761370000           0.0384716021
  6  17831.9900570000           0.0913823740
  7   7429.9958570000           0.2509235279
  8   3095.8316070000           0.7200662843
P   1
  1   1289.9298360000           1.0000000
P   1
  1    537.4707650000           1.0000000
P   1
  1    223.9461520000           1.0000000
P   1
  1     93.3108970000           1.0000000
P   1
  1     38.8795400000           1.0000000
P   1
  1     16.1998080000           1.0000000
P   1
  1      6.7499200000           1.0000000
P   1
  1      2.8124670000           1.0000000
P   1
  1      1.1718610000           1.0000000
P   1
  1      0.4882750000           1.0000000
P   1
  1      0.2034480000           1.0000000
P   1
  1      0.0847700000           1.0000000
P   1
  1      0.0353210000           1.0000000
D   7
  1  16947.0514570000           0.0002092914
  2   6778.8205830000           0.0006678990
  3   2711.5282330000           0.0035683346
  4   1084.6112930000           0.0189648512
  5    433.8445170000           0.0918866024
  6    173.5378070000           0.3439952654
  7     69.4151230000           0.6776888892
D   1
  1     27.7660490000           1.0000000
D   1
  1     11.1064200000           1.0000000
D   1
  1      4.4425680000           1.0000000
D   1
  1      1.7770270000           1.0000000
D   1
  1      0.7108110000           1.0000000
D   1
  1      0.2843240000           1.0000000
D   1
  1      0.1137300000           1.0000000
D   1
  1      0.0454920000           1.0000000
F   8
  1   3190.1793690000           0.0000362561
  2   1181.5479140000           0.0002716496
  3    437.6103390000           0.0030929458
  4    162.0779030000           0.0261313662
  5     60.0288530000           0.1539067957
  6     22.2329090000           0.4390718230
  7      8.2344110000           0.5015969258
  8      3.0497820000           0.1797205605
F   1
  1      1.1295490000           1.0000000
F   1
  1      0.4183510000           1.0000000
F   1
  1      0.1549450000           1.0000000

 $END

! TRAVIS-CI MEDIUM
! TRAVIS-CI SKIP
! ACCURACY ON INTEL DOES NOT MATCH GNU

