!   PCM treatment of solvent dependence of n->pi* transition in acetone
!   inspired by K.Aidas, J.Kongsted, A.Osted, K.V.Mikkelsen, O.Chrstiansen
!   J.Phys.Chem.A 109, 8001-8010(2005)
!
!   since the n orbital has b1 symmetry, and pi* has b2, the state is A2
!   and is easily shown to be a "dark" state:
!             b1
!   < 1-A-1 | b2 | 1-A-2>    as all three dipole components vanish
!             a1
!
!   the standard test is in PCM "water":
!  STATE        ENERGY     EXCITATION  TRANSITION DIPOLE, A.U.  OSCILLATOR
!  0  A    -193.0877475369    0.000
!  1  A    -192.9141927804    4.723     0.0000  0.0002  0.0000    0.000
!
!   gas phase:
!  STATE        ENERGY     EXCITATION  TRANSITION DIPOLE, A.U.  OSCILLATOR
!              HARTREE          EV         X       Y       Z     STRENGTH
!  0  A1   -193.0797679655    0.000
!  1  A2   -192.9117812010    4.571     0.0000  0.0000  0.0000    0.000
!
!  This test takes 250 seconds on 2.66 GHz Cloverton ( 2 Oct 2015)
!
 $contrl scftyp=rhf dfttyp=camb3lyp tddft=excite
         runtyp=energy ispher=1 nzvar=24 $end
 $system mwords=5 $end
 $basis  gbasis=accd $end
 $zmat   dlc=.t. auto=.t. $end
 $statpt opttol=1d-5 $end
 $pcm    solvnt=water $end
 $data
acetone...RHF/aug-cc-pVDZ geometry
Cnv 2

C           6.0   0.0000000000   0.0000000000   0.1638001129
O           8.0   0.0000000000   0.0000000000   1.3576803180
C           6.0   1.2886502268   0.0000000000  -0.6283880620
H           1.0   2.1386004913   0.0000000000   0.0473387131
H           1.0   1.3290641911   0.8791313807  -1.2741480762
 $end

! TRAVIS-CI SMALL

