!   4-dimethylamino-cinnamaldehyde + two EFP waters + PCM continuum,
!   1 EFP H-bonded to the aldehyde O, 1 EFP H-bonded to the amino N.
!   C11H13NO...CAS 6203-18-5...26 QM atoms, 221 AOs, 47 occupied MOs.
!   Energy runs do "gas" meaning solute+EFP here, then "solution" adding PCM
!
!        FINAL E= -553.4160085075 (EFP) and -553.4404675343 (EFP+PCM)
!
!   answers unchanged since 2008
!   This test needs 96 seconds on 2.66 GHz Cloverton (28 Sep 2015)
!
!   some information about geometry optimizations can be found
!   at the bottom of the main input file.
!
 $contrl scftyp=rhf runtyp=energy nzvar=72 $end
 $system mwords=5 $end
 $basis  gbasis=n31 ngauss=6 ndfunc=1 $end
 $guess  guess=huckel $end
 $pcm    solvnt=water $end
!    to move waters into $data is nzvar=87 nonvdw(1)=1,28, 2,31
 $zmat   dlc=.true. auto=.true. $end
 $data
cinnamon + two EFP waters but no PCM...geom is tightly optimized
C1
O           8.0  -5.6513625396  -1.1422819677  -0.9113091042
N           7.0   2.9768417449  -1.1328975241   1.5106967009
C           6.0  -1.2408021352  -1.2528081091   1.1298378416
C           6.0  -0.4046352413  -1.0289971453   0.0297739897
H           1.0  -0.8253549894  -0.8612951687  -0.9440820728
C           6.0   0.9608003590  -0.9959592499   0.1732358999
H           1.0   1.5764345408  -0.7891096018  -0.6825977330
C           6.0   1.5640629549  -1.1981928875   1.4217909690
C           6.0   0.7399722153  -1.4149294166   2.5170803420
H           1.0   1.1533297246  -1.5736718406   3.4936691458
C           6.0  -0.6392220730  -1.4352745620   2.3653431355
H           1.0  -1.2513288802  -1.6064981428   3.2338607848
C           6.0  -2.7054021729  -1.2922157914   1.0297778411
H           1.0  -3.2159317653  -1.4310090939   1.9703669790
C           6.0  -3.4506216711  -1.1804307168  -0.0669979683
H           1.0  -3.0401545069  -1.0450772149  -1.0502460936
C           6.0  -4.9124429036  -1.2402952622   0.0245392554
H           1.0  -5.3193940075  -1.3851687874   1.0297464499
C           6.0   3.5384197789  -1.0048853038   2.8433953742
H           1.0   3.4391395787  -1.9126387036   3.4391996678
H           1.0   3.0643815340  -0.1880656432   3.3716765801
H           1.0   4.5929251590  -0.7776894462   2.7524709717
C           6.0   3.6805233621  -2.1519973203   0.7344977312
H           1.0   3.5650225700  -3.1439890567   1.1710209391
H           1.0   4.7342361605  -1.9062479123   0.7034482660
H           1.0   3.3154675924  -2.1799909986  -0.2808387183
 $end
 $efrag
iscrelec=0 iscrpol=0 iscrdisp=0
FRAGNAME=H2ORHF
ZO1              -4.1708502011  -0.7061980133  -3.4438342274
ZH2              -4.5146402027  -1.1481030719  -4.2037071168
ZH3              -4.8189686953  -0.7929658994  -2.7631785101
FRAGNAME=H2ORHF
ZO1               3.8829738657   1.3186422868   0.0121010016
ZH2               3.5474333937   0.6038700658   0.5292003322
ZH3               3.2649635013   2.0271760028   0.0952972567
 $end

-------- QM + 2EFP structure, tight optimization w/o PCM present
The end of the internal coordinate optimization (total of several
hundred steps) shows how agonizing geometry searches are:
 F_NAL RHF ENERGY IS     -553.4160081137 AFTER   6 ITERATIONS
 F_NAL RHF ENERGY IS     -553.4160081738 AFTER   6 ITERATIONS
 F_NAL RHF ENERGY IS     -553.4160082617 AFTER   6 ITERATIONS
 F_NAL RHF ENERGY IS     -553.4160083650 AFTER   6 ITERATIONS
 F_NAL RHF ENERGY IS     -553.4160084373 AFTER   6 ITERATIONS
 F_NAL RHF ENERGY IS     -553.4160084657 AFTER   6 ITERATIONS
 F_NAL RHF ENERGY IS     -553.4160084758 AFTER   4 ITERATIONS
 F_NAL RHF ENERGY IS     -553.4160084827 AFTER   4 ITERATIONS
 F_NAL RHF ENERGY IS     -553.4160084897 AFTER   4 ITERATIONS
 F_NAL RHF ENERGY IS     -553.4160084948 AFTER   5 ITERATIONS
 F_NAL RHF ENERGY IS     -553.4160084983 AFTER   4 ITERATIONS
 F_NAL RHF ENERGY IS     -553.4160085008 AFTER   4 ITERATIONS
 F_NAL RHF ENERGY IS     -553.4160085022 AFTER   3 ITERATIONS
 F_NAL RHF ENERGY IS     -553.4160085049 AFTER   4 ITERATIONS
 F_NAL RHF ENERGY IS     -553.4160085075 AFTER   4 ITERATIONS
O           8.0  -5.6513625396  -1.1422819677  -0.9113091042
N           7.0   2.9768417449  -1.1328975241   1.5106967009
C           6.0  -1.2408021352  -1.2528081091   1.1298378416
C           6.0  -0.4046352413  -1.0289971453   0.0297739897
H           1.0  -0.8253549894  -0.8612951687  -0.9440820728
C           6.0   0.9608003590  -0.9959592499   0.1732358999
H           1.0   1.5764345408  -0.7891096018  -0.6825977330
C           6.0   1.5640629549  -1.1981928875   1.4217909690
C           6.0   0.7399722153  -1.4149294166   2.5170803420
H           1.0   1.1533297246  -1.5736718406   3.4936691458
C           6.0  -0.6392220730  -1.4352745620   2.3653431355
H           1.0  -1.2513288802  -1.6064981428   3.2338607848
C           6.0  -2.7054021729  -1.2922157914   1.0297778411
H           1.0  -3.2159317653  -1.4310090939   1.9703669790
C           6.0  -3.4506216711  -1.1804307168  -0.0669979683
H           1.0  -3.0401545069  -1.0450772149  -1.0502460936
C           6.0  -4.9124429036  -1.2402952622   0.0245392554
H           1.0  -5.3193940075  -1.3851687874   1.0297464499
C           6.0   3.5384197789  -1.0048853038   2.8433953742
H           1.0   3.4391395787  -1.9126387036   3.4391996678
H           1.0   3.0643815340  -0.1880656432   3.3716765801
H           1.0   4.5929251590  -0.7776894462   2.7524709717
C           6.0   3.6805233621  -2.1519973203   0.7344977312
H           1.0   3.5650225700  -3.1439890567   1.1710209391
H           1.0   4.7342361605  -1.9062479123   0.7034482660
H           1.0   3.3154675924  -2.1799909986  -0.2808387183
FRAGNAME=H2ORHF
ZO1              -4.1708502011  -0.7061980133  -3.4438342274
ZH2              -4.5146402027  -1.1481030719  -4.2037071168
ZH3              -4.8189686953  -0.7929658994  -2.7631785101
FRAGNAME=H2ORHF
ZO1               3.8829738657   1.3186422868   0.0121010016
ZH2               3.5474333937   0.6038700658   0.5292003322
ZH3               3.2649635013   2.0271760028   0.0952972567

If the QM+2EFP structure above is put into an optimization with
the PCM turned on,        (be sure to give it lots of steps)
a) the run using internal coords finds   E= -553.4419252541 in 145 steps
   this is not monotonically convergent, E= -553.4419266447 at step 125
   at which point the root mean square gradient was 0.0000127.
b) a run using Cartesian coords gets stuck at root mean square 0.0000194
   around step 131 (run canceled at step 190).  The energy for the
   last steps was fluctuating around        -553.4418697 with the tenths
   of microHartress was bouncing 6, 7, or 8.  It is not only stuck, on
   what might be a rotational gradient, it is not as low in E as run 'a'.
The PCM makes a reasonably large difference to the EFP that is
H-bonded to the aldehyde.

These are the step 145 coordinates of run 'a':
O           8.0  -5.6592173864  -1.2158335142  -0.9060887845
N           7.0   2.9749399710  -1.1379839236   1.5326799708
C           6.0  -1.2414386900  -1.2148771284   1.1260057126
C           6.0  -0.3973214203  -1.0366129508   0.0233639513
H           1.0  -0.8098684171  -0.8876323033  -0.9573056622
C           6.0   0.9681368627  -1.0209928120   0.1699708666
H           1.0   1.5816963008  -0.8490109725  -0.6937986073
C           6.0   1.5665540136  -1.1970837305   1.4276607340
C           6.0   0.7314863764  -1.3699723078   2.5262015715
H           1.0   1.1337263641  -1.5085843779   3.5096165607
C           6.0  -0.6467649124  -1.3699965662   2.3702769011
H           1.0  -1.2641048469  -1.5045698601   3.2409541153
C           6.0  -2.7034533406  -1.2334669840   1.0269782570
H           1.0  -3.2168150361  -1.2779856274   1.9741289521
C           6.0  -3.4523901487  -1.2073243913  -0.0772174235
H           1.0  -3.0402935172  -1.1742788787  -1.0691966211
C           6.0  -4.9068211459  -1.2284572728   0.0335189456
H           1.0  -5.3059288661  -1.2564944814   1.0479412034
C           6.0   3.5248787144  -1.1383986609   2.8805069424
H           1.0   3.3805385667  -2.0868601607   3.3958838365
H           1.0   3.0789329040  -0.3485530175   3.4698736867
H           1.0   4.5881409661  -0.9489667961   2.8169268849
C           6.0   3.6982268157  -2.0762462075   0.6725072654
H           1.0   3.5645436341  -3.1061413625   0.9996105376
H           1.0   4.7532551245  -1.8381675483   0.7053584561
H           1.0   3.3717204706  -1.9963436334  -0.3526797544
FRAGNAME=H2ORHF
ZO1              -5.1333916554  -1.2989442405  -3.7790486767
ZH2              -5.8288396420  -1.8013097097  -4.1725705787
ZH3              -5.3111998009  -1.2688468006  -2.8525731715
FRAGNAME=H2ORHF
ZO1               3.7239614089   1.5915398206   0.5276929447
ZH2               3.4627908735   0.7402373494   0.8406665985
ZH3               3.0290346451   2.1887640694   0.7541403862

! TRAVIS-CI SMALL

! TRAVIS-CI SKIP
