!   MCSCF + C-PCM...from Hui, April 2013
!
!   FINAL MCSCF ENERGY IS      -92.9169279448 AFTER  17 ITERATIONS (gas)
!   FINAL MCSCF ENERGY IS      -92.9782911981 AFTER  10 ITERATIONS (PCM)
! 
!   This run takes 8 seconds on 2.66 GHz Cloverton (13 April 2013)
! 
 $CONTRL SCFTYP=MCSCF RUNTYP=ENERGY ISPHER=1 $END
 $SYSTEM MWORDS=2 MEMDDI=20 $END
 $PCM    SOLVNT=WATER $END
 $PCMCAV RADII=SUAHF $END
 $BASIS  GBASIS=ACCD $END
 $GUESS  GUESS=MOREAD NORB=55 $END
 $MCSCF  CISTEP=ALDET MAXIT=250 SOSCF=.F. FULLNR=.T. $END
 $DET    NCORE=5 NACT=4 NELS=4 NSTATE=1 
         PURES=.T. IROOT=0  WSTATE(1)=1.0  0.0  $END
 $DATA
HCN 
C1
C 6.0    -3.5176993749266    -0.5623393354330    -4.7882291487030
N 7.0    -4.0497376869959     0.2584651089561    -5.4357051844266
H 1.0    -3.0884068211474    -1.3313049650028    -4.1743841273445
 $END

--- CLOSED SHELL ORBITALS --- GENERATED AT Fri Mar 22 21:02:07 2013
E(RHF)=      -92.8844158286, E(NUC)=   23.5542335190,    9 ITERS
 $VEC   
 1  1 3.72891244E-04 2.71318279E-04 4.78386150E-03 7.61027698E-05-1.17802971E-04
 1  2 9.29535354E-05-5.17524322E-03 8.53560580E-03-6.77068913E-03 2.96144176E-04
 1  3-3.47567334E-04 5.14231585E-05 7.73799392E-04-6.11965846E-04 9.72662735E-04
 1  4 2.33172641E-03-3.12555594E-04 5.72337413E-04-4.57613285E-04-3.60657475E-04
 1  5 4.96753885E-04-1.36096410E-04-1.32227376E-03 1.03834808E-03-1.48232959E-03
 1  6 1.00245910E+00 3.88555052E-03-1.80623351E-02 1.29101052E-03-1.95579019E-03
 1  7 1.54034288E-03-2.68074989E-03 4.13091614E-03-3.25826667E-03-1.76502881E-04
 1  8 2.17546912E-04-4.10440305E-05-5.14613733E-04 4.05896031E-04-6.22076392E-04
 1  9-4.74046318E-03-4.55046537E-04 6.62752538E-04-5.20126561E-04 1.85399112E-04
 1 10-2.35219917E-04 4.98208051E-05 5.75950953E-04-4.53776009E-04 6.80111793E-04
 1 11 9.43129851E-04 8.31947238E-03-1.30569293E-04 2.91030867E-04-2.35672754E-04
 1 12 4.16271392E-05-1.42566220E-03 2.26618698E-03-1.79218159E-03
 2  1 1.00325191E+00 6.53707331E-03-1.40040543E-02 2.13598265E-04-4.30836143E-04
 2  2 3.46752715E-04-2.41069999E-03 4.33679526E-03-3.46304317E-03-5.94413934E-04
 2  3 6.48890809E-04-5.44768758E-05-1.30305455E-03 1.03569912E-03-1.75340483E-03
 2  4-5.11760888E-03-7.61888730E-04 1.38552500E-03-1.10724756E-03 4.98392198E-04
 2  5-6.15415369E-04 1.17023171E-04 1.45922577E-03-1.15088768E-03 1.76092840E-03
 2  6-1.00385207E-03-1.99981203E-04-4.69270880E-04 1.33146093E-05-5.45898963E-05
 2  7 4.53798527E-05-1.14785718E-03 1.50141128E-03-1.16601875E-03-8.22408591E-05
 2  8 8.11271400E-05 1.11371914E-06-1.36709434E-04 1.09864284E-04-2.06710660E-04
 2  9-6.35756457E-04 5.24591153E-05-1.90419119E-04 1.57661175E-04 1.65736467E-04
 2 10-2.45047654E-04 7.93111873E-05 6.86306852E-04-5.36565472E-04 7.54870561E-04
 2 11-1.08928881E-03 1.46305447E-02 6.08636131E-04-1.11384499E-03 8.90538594E-04
 2 12 2.23599720E-03-1.34822022E-03 2.77599635E-03-2.23716945E-03
 3  1-2.05983482E-02 2.80351453E-01 2.54772139E-01-9.54347025E-02 1.47032519E-01
 3  2-1.15970217E-01 2.48047653E-02-4.60940862E-02 3.68931801E-02-5.21249272E-03
 3  3 6.50930791E-03-1.29681518E-03-1.56119494E-02 1.23028097E-02-1.87312711E-02
 3  4 8.43864397E-02 6.88988154E-04-3.46858645E-03 2.89987760E-03 2.41597593E-03
 3  5-3.41266397E-03 9.96688044E-04 9.31758004E-03-7.31374304E-03 1.02598874E-02
 3  6-1.49412071E-02 3.65552121E-01 3.28816325E-01 8.26374816E-02-1.28891956E-01
 3  7 1.01769452E-01 1.25023758E-02-1.89566668E-02 1.49310477E-02-4.94157566E-03
 3  8 6.02306417E-03-1.08148851E-03-1.40462365E-02 1.10831944E-02-1.71506427E-02
 3  9-6.94835188E-02-1.24639102E-02 2.04140974E-02-1.61839587E-02 3.34079232E-03
 3 10-3.89338274E-03 5.52590420E-04 8.57393742E-03-6.78171252E-03 1.08703069E-02
 3 11 3.99267580E-02-1.31038734E-01-4.28690914E-03 6.95751204E-03-5.51170789E-03
 3 12-1.67467308E-02 2.18031666E-02-3.60902313E-02 2.86360878E-02
 4  1-1.22205387E-02 2.59474913E-01 1.12083784E-01 1.37039191E-01-2.32127191E-01
 4  2 1.84518794E-01 2.02124187E-02-3.17920920E-02 2.51200632E-02-2.14321872E-03
 4  3 2.12487719E-03 1.83415246E-05-3.58220145E-03 2.87244492E-03-5.45560907E-03
 4  4-7.27149546E-02-6.77361209E-04 1.63680102E-03-1.33144237E-03 5.05070448E-03
 4  5-3.91196420E-03-1.13874028E-03 2.81709003E-03-2.43654666E-03 8.38811412E-03
 4  6-2.52248660E-03-1.63310238E-01-1.41763569E-01 5.78580883E-03-1.45664042E-02
 4  7 1.18743605E-02 2.35294781E-02-3.40356654E-02 2.66942459E-02-1.71417120E-04
 4  8-2.30142713E-05 1.94431391E-04 6.79163046E-04-5.10072350E-04 3.68557168E-04
 4  9 3.85685382E-02 5.33142575E-03-6.68821396E-03 5.17125860E-03-2.91949900E-03
 4 10 3.89629859E-03-9.76799591E-04-9.94234345E-03 7.79956026E-03-1.15752965E-02
 4 11 4.01895291E-01 1.85547242E-01-1.55950422E-02 2.83226043E-02-2.26319454E-02
 4 12 2.24009541E-02-1.87754426E-02 2.93156970E-02-2.31489426E-02
 5  1-3.12501389E-03-1.36503336E-01-1.87215721E-01 1.16904602E-01-1.94130933E-01
 5  2 1.54074210E-01 2.70863768E-02-4.50679193E-02 3.57742590E-02-1.57899832E-04
 5  3-2.82889347E-05 1.86188767E-04 6.86464579E-04-5.20661204E-04 3.51034091E-04
 5  4-1.33396292E-01 5.98786052E-03-8.44405234E-03 6.60690159E-03 1.86867613E-03
 5  5-1.96834220E-03 9.96660665E-05 3.72540748E-03-2.96959201E-03 5.22265315E-03
 5  6-6.58736201E-04 2.30280621E-01 4.52349928E-01-2.29690030E-01 3.50318039E-01
 5  7-2.76066937E-01-1.00886180E-01 1.53369574E-01-1.20827961E-01 4.77599170E-03
 5  8-6.11796281E-03 1.34197112E-03 1.50775729E-02-1.18653383E-02 1.78015117E-02
 5  9 2.04455902E-01 6.66651815E-03-1.04076984E-02 8.21828118E-03-2.38384907E-03
 5 10 2.79647787E-03-4.12628795E-04-6.21815986E-03 4.91727362E-03-7.82701521E-03
 5 11 1.22362752E-01 1.06192097E-01-1.61013196E-03 2.99875154E-03-2.40054413E-03
 5 12 2.06490667E-02-7.64432266E-03 1.43083569E-02-1.14580717E-02
 6  1 0.00000000E+00 1.80700232E-11 7.11840709E-11 3.16285531E-02 2.58086912E-01
 6  2 3.01186873E-01 1.65779080E-02 1.35274639E-01 1.57865213E-01-2.47551659E-03
 6  3 3.10316901E-02-2.85561736E-02-9.46688088E-03-1.53414604E-02 6.78048357E-03
 6  4 0.00000000E+00 1.00486534E-03 8.19963505E-03 9.56895652E-03 1.61692578E-03
 6  5-2.27507629E-02 2.11338371E-02 6.00785021E-03 1.01710110E-02-4.87313354E-03
 6  6 0.00000000E+00 0.00000000E+00-1.94055022E-11 3.41436189E-02 2.78609684E-01
 6  7 3.25136903E-01 2.40233456E-02 1.96028920E-01 2.28765329E-01 2.24348644E-03
 6  8-2.82378497E-02 2.59943633E-02 8.57143048E-03 1.39104633E-02-6.16549493E-03
 6  9 0.00000000E+00 2.72993945E-03 2.22761263E-02 2.59961916E-02 1.77350588E-03
 6 10-2.16695898E-02 1.98960840E-02 6.82201866E-03 1.09568271E-02-4.75703044E-03
 6 11 0.00000000E+00 0.00000000E+00 1.36789996E-03 1.11619737E-02 1.30259993E-02
 6 12 0.00000000E+00-1.54738157E-03-1.26265318E-02-1.47351355E-02
 7  1-5.63634038E-04 6.21316133E-03 2.42070844E-02 3.58930136E-01 1.10205608E-01
 7  2-1.32127491E-01 1.86759291E-01 5.98453020E-02-7.08935789E-02-2.78582720E-02
 7  3 1.46368816E-02 1.32213904E-02 1.86148648E-02-1.26302539E-02-1.69045191E-02
 7  4 2.20699988E-03 1.11871976E-02 3.86801713E-03-4.48930412E-03 1.80310755E-02
 7  5-8.94735338E-03-9.08372215E-03-1.60541193E-02 1.14701090E-02 9.72104329E-03
 7  6-1.34281287E-04-8.95222857E-04-6.86083239E-03 3.77026401E-01 1.34722976E-01
 7  7-1.55036758E-01 2.65280069E-01 9.44922064E-02-1.08828204E-01 2.51653751E-02
 7  8-1.31939607E-02-1.19714144E-02-1.70179873E-02 1.15747539E-02 1.51975367E-02
 7  9 2.75880019E-04 3.05865029E-02 1.00312209E-02-1.18077312E-02 1.94490252E-02
 7 10-1.00506056E-02-9.39841958E-03-1.35415430E-02 9.18711187E-03 1.08912656E-02
 7 11-2.43072324E-03-3.02995360E-03 1.61158280E-02 3.62786775E-03-4.80109073E-03
 7 12 1.87339609E-04-1.68693723E-02-6.38852773E-03 7.24583117E-03
 8  1-1.54034089E-02 2.59512252E-02 7.23286591E-01 2.46414338E-02-4.03247090E-02
 8  2 3.19665549E-02 1.19856526E-01-2.26554046E-01 1.81547572E-01-6.93086237E-04
 8  3 7.28148672E-04-3.50624351E-05-1.38743172E-03 1.10828169E-03-1.91831608E-03
 8  4 3.64655129E+00 2.60180196E-01-5.20090182E-01 4.18342754E-01-3.04863613E-02
 8  5 3.26631926E-02-2.17683128E-03-6.34721290E-02 5.05009997E-02-8.75465116E-02
 8  6 2.13846927E-03 1.03856068E-02-5.50894792E-02-1.07249269E-02 1.70957381E-02
 8  7-1.35230739E-02-1.63942768E-02 2.24849956E-02-1.75457708E-02-5.77792568E-04
 8  8 5.63122018E-04 1.46705501E-05-9.24224413E-04 7.43770367E-04-1.42512219E-03
 8  9-7.58255997E-01-1.94079126E-01 3.37897592E-01-2.69163472E-01 3.33772657E-03
 8 10-3.43325531E-03 9.55287401E-05 6.20644213E-03-4.95539902E-03 9.00910503E-03
 8 11 1.37601338E-02-1.10130243E+00-2.60270068E-03 4.72642150E-03-3.77675116E-03
 8 12-3.21457510E+00 1.01398800E-01-1.82139894E-01 1.45427405E-01
 9  1-1.75883802E-03-3.38297568E-02-5.70305595E-01-2.94019752E-02 3.98115877E-03
 9  2-3.23862288E-04 4.82086681E-01-7.97723312E-01 6.32943396E-01-5.98023044E-03
 9  3 1.71347170E-03 4.26675874E-03 1.11932138E-02-8.23311508E-03 2.29594651E-03
 9  4-4.20527290E+00 5.69816689E-01-1.83240760E+00 1.51035116E+00 8.33363428E-03
 9  5-2.49372495E-02 1.66036152E-02 1.00331487E-01-7.78507302E-02 8.86696123E-02
 9  6-1.53345527E-02 4.53215839E-02 8.45103407E-01 5.71393429E-02 2.90009384E-02
 9  7-3.08512692E-02 2.28387761E-01-2.96685642E-01 2.30246113E-01-2.57734317E-03
 9  8 2.75302254E-03-1.75679362E-04-5.29480894E-03 4.21001846E-03-7.38729700E-03
 9  9 5.26650944E+00 6.62749500E-01-5.00900552E-01 3.59624137E-01-1.08133826E-02
 9 10 1.28433485E-02-2.02996591E-03-2.95492272E-02 2.34250900E-02-3.57726166E-02
 9 11 6.83444994E-02-9.04359349E-01-5.07901646E-03 6.94951742E-04-6.21408647E-05
 9 12-4.40470009E-01 1.62894250E-01-2.54148288E-01 2.00673545E-01
10  1 0.00000000E+00 0.00000000E+00 8.15564064E-11 5.09743337E-03 4.15947224E-02
10  2 4.85409519E-02-3.61140750E-04-2.94688433E-03-3.43900788E-03 2.07184409E-03
10  3-2.57917905E-02 2.37199464E-02 7.93586886E-03 1.28288965E-02-5.64264723E-03
10  4 5.46854447E-10 1.27230973E-01 1.03819641E+00 1.21157299E+00 3.66917139E-03
10  5-5.32810854E-02 4.96119140E-02 1.35161168E-02 2.31806396E-02-1.13544494E-02
10  6 0.00000000E+00 0.00000000E+00-9.36908617E-11-1.51127560E-02-1.23319099E-01
10  7-1.43913125E-01-6.52370452E-03-5.32330013E-02-6.21227986E-02 1.12501574E-04
10  8-1.70997535E-03 1.59747377E-03 4.09022635E-04 7.15375093E-04-3.61804010E-04
10  9-6.71620913E-10-6.84420113E-02-5.58482329E-01-6.51747682E-01 6.28924197E-04
10 10-5.57092730E-03 4.94200311E-03 2.56878324E-03 3.75738675E-03-1.30854114E-03
10 11 0.00000000E+00 9.21758368E-11 1.29155691E-03 1.05390198E-02 1.22990135E-02
10 12 3.79734232E-11-3.16506317E-03-2.58267080E-02-3.01397130E-02
11  1-8.33208523E-04-8.43808960E-03-2.31926870E-01 5.36787196E-02 1.67756891E-02
11  2-2.00120473E-02 1.60585212E-01-2.70432482E-01 2.14869943E-01 2.27199677E-02
11  3-1.25181713E-02-1.02017965E-02-1.21517198E-02 7.95937914E-03 1.61231192E-02
11  4-1.58626407E+00 1.73734611E+00-1.87122575E-01-2.20987521E-02 4.74629094E-02
11  5-3.10754646E-02-1.63874448E-02-4.21369312E-03 9.80445031E-04 5.66904573E-02
11  6-4.46298689E-03 1.66649017E-02 2.77105689E-01-1.61595854E-01-4.67889853E-02
11  7 5.70631362E-02 2.85524677E-03-1.31958922E-01 1.12775709E-01 6.09194385E-04
11  8 1.37085647E-04-7.46280032E-04-2.87137303E-03 2.19325486E-03-1.41186111E-03
11  9 1.98141183E+00-5.70103793E-01-4.60450624E-01 4.54428294E-01 1.89287352E-03
11 10 2.08494227E-03-3.97781578E-03-1.57010047E-02 1.17571198E-02-1.23891725E-02
11 11 1.40297365E-02-2.89412375E-01 1.32486663E-02 5.93163306E-03-6.47409685E-03
11 12-1.41973150E-01 9.92019393E-03-8.53347798E-02 7.20815890E-02
12  1-4.40935228E-02-1.32190247E-01 1.16746213E+00 1.84749815E-01 1.15029120E-01
12  2-1.17969549E-01 6.54095600E-01-2.73649345E-01 1.65801441E-01 1.35666391E-02
12  3-8.62439991E-03-4.94223920E-03-2.47288770E-03 1.24820134E-03 1.51110903E-02
12  4 6.26852934E+00 5.27028367E-01-1.13460001E+00 9.16893443E-01-2.59033568E-01
12  5 1.76603084E-01 8.24304842E-02-2.00531220E-02 2.89485204E-02-3.32938566E-01
12  6 2.24914966E-03-5.84018436E-03-1.84188294E-01-1.12636734E-01-3.54831100E-02
12  7 4.22337898E-02-3.18592161E-01-8.34417712E-02 1.04957555E-01 1.52800273E-02
12  8-8.02058756E-03-7.25943978E-03-9.89908319E-03 6.63171186E-03 8.99213925E-03
12  9-1.56264541E+00-9.61491346E-01 3.41973978E-01-1.92068227E-01-7.38373741E-02
12 10 3.59758555E-02 3.78615186E-02 6.05443317E-02-4.15829300E-02-3.09872177E-02
12 11-8.48817882E-02-2.65806375E+00 1.93441105E-02-1.02391918E-02 6.74257538E-03
12 12-3.23239371E+00 5.63539836E-01-3.19977300E-01 2.15009384E-01
13  1 0.00000000E+00 0.00000000E+00 2.86931094E-11-2.56640520E-02-2.09416983E-01
13  2-2.44389171E-01-5.29736791E-02-4.32261750E-01-5.04448537E-01-1.28633358E-03
13  3 1.85510965E-02-1.72647630E-02-4.74752861E-03-8.11887215E-03 3.95769074E-03
13  4 1.60578287E-10 6.57531825E-03 5.36541658E-02 6.26142967E-02 2.18026779E-02
13  5-3.01708043E-01 2.79905365E-01 8.13683410E-02 1.36839210E-01-6.48028590E-02
13  6 0.00000000E+00 0.00000000E+00 0.00000000E+00 1.35639238E-02 1.10680729E-01
13  7 1.29164174E-01 3.67703986E-02 3.00044043E-01 3.50150756E-01-1.90645676E-03
13  8 2.30261711E-02-2.11197144E-02-7.35238528E-03-1.17619647E-02 5.06568141E-03
13  9-3.28208951E-11 7.93079548E-02 6.47147714E-01 7.55219997E-01 9.82047412E-03
13 10-1.15652847E-01 1.05832373E-01 3.80826983E-02 6.04084375E-02-2.55644387E-02
13 11 0.00000000E+00-7.21501947E-11-1.40977655E-03-1.15036843E-02-1.34247749E-02
13 12-8.54677183E-11-4.07193811E-02-3.32267481E-01-3.87755439E-01
14  1-4.54638539E-02-1.62228986E-01 1.37704405E+00-2.37204832E-01 8.49623157E-03
14  2 1.76291853E-02-2.67708816E-01-4.14959527E-01 3.83691572E-01-9.77975616E-03
14  3 4.82812201E-03 4.95163415E-03 8.98082071E-03-6.45524254E-03-5.27531108E-03
14  4 7.37503584E+00 6.31932703E-01-1.08770945E+00 8.65696610E-01 7.91976545E-02
14  5 9.36853094E-03-8.85661855E-02-3.20630257E-01 2.43079867E-01-1.55645739E-01
14  6 8.91681907E-03 1.21525357E-02-3.70668817E-01 1.12460264E-01 2.03639813E-02
14  7-2.92596828E-02 2.26490670E-01 1.59449913E-01-1.60417042E-01-1.41543757E-02
14  8 7.35715466E-03 6.79722106E-03 9.54511098E-03-6.43266558E-03-8.03559126E-03
14  9-2.37786773E+00 1.35964292E-01 9.67098443E-01-8.42984295E-01 7.81220813E-02
14 10-4.48698609E-02-3.32522204E-02-3.02256013E-02 1.81146627E-02 6.13396521E-02
14 11-4.96919472E-02-2.62280858E+00-1.45945958E-03-1.99770100E-02 1.72715542E-02
14 12-3.58520824E+00-5.83010665E-02-5.61201343E-01 4.87015580E-01
15  1 3.31486605E-02 1.82381994E-02 8.21706055E-01-3.89843280E-02 9.65021023E-02
15  2-7.85987499E-02-2.83458588E-01 5.22158475E-01-4.17670538E-01-1.09644423E-02
15  3 1.33164408E-02-2.35199853E-03-3.10131277E-02 2.44885400E-02-3.77947309E-02
15  4 3.64887075E+00 2.19683852E-01-3.10937909E-01 2.43372899E-01 1.13732018E-02
15  5-3.50308308E-02 2.36576289E-02 1.41622560E-01-1.09794596E-01 1.25385695E-01
15  6 1.55149636E-02 4.05693376E-02-1.90021295E-01 4.94344698E-02-8.55875301E-02
15  7 6.81486560E-02-1.30914612E-01 1.43394082E-01-1.09126589E-01-2.51299410E-03
15  8 4.43896215E-03-1.92596806E-03-1.40420341E-02 1.09237705E-02-1.44521888E-02
15  9-3.28523028E+00-1.26545393E+00 1.75822477E+00-1.37373293E+00 2.50021321E-02
15 10-3.90207125E-02 1.40185804E-02 1.13763693E-01-8.87735772E-02 1.22478518E-01
15 11 1.19162903E-01 1.01911812E+00 1.25722602E-02-1.79852308E-02 1.40912858E-02
15 12-1.19876370E+00 1.30416531E-01-7.28384780E-02 4.87198251E-02
16  1 1.08105571E-03 1.59001063E-02 4.38139675E-02 1.76956417E-01 4.70865700E-02
16  2-5.89311960E-02 3.82834752E-02-1.14406373E-01 9.40145113E-02 2.74258253E-02
16  3-1.50604018E-02-1.23654235E-02-1.55567145E-02 1.03930841E-02 1.97027158E-02
16  4 1.61015503E-02-1.27395427E+00-6.60576219E-01 6.99829321E-01 4.13134904E-01
16  5-2.22514962E-01-1.90619942E-01-2.56813698E-01 1.73889734E-01 2.79145093E-01
16  6-2.65781873E-03-1.56067452E-02 8.31572931E-02-2.98956063E-01-9.45188513E-02
16  7 1.12387454E-01-1.24250693E-01-7.70181480E-02 7.90447645E-02-1.72897015E-02
16  8 9.24728914E-03 8.04241231E-03 1.05302411E-02-7.02121111E-03-1.10257691E-02
16  9 3.20915353E-01 1.82972695E+00 7.16438660E-01-8.06061208E-01 1.74623576E-01
16 10-9.16434763E-02-8.29801000E-02-1.15593969E-01 7.80693571E-02 1.04379651E-01
16 11-2.03153594E-02-1.73797049E-01-7.67566386E-04-5.31801466E-04 5.36304951E-04
16 12-1.91205547E-01-6.07234428E-02-5.24864034E-02 5.13523321E-02
17  1 0.00000000E+00 0.00000000E+00 0.00000000E+00 1.55559678E-02 1.26935678E-01
17  2 1.48133665E-01-1.68527629E-03-1.37517440E-02-1.60482559E-02 2.33693299E-03
17  3-3.02685521E-02 2.79316191E-02 8.86798982E-03 1.45416771E-02-6.57529337E-03
17  4 0.00000000E+00-1.24590750E-01-1.01665236E+00-1.18643113E+00 3.58472862E-02
17  5-4.64963409E-01 4.29116123E-01 1.35983447E-01 2.23101477E-01-1.00979641E-01
17  6 0.00000000E+00 0.00000000E+00 0.00000000E+00-2.66991824E-02-2.17863579E-01
17  7-2.54246330E-01-1.30755739E-02-1.06695826E-01-1.24513801E-01-1.51731933E-03
17  8 1.86573177E-02-1.71399984E-02-5.82821931E-03-9.38124218E-03 4.09098394E-03
17  9-3.52889517E-11 1.68216781E-01 1.37263791E+00 1.60186550E+00 1.56559971E-02
17 10-1.93241132E-01 1.77585135E-01 6.00849634E-02 9.68418260E-02-4.23424969E-02
17 11 0.00000000E+00 1.73187196E-11-9.07147672E-05-7.40226557E-04-8.63842807E-04
17 12 1.69477743E-11-6.95848238E-03-5.67807603E-02-6.62630256E-02
18  1-1.16376765E-03 1.24716334E-01-5.50085782E-01 2.34658077E-02-1.01370957E-01
18  2 8.44005163E-02 7.38350291E-01-1.26542900E+00 1.00680919E+00 1.51993925E-02
18  3-1.96773948E-02 4.47800223E-03 4.90828168E-02-3.86131829E-02 5.74729527E-02
18  4-1.63820626E+00 1.50306013E+00-2.30407873E+00 1.81652322E+00 4.94060566E-02
18  5-9.11914150E-02 4.17853584E-02 2.97983359E-01-2.31930821E-01 2.98856008E-01
18  6-3.16760139E-02-1.88783989E-01 9.24334929E-01 5.66554810E-03 5.75354267E-02
18  7-4.98970407E-02 3.37982734E-01-4.74965403E-01 3.71505067E-01-4.25213650E-03
18  8 5.20652925E-03-9.54392747E-04-1.21911486E-02 9.61465264E-03-1.48673220E-02
18  9 5.50431158E+00-3.42171031E-01 4.13808643E-01-3.18660038E-01-1.14347459E-02
18 10 5.60341370E-03 5.83133219E-03 9.41902450E-03-6.50609631E-03-5.07693567E-03
18 11-1.79718949E-01-2.07608198E+00-5.23060113E-03 1.11480402E-02-9.00346985E-03
18 12-1.50973035E+00-3.91350235E-02 5.55269957E-02-4.34713723E-02
19  1 1.67383837E-02-8.15954577E-02-1.64676712E+00-1.37463907E-02 4.52584665E-02
19  2-3.73384115E-02 1.41411061E+00-2.31889688E+00 1.83856175E+00 2.05691579E-02
19  3-2.30327655E-02 2.46360758E-03 4.80129754E-02-3.80824280E-02 6.30688276E-02
19  4-9.63847272E+00 2.86500578E-01-2.88706612E-01 2.17306282E-01 1.50964955E-01
19  5-1.88567052E-01 3.76020965E-02 4.54921241E-01-3.58854956E-01 5.40869161E-01
19  6-6.00545293E-02-1.85073536E-01 2.09550543E+00 4.15093582E-02-7.65803168E-02
19  7 6.12626187E-02 6.47685098E-01-9.86131400E-01 7.77000217E-01-2.26043026E-03
19  8 3.45235913E-03-1.19192887E-03-9.90874995E-03 7.73767583E-03-1.07575180E-02
19  9 1.02790962E+01 1.26181942E+00-2.04714109E+00 1.62168688E+00-1.57537145E-02
19 10 2.47100845E-02-8.95636993E-03-7.29185028E-02 5.69853286E-02-7.72474740E-02
19 11 1.07361985E-01-1.53028858E+00-1.87195899E-02 3.69558974E-02-2.97016925E-02
19 12 1.37156399E+00 8.04753009E-01-1.31713077E+00 1.04413926E+00
20  1-3.70406365E-04-4.86644402E-03-1.05480216E-02-2.24954029E-01-7.59248030E-02
20  2 8.86830415E-02-8.30533184E-01-4.88276733E-01 5.05620958E-01 1.17638063E-02
20  3-5.56388937E-03-6.19991688E-03-7.40723642E-03 4.40198716E-03 2.04967811E-03
20  4 1.56796430E-01-7.28330207E-01-3.11876847E-01 3.43731320E-01-7.80214087E-01
20  5 3.87648591E-01 3.92565497E-01 4.80678173E-01-2.97475157E-01-2.72392143E-01
20  6-5.27289400E-03-5.53619145E-03 1.90927081E-01 1.21884876E-01 3.09202990E-02
20  7-3.92950941E-02-1.81925388E-01-1.20961280E-01 1.22756212E-01-1.05694821E-02
20  8 5.35999458E-03 5.20948748E-03 3.92494372E-03-1.71096356E-03-2.69097281E-03
20  9 1.70769207E-01 4.41173341E-01 1.02333989E-01-1.34018911E-01-1.34848921E-01
20 10 6.93587086E-02 6.54902129E-02 9.00579202E-02-5.98609159E-02-7.02671776E-02
20 11 7.20922110E-03-4.55283617E-01-2.05880880E-02-6.52986265E-03 7.75745455E-03
20 12-1.01983828E-01 2.16756282E+00 5.75376927E-01-7.20662636E-01
21  1 0.00000000E+00 0.00000000E+00 0.00000000E+00-2.01791399E-02-1.64660462E-01
21  2-1.92158407E-01-8.37500393E-02-6.83394843E-01-7.97520320E-01 1.33245103E-03
21  3-1.00160413E-02 8.68359031E-03 5.56868617E-03 7.85215036E-03-2.45243022E-03
21  4-3.34495571E-10-6.78609863E-02-5.53741210E-01-6.46214808E-01-8.06832868E-02
21  5 7.24643466E-01-6.43960179E-01-3.28838671E-01-4.82630763E-01 1.69653311E-01
21  6 0.00000000E+00 0.00000000E+00-3.03727683E-10 1.04777560E-02 8.54978039E-02
21  7 9.97757542E-02-1.92243133E-02-1.56869139E-01-1.83065950E-01-1.18663671E-03
21  8 7.19049393E-03-6.00385722E-03-5.08165399E-03-6.88800878E-03 1.87441856E-03
21  9-2.29301297E-10 3.71080895E-02 3.02799584E-01 3.53366467E-01-1.26730283E-02
21 10 1.44978544E-01-1.32305515E-01-4.94465643E-02-7.76965183E-02 3.22260218E-02
21 11-1.00353932E-11 7.66130580E-10-1.83624716E-03-1.49836568E-02-1.74858954E-02
21 12 1.92819578E-10 1.87493325E-01 1.52993328E+00 1.78542886E+00
22  1 5.75424030E-04 1.69878629E-03-2.33760844E-03 5.49410047E-02 1.87046536E-02
22  2-2.17975352E-02 1.99604668E-01 1.14061774E-01-1.18700594E-01 1.76000977E-02
22  3-7.39028537E-03-1.02098123E-02 7.44465395E-03-1.14356044E-02-1.73136745E-02
22  4-6.28489749E-02 1.73656109E-01 8.31290883E-02-8.94694489E-02-5.53778698E-01
22  5 2.22921760E-01 3.30856938E-01-3.09484870E-01 4.37809079E-01 6.72483258E-01
22  6 9.63009262E-04 7.64115630E-04-3.45795079E-02-2.83071100E-02-6.82855508E-03
22  7 8.82400333E-03 1.55485381E-02 1.92302545E-02-1.81111979E-02-1.51721191E-02
22  8 6.17044829E-03 9.00167078E-03-6.90424199E-03 1.04765121E-02 1.68188640E-02
22  9-3.64697708E-02-1.10404842E-01-3.08868928E-02 3.80609202E-02 3.69121436E-02
22 10-1.82377821E-02-1.86743615E-02-1.53083402E-02 7.06883899E-03 6.81797059E-03
22 11-2.34241160E-03 1.19411597E-01 5.16844871E-03 1.61194708E-03-1.92403161E-03
22 12 3.64432933E-02-4.89449996E-01-1.32658928E-01 1.65074042E-01
23  1 1.79940484E-11 4.74561965E-11-1.62022283E-10 4.98915221E-03 4.07111417E-02
23  2 4.75098138E-02 2.02258486E-02 1.65041551E-01 1.92603129E-01 3.29415074E-03
23  3 1.13174712E-02-1.46116219E-02 1.63199637E-02 1.72249849E-02 3.96507556E-04
23  4-2.20809707E-09 1.67231155E-02 1.36459485E-01 1.59247921E-01-1.11363926E-01
23  5-4.86968840E-01 5.98332766E-01-5.59106146E-01-5.75990085E-01-3.20893966E-02
23  6 2.80367051E-11 2.29488474E-11-1.00182416E-09-2.44644650E-03-1.99628361E-02
23  7-2.32965865E-02 2.10495366E-03 1.71762800E-02 2.00446808E-02-2.94686415E-03
23  8-1.11653079E-02 1.41121720E-02-1.46730820E-02-1.53459229E-02-5.41078449E-04
23  9-9.15765522E-10-9.61019667E-03-7.84185485E-02-9.15142757E-02 4.27722390E-03
23 10-2.56106302E-02 2.13334063E-02 1.83385346E-02 2.48091332E-02-6.70128247E-03
23 11-6.51871940E-11 3.70418894E-09 4.64900495E-04 3.79355636E-03 4.42707201E-03
23 12 1.21080029E-09-4.29975175E-02-3.50856804E-01-4.09449129E-01
24  1 1.56357098E-01 1.54446081E-01-6.22108346E+00-4.34377962E-02 5.50739099E-02
24  2-4.26312760E-02-1.80072439E+00 2.96834331E+00-2.35447264E+00 1.48937875E-02
24  3-1.53503260E-02 4.56538415E-04 2.77961586E-02-2.21817079E-02 4.03627121E-02
24  4-6.17047024E+00-1.07516662E+00 1.90655950E+00-1.52082355E+00 3.54874865E-01
24  5-3.76938920E-01 2.20640550E-02 7.29170855E-01-5.81551844E-01 1.00064582E+00
24  6 6.17658800E-03-1.68081578E-02 1.60716026E-01-4.59034155E-02 9.77644033E-02
24  7-7.89538206E-02-1.35496065E-01 3.32116355E-01-2.70361517E-01 3.29724944E-03
24  8-3.94308642E-03 6.45836979E-04 9.06362302E-03-7.17038221E-03 1.10774618E-02
24  9-1.28659672E+00 7.20060615E-02-1.82857878E-01 1.49129267E-01 1.15290591E-02
24 10-1.04908691E-02-1.03818991E-03 1.50716042E-02-1.23185832E-02 2.50706881E-02
24 11-1.58661004E-01 1.14831476E+01-1.20561563E-02 1.59628657E-02-1.24125195E-02
24 12 3.18994796E+00-1.06813733E+00 2.13946621E+00-1.72113939E+00
25  1-3.26896803E-02 1.21844370E-01 9.24841988E+00 3.12313249E-02-9.03052952E-02
25  2 7.41028748E-02 8.24105589E-01-1.73308095E+00 1.39853454E+00 4.06941273E-04
25  3 3.35163116E-05-4.40457585E-04-1.67579414E-03 1.28744030E-03-6.66663865E-04
25  4 5.00924774E+00-2.36760127E-01 3.06022559E-01-2.37367706E-01 1.05979478E-01
25  5-1.78971419E-01 7.29919412E-02 5.61990732E-01-4.39362278E-01 5.67341109E-01
25  6-3.96907359E-03-6.02397817E-02 5.70400740E-01-9.27080928E-02 1.51259021E-01
25  7-1.19878235E-01-4.64386415E-01 7.06842105E-01-5.56926084E-01 8.65437666E-04
25  8-1.40133013E-03 5.35892467E-04 4.33120232E-03-3.39726511E-03 4.35141417E-03
25  9-4.53420803E+00-4.89907733E-01 7.18112496E-01-5.63903607E-01 7.37305415E-02
25 10-9.50368120E-02 2.13062705E-02 2.35333035E-01-1.85079819E-01 2.77542868E-01
25 11-2.56296723E-01-7.63945493E+00-9.05444165E-03 1.23876654E-02-9.66415102E-03
25 12-1.04540592E+00 2.04407340E+00-3.24305977E+00 2.56432225E+00
26  1-6.54359991E-03 1.22000990E-02 5.80864026E-01 2.89192336E-01 8.44063904E-02
26  2-1.02696771E-01-1.84731447E+00-5.25201822E-01 6.44037357E-01 2.13871724E-02
26  3-1.11938112E-02-1.01933613E-02-1.48674123E-02 1.01976206E-02 1.30542647E-02
26  4 2.15997470E-01-7.02991420E-02-8.10096739E-03 1.43240430E-02 1.94119111E+00
26  5-9.80764170E-01-9.60426937E-01-1.54555710E+00 1.07910250E+00 1.05196105E+00
26  6 1.00471230E-02 9.43782885E-03-4.29380662E-01 1.82883548E-01 6.04404294E-02
26  7-7.09965390E-02 1.98801568E+00 7.42918457E-01-8.45374118E-01-1.67928603E-02
26  8 8.51365483E-03 8.27920551E-03 1.25459263E-02-8.59167469E-03-8.74064904E-03
26  9-6.50864742E-02 9.17734590E-01 2.58665501E-01-3.18024472E-01 6.55773895E-01
26 10-3.39610556E-01-3.16163339E-01-4.82117149E-01 3.34138970E-01 3.90995185E-01
26 11-2.25950508E-02-3.51628754E-01 4.50791210E-03 5.60234795E-03-5.27403932E-03
26 12-7.23195638E-02-1.15367114E+00-5.11930419E-01 5.59823497E-01
27  1 0.00000000E+00 0.00000000E+00-2.44439822E-11-2.54447526E-02-2.07627514E-01
27  2-2.42300864E-01 1.60605067E-01 1.31052682E+00 1.52938199E+00-1.87548001E-03
27  3 2.41479975E-02-2.22725175E-02-7.12707542E-03-1.16615515E-02 5.25120277E-03
27  4 0.00000000E+00 5.59487229E-03 4.56537912E-02 5.32778766E-02-1.75840631E-01
27  5 2.29724306E+00-2.12140243E+00-6.65870121E-01-1.09537174E+00 4.98281478E-01
27  6 0.00000000E+00 0.00000000E+00 1.77980133E-11-1.63377062E-02-1.33314612E-01
27  7-1.55577866E-01-1.81920190E-01-1.48445683E+00-1.73235794E+00 1.55199417E-03
27  8-1.90146052E-02 1.74626110E-02 5.96629773E-03 9.59144045E-03-4.17210575E-03
27  9 0.00000000E+00-8.01464956E-02-6.53990152E-01-7.63205107E-01-5.82650634E-02
27 10 7.65385198E-01-7.07120135E-01-2.20340615E-01-3.63207159E-01 1.65856524E-01
27 11 0.00000000E+00 1.67937637E-11-5.85305713E-04-4.77605626E-03-5.57364742E-03
27 12 0.00000000E+00 1.08476153E-01 8.85158301E-01 1.03297784E+00
28  1-2.81618577E-02 1.41164260E-01-2.19806977E+00-1.63280194E-01 1.49183405E-01
28  2-1.10688650E-01 2.00390925E+00-2.92869568E+00 2.29916154E+00 2.81665053E-02
28  3-3.36439104E-02 5.47740514E-03 7.60948476E-02-6.00463494E-02 9.52676430E-02
28  4-4.39328130E+00-3.25405276E-02 1.21158337E-01-1.00403350E-01 2.23006804E-01
28  5-2.18116164E-01-4.89063995E-03 3.63423432E-01-2.92675568E-01 5.51242474E-01
28  6-1.03812609E-01-1.66398714E-01 3.62457454E+00-1.17123747E-02 3.62868845E-02
28  7-2.98642646E-02 6.31465988E-01-8.91228271E-01 6.97380981E-01-9.19025180E-03
28  8 1.06514881E-02-1.46123635E-03-2.30361279E-02 1.81923888E-02-2.98391026E-02
28  9 5.21107455E+00 8.66107805E-01-1.43830312E+00 1.14152875E+00-2.48813223E-01
28 10 2.70390630E-01-2.15774071E-02-5.51115648E-01 4.39825584E-01-7.20445838E-01
28 11-2.26093291E-01-2.49573851E+00-3.18531512E-02 5.12083396E-02-4.05354092E-02
28 12 7.88906110E-01 4.65358459E-01-1.05626705E+00 8.56246102E-01
29  1 1.44998090E-03-2.57502914E-02 2.53805292E-01-3.52029115E-01-1.42526241E-01
29  2 1.59098330E-01 1.67023752E+00 1.52628304E-01-3.06183866E-01-3.96809325E-02
29  3 2.03252109E-02 1.93557215E-02 9.15241457E-03-1.39210193E-03-7.69848623E-03
29  4-1.06006715E-01 1.79636968E-01-9.94908071E-03-1.03388622E-02 1.25725049E+00
29  5-6.33593322E-01-6.23657170E-01-5.28590986E-01 2.57694855E-01 3.33163522E-01
29  6-3.44729643E-03 1.17332407E-02 3.36794792E-01 6.07792562E-02 9.37685656E-03
29  7-1.44176396E-02 4.36460659E-01 5.16511926E-02-9.00939504E-02 6.38403672E-03
29  8-1.38833036E-03-4.99570635E-03 1.31908977E-02-1.49828073E-02-2.37194941E-02
29  9 1.62741947E-01-3.00051491E-01-4.19984759E-02 6.74977987E-02-8.85210562E-01
29 10 3.89562964E-01 4.95647599E-01 1.17191054E-01 1.02659295E-01 3.83474541E-01
29 11 2.58411754E-02-4.34434313E-01 2.64030850E-03-1.58464417E-03 1.08061411E-03
29 12-1.63209926E-02-1.39750262E+00-6.06219263E-01 6.66225054E-01
30  1 0.00000000E+00 2.96964615E-11-3.16148322E-10-3.27744117E-02-2.67437055E-01
30  2-3.12098470E-01 1.31793798E-01 1.07542877E+00 1.25502307E+00-4.64559292E-03
30  3 2.10436726E-02-1.63980796E-02-2.03971107E-02-2.65351667E-02 6.06588036E-03
30  4 1.01177301E-10 1.29363091E-02 1.05559437E-01 1.23187637E-01 1.39518270E-01
30  5-9.16083298E-01 7.76565028E-01 5.92473348E-01 8.14138812E-01-2.33035304E-01
30  6 0.00000000E+00-1.30681729E-11-3.55590674E-10 4.86416915E-03 3.96913020E-02
30  7 4.63196644E-02 3.42984785E-02 2.79873341E-01 3.26611590E-01 2.29256591E-03
30  8 2.21768564E-02-2.44694223E-02 1.23697072E-02 1.11207126E-02 2.83623652E-03
30  9-1.56375244E-10-2.43830505E-02-1.98964097E-01-2.32190676E-01-1.34555268E-01
30 10 9.54999391E-02 3.90553286E-02-6.27151728E-01-7.37402264E-01 8.36665527E-02
30 11-3.22447901E-11 4.82992684E-10 8.86211079E-05 7.23142472E-04 8.43905706E-04
30 12 2.55980450E-11-1.31144011E-01-1.07012655E+00-1.24883539E+00
31  1 2.03746223E-03-2.39243312E-02 2.42695057E-01-3.02831750E-01-1.26831355E-01
31  2 1.40483023E-01 1.71584005E+00-1.18286290E-01-7.88261217E-02-8.30864871E-03
31  3 6.45874899E-03 1.84989972E-03 1.61478790E-02-1.53613769E-02-2.87454322E-02