!  PCM calculation of the transition state of the Menschutkin reaction
!       NH3 + CH3Cl ------> NH3CH3+ + Cl-
!  The transition state's ionicity is sufficient that the gas phase
!  orbitals will not converge with SOSCF when the solvent interaction
!  is present, hence this test is run with the FULLNR converger.
!
!  gas phase FINAL E= -555.2075257231
!   solvated FINAL E= -555.2680580042 AFTER  14 ITERATIONS
!
!  FREE ENERGY IN SOLVENT = <PSI| H(0)+V/2 |PSI>       =  -555.2680580042 A.U.
!  INTERNAL ENERGY IN SOLVENT = <PSI| H(0) |PSI>       =  -555.1952040994 A.U.
!  DELTA INTERNAL ENERGY =  <D-PSI| H(0) |D-PSI>       =      .0000000000 A.U.
!  ELECTROSTATIC INTERACTION = 1/2(PB+PC) + 1/2PX + UNZ=     -.0728539048 A.U.
!  PIEROTTI CAVITATION ENERGY                          =      .0000000000 A.U.
!  DISPERSION FREE ENERGY                              =      .0000000000 A.U.
!  REPULSION FREE ENERGY                               =      .0000000000 A.U.
!  TOTAL INTERACTION (DELTA + ES + CAV + DISP + REP)   =     -.0728539048 A.U.
!  TOTAL FREE ENERGY IN SOLVENT                        =  -555.2680580042 A.U.
!
!  This run takes 9 seconds on a 1.2 GHz Power4+ (5 May 2005)
!
 $CONTRL SCFTYP=mcscf RUNTYP=energy COORD=ZMT  $END
 $system mwords=5 memddi=1 $end
 $basis  gbasis=n31 ngauss=6 $end
 $GUESS  GUESS=MOREAD  NORB=43 $END
 $det    ncore=16 nact=4 nels=4 $end
 $MCSCF  fullnr=.true. ACURCY=1.0E-05 ENGTOL=1.0E-06 $END
 $DATA
NH3+CH3Cl: TS
C1
Cl
C  1 R2
X  2 RD 1 AD
N  2 R3 3 A3 1 T1
H  4 R4 2 A4 3 T4
H  4 R4 2 A4 3 T5
H  4 R4 2 A4 3 T6
H  2 R7 1 A7 3 T7
H  2 R7 1 A7 3 T8
H  2 R7 1 A7 3 T9

R4=1.002
R7=1.062200
A4=111.100
A7=83.9
R2=2.474
R3=1.899
A3=90.0
RD=2.0
AD=90.0
T1=180.0
T4=0.0
T5=120.0
T6=-120.0
T7=60.0
T8=180.0
T9=-60.0
 $END
 $PCM IEF=3, ICOMP=0, IFIELD=0, ICAV=0, IREP=0, IDP=0, 
      EPSINF=1.75, EPS=78.5, RSOLV=1.35, IDISP=0, 
      OMEGA=40.0, RET=0.2, FRO=0.7, WA=1.17,
      TABS=298.0, VMOL=18.07, TCE=0.000257, DSTEN=0.650, 
      CMF=1.277, STEN=71.81, WB=0.451D0, ETA2=1.75D0 $END
 $TESCAV mthall=1 $end
 $PCMCAV RIN(1)=1.8,1.7,1.6 $END
 $NEWCAV IPTYPE=2 ITSNUM=540 RHOW=1.D0 PM=18.D0 NEVAL=8 $END
 $VEC   
 1  1 9.96540888E-01 1.25851312E-02-1.12428996E-10-2.58088745E-09 3.31018688E-05
 1  2-3.88962103E-03 2.21017802E-10-2.23519938E-09-1.01312148E-04 2.21373694E-03
 1  3 0.00000000E+00 2.39698309E-09 4.41368906E-04 6.44111388E-06-5.10794241E-05
 1  4 1.84115881E-10-2.39182420E-09-7.80415184E-05 2.55572772E-04-1.44149058E-10
 1  5-2.98633746E-09 5.34761489E-04 7.34001249E-06 8.14917086E-05 0.00000000E+00
 1  6 3.00743873E-09 1.14666771E-07-3.32003435E-04-2.34070302E-10 4.55858502E-09
 1  7 1.45157660E-04 2.16794151E-05 1.30284114E-05 2.16812394E-05 1.30286357E-05
 1  8 2.16773042E-05 1.30280193E-05 5.67896635E-05-2.29597943E-04 5.67805890E-05
 1  9-2.29590490E-04 5.67705430E-05-2.29581823E-04
 2  1-1.33574259E-05 2.88443325E-05 1.33323799E-09 2.17069553E-09 7.12724546E-05
 2  2-2.67210515E-04-3.48552877E-09-1.27181046E-10-2.41756862E-04 3.05296824E-04
 2  3 9.24548445E-10 1.75491861E-09 1.09707624E-04-1.60775927E-04-3.26198603E-04
 2  4-1.74940622E-09 1.42141665E-09-8.12269962E-04 2.98000020E-03 4.65103293E-09
 2  5-3.00662792E-09 1.17703028E-03 9.96462338E-01 2.29173767E-02-4.30481065E-08
 2  6-5.09995852E-09 3.52309814E-03-1.39815621E-02 4.35784273E-08 7.38479813E-09
 2  7 1.56398205E-03 2.42042388E-04 2.37694367E-03 2.41989224E-04 2.37703167E-03
 2  8 2.41990602E-04 2.37704037E-03 6.99273689E-05-2.11400457E-04 6.99353636E-05
 2  9-2.11403794E-04 6.99277741E-05-2.11401576E-04
 3  1 2.82999724E-05-1.49638959E-04-2.25905591E-09 6.57343438E-09-4.24086041E-04
 3  2 2.22279313E-04 7.81662103E-09-6.53570790E-09 1.08168226E-03 4.42461779E-04
 3  3-8.06393504E-09 9.11168481E-09 8.12915502E-04 9.96432977E-01 2.46690024E-02
 3  4 2.01708316E-08 1.54677058E-08 3.55238043E-04-1.64201613E-02-1.63112767E-08
 3  5-2.84306259E-08-8.61216258E-04-1.41222581E-04 4.90755684E-05 4.78885311E-09
 3  6-1.66246928E-08-4.90623908E-04 1.97015162E-03-1.99130779E-08 3.68965905E-08
 3  7-1.39909873E-03-1.52302593E-04 1.13390776E-04-1.52339925E-04 1.13395231E-04
 3  8-1.52306146E-04 1.13386387E-04-5.35430806E-06 3.19988814E-03-5.30146671E-06
 3  9 3.19981846E-03-5.35462271E-06 3.19987581E-03
 4  1-2.86831172E-01 1.03107703E+00-1.26245123E-08-6.90363232E-09 3.30229112E-03
 4  2 2.26072036E-02 2.08632240E-09 8.22009105E-09 1.57667990E-03-6.51508253E-03
 4  3-1.35154198E-10-7.92645799E-09-7.40349555E-04 4.69905171E-05 6.54746853E-05
 4  4 1.29913914E-09 5.06568247E-09-1.03466988E-04-1.03668651E-03-6.95905118E-10
 4  5-1.11610060E-08-1.65797010E-03-1.55325877E-05-2.15306666E-04 3.96284882E-10
 4  6-1.59367737E-09 6.93183212E-05 9.92154780E-04-1.83903925E-09 2.64688232E-09
 4  7-4.14413455E-04-3.98705691E-05-5.14958440E-05-3.98723625E-05-5.14958195E-05
 4  8-3.98710155E-05-5.14967951E-05-1.83646130E-04 6.37719504E-04-1.83644063E-04
 4  9 6.37710533E-04-1.83650456E-04 6.37710811E-04
 5  1 1.26644197E-03-4.68988724E-03-5.80625396E-07-1.77020457E-06 9.91234072E-01
 5  2 2.18613772E-03 3.05416162E-09-3.27494110E-08 2.65145890E-02-6.49615998E-04
 5  3 3.60458240E-09 3.14919740E-09-2.74565138E-03 3.90041464E-04-2.64474733E-04
 5  4-1.58261098E-09 5.53263921E-09-1.34840008E-03-2.38320326E-03 3.70730255E-09
 5  5-2.27162497E-09-2.48265951E-03-4.67855903E-05-1.05337284E-04-1.31596569E-10
 5  6 8.39452639E-10 1.27300558E-04 1.55812786E-03-3.57434552E-09-1.65306265E-10
 5  7-5.80847042E-04 2.54797326E-05-1.77890560E-04 2.54793550E-05-1.77892870E-04
 5  8 2.54793876E-05-1.77894850E-04-3.55564559E-04 7.19664368E-04-3.55552891E-04
 5  9 7.19655902E-04-3.55547958E-04 7.19646152E-04
 6  1-1.19733577E-09 4.91881740E-09 6.78557837E-01 7.25661527E-01 1.68406137E-06
 6  2-1.56362894E-09 1.40586558E-02 1.50345716E-02 3.82892695E-08 3.85279267E-09
 6  3-3.19740157E-03-3.41935606E-03-5.03093920E-09-2.33855013E-09 1.37042439E-09
 6  4-7.90885415E-06-8.45429277E-06-4.44856254E-09-5.41610757E-09-3.91014775E-06
 6  5-4.17967423E-06 1.05283611E-08-2.81688794E-09 4.48570000E-09 2.96647626E-05
 6  6 3.17211522E-05-1.10640506E-08 3.94036625E-09-1.47795020E-04-1.58055955E-04
 6  7-7.24663890E-09 3.90852303E-05 4.16715067E-05 1.66535175E-05 1.77562740E-05
 6  8-5.57444610E-05-5.94293586E-05-1.19426900E-04 5.94868654E-04 8.37396550E-05
 6  9-4.17113593E-04 3.56821706E-05-1.77750248E-04
 7  1-2.37810284E-09 8.24260825E-09 7.25661526E-01-6.78557836E-01-7.89609561E-07
 7  2 4.52902543E-09 1.50345726E-02-1.40586570E-02-1.18168459E-08-3.77759558E-09
 7  3-3.41935576E-03 3.19740129E-03 3.77497084E-09 3.29336988E-09-4.64784169E-09
 7  4-8.45099418E-06 7.90613515E-06 1.14718403E-08 3.59078365E-09-4.17910835E-06
 7  5 3.90854512E-06-7.42314775E-09-1.31281499E-09 2.15229022E-09 3.17218788E-05
 7  6-2.96655919E-05-8.79272801E-09 1.31481904E-08-1.58056409E-04 1.47794921E-04
 7  7-7.17166681E-09 4.17995695E-05 4.45619524E-05-5.47503584E-05-5.83724912E-05
 7  8 1.29518945E-05 1.38041986E-05 2.77445792E-05-1.38199767E-04 8.95510394E-05
 7  9-4.46077096E-04-1.17296868E-04 5.84266837E-04
 8  1 6.75059638E-04-3.02830273E-03 2.85286508E-08 3.51975999E-09-2.70452669E-05
 8  2 5.63142307E-03-9.03998489E-08-1.41703003E-08-4.42181550E-04-7.97639291E-04
 8  3 1.75192485E-08 1.95376366E-08-5.59894453E-03-2.78590977E-02 5.46526527E-02
 8  4 2.27703130E-08 1.99298904E-08-1.95019981E-02 5.32408776E-02-9.70928649E-09
 8  5-2.73267948E-08-1.13073287E-02-1.85040419E-01 3.83496057E-01-3.14565797E-07
 8  6-1.14538002E-07 1.98131053E-01 4.07680935E-01 1.53420014E-07 3.35110017E-08
 8  7 1.44186404E-01 1.44893733E-01 1.18308157E-03 1.44893509E-01 1.18352763E-03
 8  8 1.44893596E-01 1.18361833E-03 2.30758943E-02 8.41347422E-03 2.30759378E-02
 8  9 8.41338906E-03 2.30758924E-02 8.41346666E-03
 9  1 2.51530870E-02-1.16353224E-01 4.30116586E-09 4.99902037E-09-1.46475525E-02
 9  2 2.19871484E-01-5.01027387E-09-2.41468055E-08 3.36162834E-02 1.08040277E-01
 9  3-3.15689390E-08 4.06025792E-08 7.16046517E-03-1.86434855E-01 3.67305142E-01
 9  4 4.53807237E-08 1.01577895E-07-2.95294979E-02 3.73015714E-01-8.45481844E-08
 9  5-9.41288725E-08 7.48467700E-03 2.24971941E-02-4.45613748E-02 1.23731298E-08
 9  6-8.21601730E-08-7.49362352E-02-9.03714880E-02-9.50616280E-08 1.20309425E-07
 9  7-2.16117880E-02-2.71715222E-02-1.64264239E-03-2.71716219E-02-1.64263357E-03
 9  8-2.71714691E-02-1.64268538E-03 1.42298296E-01 2.78268650E-02 1.42298481E-01
 9  9 2.78266242E-02 1.42298262E-01 2.78268058E-02
10  1 7.54497999E-02-3.49368272E-01 1.73480585E-07 7.85924248E-10 6.19762730E-02
10  2 6.69322642E-01-4.70692617E-07-2.55947182E-09-1.57483675E-01 3.65678889E-01
10  3-1.57751324E-07 1.15775029E-08-9.29872490E-02 6.15689258E-02-1.25073543E-01
10  4 4.88852410E-08-4.84667528E-08 2.52864878E-02-1.14900510E-01-1.86199683E-08
10  5 9.21720523E-09 2.35865963E-02-3.35467284E-03 6.55948398E-03 9.47072647E-08
10  6 1.50113544E-08 2.60973543E-02 6.42224243E-03 1.15701552E-07-2.81343704E-08
10  7 1.59153304E-02 6.66857368E-03 3.91554879E-03 6.66851986E-03 3.91557071E-03
10  8 6.66848805E-03 3.91558493E-03-4.86573259E-02-1.11658859E-02-4.86573998E-02
10  9-1.11658635E-02-4.86572924E-02-1.11658536E-02
11  1-6.58505409E-09 2.97970108E-08-6.39720051E-04-1.12315816E-03 3.52114788E-09
11  2-6.06545282E-08 1.52061488E-03 2.66974862E-03-1.46247538E-08-2.94831200E-08
11  3 4.89836001E-04 8.59991496E-04 8.29369269E-09-3.62824673E-08 1.40545032E-07
11  4 4.64987229E-02 8.16379053E-02-1.19147972E-07 5.76393971E-09 1.30263988E-02
11  5 2.28704673E-02 1.55739254E-08 5.17054949E-09-4.89575984E-08 2.37324845E-01
11  6 4.16672764E-01 2.91628759E-07 1.27918233E-07 1.41280935E-01 2.48048072E-01
11  7 3.60028578E-07 1.37675652E-01 5.58241562E-02 1.40496353E-01 5.69676474E-02
11  8-2.78171795E-01-1.12792124E-01 5.38742738E-02 2.76017372E-02-2.66640350E-02
11  9-1.36608593E-02-2.72101648E-02-1.39406930E-02
12  1-1.37998558E-08 6.26609656E-08-1.12315614E-03 6.39716164E-04-1.99794738E-08
12  2-1.30550302E-07 2.66974243E-03-1.52060754E-03 4.62665934E-08-6.32526151E-08
12  3 8.59989901E-04-4.89816151E-04 3.03848027E-08-2.35918627E-08 0.00000000E+00
12  4 8.16379231E-02-4.64985898E-02-9.92185622E-08 1.52052990E-07 2.28704430E-02
12  5-1.30263668E-02-6.77722215E-08 1.11447191E-08-3.14589249E-08 4.16672719E-01
12  6-2.37324778E-01 1.80372482E-07-4.03231688E-08 2.48048107E-01-1.41281040E-01
12  7 1.56270804E-07 2.41718199E-01 9.80108360E-02-2.40089735E-01-9.73505027E-02
12  8-1.62842459E-03-6.60292953E-04 3.15418783E-04 1.61578379E-04-4.68140507E-02
12  9-2.39845717E-02 4.64987809E-02 2.38229573E-02
13  1 3.89697494E-09-1.79162183E-08-9.21441025E-03-9.67626746E-03 5.79993057E-09
13  2 3.64440949E-08 2.30385465E-02 2.41933211E-02-1.58713374E-08 2.47941762E-08
13  3 6.82849960E-03 7.17075361E-03 1.44578992E-08 1.22711391E-08 2.02708422E-08
13  4 3.21654741E-01 3.37777117E-01 1.11339337E-07-1.43208659E-07 1.46504746E-01
13  5 1.53848029E-01 4.06122674E-08-1.94875274E-08 3.50986505E-08-8.01295925E-02
13  6-8.41459581E-02-1.79507588E-07 8.99926666E-08-4.06008590E-02-4.26359687E-02
13  7-2.10933611E-07-5.47098187E-02-3.44219966E-02-2.24000455E-02-1.40935226E-02
13  8 7.71098062E-02 4.85154861E-02 2.73929742E-01 1.68162388E-01-1.94354600E-01
13  9-1.19311989E-01-7.95752933E-02-4.88503615E-02
14  1-1.10103610E-10-4.73471703E-10-9.67627529E-03 9.21442623E-03-2.49219186E-08
14  2-4.25896460E-09 2.41933405E-02-2.30385949E-02 7.11791855E-08 1.04565852E-08
14  3 7.17076154E-03-6.82848197E-03 1.28739959E-08-1.66770949E-09-1.63385993E-07
14  4 3.37777170E-01-3.21654711E-01 8.01914959E-08 3.00396219E-07 1.53848003E-01
14  5-1.46504791E-01 2.62855584E-08-1.13619400E-08 1.24226862E-08-8.41459125E-02
14  6 8.01294290E-02-1.26484921E-07-2.75978501E-08-4.26359816E-02 4.06008929E-02
14  7-1.38629308E-07-5.74520824E-02-3.61472401E-02 7.61059617E-02 4.78840142E-02
14  8-1.86540427E-02-1.17365909E-02-6.62678338E-02-4.06811654E-02-2.04096097E-01
14  9-1.25292523E-01 2.70364107E-01 1.65973347E-01
15  1 1.51180592E-09-6.09268341E-09-5.52840768E-02-2.62045134E-01 1.17107287E-07
15  2 1.77655175E-08 1.39999025E-01 6.63591859E-01-2.93981930E-07 1.34241150E-09
15  3 9.54001887E-02 4.52194484E-01-2.00019790E-07-1.29515318E-08 3.48024950E-08
15  4-1.13462351E-02-5.37808896E-02 1.35322747E-08 3.29463760E-08-5.62168349E-03
15  5-2.66466457E-02 4.67359621E-08 8.63630742E-09-5.01104143E-09 1.38890701E-03
15  6 6.58340241E-03 3.62299706E-08-8.07293778E-08-1.72777213E-03-8.18960675E-03
15  7 7.45166646E-08 1.47646401E-03 2.10776797E-03 5.32257122E-03 7.59836561E-03
15  8-6.79902455E-03-9.70609872E-03-2.93829143E-02-3.74567918E-03 6.38075886E-03
15  9 8.13427481E-04 2.30022174E-02 2.93232050E-03
16  1 8.87239085E-09-3.80503781E-08-2.62045133E-01 5.52840772E-02 5.57572701E-07
16  2 9.57894066E-08 6.63591857E-01-1.39999026E-01-1.40869949E-06 2.41688903E-08
16  3 4.52194486E-01-9.54001865E-02-9.27962869E-07-6.07406315E-08 1.62500270E-07
16  4-5.37808907E-02 1.13462452E-02 5.18975051E-08 1.76879820E-07-2.66466466E-02
16  5 5.62168720E-03 2.19878235E-07 3.89429834E-08-3.19613516E-08 6.58340203E-03
16  6-1.38891358E-03 1.66658514E-07-3.29553019E-07-8.18960850E-03 1.72777245E-03
16  7 3.67879214E-07 6.99842326E-03 9.99077593E-03-4.77784485E-03-6.82070968E-03
16  8-2.22052995E-03-3.16996414E-03-9.59630067E-03-1.22323908E-03 3.02446680E-02
16  9 3.85563730E-03-2.06480808E-02-2.63211362E-03
17  1 2.77967095E-03-1.27152933E-02-2.37139425E-08 6.49786235E-09-6.42369058E-02
17  2 2.01128662E-02 8.93898468E-08-9.79701430E-09 1.52658489E-01-3.39349693E-03
17  3 2.48033582E-07 1.66105733E-08 7.25757981E-02-4.30475707E-03 8.82341047E-03
17  4 1.68741536E-07 2.23304816E-08-2.27594589E-01 7.96717181E-02 4.66611290E-09
17  5 3.30189230E-08-1.13687901E-01 8.04522985E-02-1.70862404E-01-3.03182135E-07
17  6-1.35940134E-07 4.49948553E-01-2.79580001E-01-2.13941707E-07-9.54223924E-08
17  7 4.03306341E-01 3.08387339E-02 2.92087149E-02 3.08389976E-02 2.92087198E-02
17  8 3.08391284E-02 2.92087806E-02 3.54358811E-02 2.17927341E-02 3.54357134E-02
17  9 2.17926165E-02 3.54358403E-02 2.17927693E-02
18  1 1.64977218E-02-7.51988198E-02-6.43356553E-07 1.72918153E-10-2.62469047E-01
18  2 1.46862699E-01 1.74607789E-06 5.34215142E-08 6.57377231E-01 5.87557964E-02
18  3 5.68982865E-07-5.14493898E-08 3.71806822E-01 4.48394507E-02-1.11012507E-01
18  4-2.62921387E-07 2.37555967E-08-1.44901124E-02-1.46356163E-01 1.48017249E-07
18  5-3.75005007E-08-1.48659323E-01-3.84159551E-02 4.27439519E-02 1.37526626E-07
18  6 6.08639335E-08-1.29583192E-01 2.66517605E-01-1.05307205E-07 4.61698301E-08
18  7-2.71053335E-01-6.98896861E-03-2.27776470E-02-6.98904761E-03-2.27777819E-02
18  8-6.98906338E-03-2.27778233E-02-6.21333211E-02-4.75512647E-02-6.21331294E-02
18  9-4.75511762E-02-6.21333060E-02-4.75513361E-02
19  1 2.53769129E-02-6.26838106E-02 8.27142764E-07 1.80474827E-07-2.43120673E-01
19  2 4.64538675E-01-3.22661189E-06-6.90259045E-07 8.79044674E-01-3.24585538E-01
19  3 3.50397356E-06 7.30729757E-07-5.78111707E-01-3.40837546E-02 2.10229794E-01
19  4 7.65720938E-07 6.29205798E-08 2.90484257E-01 6.13857543E-02-3.00766529E-06
19  5-2.11194287E-07 6.78406446E-01 4.20984047E-02 1.03310632E-01-1.73958019E-07
19  6-2.72654419E-09-2.14943959E-02-6.58373766E-01 1.92107060E-06 1.90031173E-07
19  7 6.19993954E-01 1.13699697E-02 4.18022576E-02 1.13699484E-02 4.18048560E-02
19  8 1.13701249E-02 4.18050005E-02 7.25018596E-02 8.89030612E-02 7.25011538E-02
19  9 8.89010953E-02 7.25017218E-02 8.89031283E-02
20  1-8.07850316E-03 9.28099455E-03 2.15912834E-06 3.83393404E-07 5.84836055E-02
20  2-1.88667031E-01-8.38211777E-06-1.48160195E-06-2.65710293E-01 2.20102758E-01
20  3 8.97632677E-06 1.57552197E-06 4.11270024E-01-6.08623576E-03-1.11628658E-01
20  4 1.95154661E-06 6.08197702E-09 3.41207946E-01 4.97240229E-02-5.43171142E-06
20  5-5.37257932E-07-7.60175994E-02 4.73453622E-02-6.70132353E-01 5.19476114E-07
20  6 3.60984963E-09 8.78889427E-01 6.89491977E-01 2.55082935E-06 4.23184814E-07
20  7-7.79068260E-01 7.40647193E-03-3.83765915E-02 7.40711583E-03-3.83731815E-02
20  8 7.40755221E-03-3.83730201E-02-9.16130216E-02-1.05988923E-01-9.16139805E-02
20  9-1.05991807E-01-9.16135076E-02-1.05988822E-01
21  1 3.18664684E-03-8.55103702E-03 2.50098610E-08 4.12816424E-09-8.77456735E-03
21  2 5.54220388E-02-9.36908304E-08-1.88818526E-08 3.99462686E-02-3.61869713E-02
21  3 8.29285486E-08 3.11651200E-08-5.32959029E-02-5.85539935E-02 5.15993610E-02
21  4 3.53891492E-09 2.99214383E-08 2.55497713E-02 9.06824337E-01-2.81867763E-07
21  5 5.66559354E-08 6.81949461E-02-9.83681400E-02 1.22002549E-01-3.15945245E-08
21  6-2.09983511E-08 1.45895115E-01 1.58439332E+00 1.96194602E-07-4.55891555E-09
21  7 5.57357418E-01-4.32981317E-02-8.77325813E-01-4.32981808E-02-8.77325377E-01
21  8-4.32981661E-02-8.77325423E-01 9.73818505E-03-3.56515264E-01 9.73815530E-03
21  9-3.56515592E-01 9.73818935E-03-3.56515073E-01
22  1 1.37158381E-09 1.76163723E-08-8.93430509E-04-2.59644304E-03-3.19547183E-09
22  2 1.02668580E-07 2.64630515E-03 7.69055715E-03 8.28498975E-08-2.76356411E-07
22  3 7.09017433E-04 2.06051795E-03-4.51371056E-07-2.39853164E-08 4.53521090E-08
22  4 7.75480745E-04 2.25369858E-03-4.20249691E-07 6.16675498E-07-5.01884798E-02
22  5-1.45855128E-01-6.46623613E-07-2.14708620E-08 1.31012204E-07 1.08055490E-01
22  6 3.14025360E-01-3.94820060E-07-1.66244007E-07 3.66831245E-01 1.06606695E+00
22  7-2.34485327E-07-2.60514154E-02-5.76140687E-01-5.25404129E-02-1.16196102E+00
22  8 7.85918829E-02 1.73810231E+00 1.06956944E-02 8.95504578E-02-3.54534990E-03
22  9-2.96844477E-02-7.15028356E-03-5.98670739E-02
23  1-3.48842196E-09-4.01875425E-08 2.59644408E-03-8.93430980E-04 7.69963848E-09
23  2-2.42817742E-07-7.69056349E-03 2.64630550E-03-1.90732282E-07 6.55001776E-07
23  3-2.06050767E-03 7.09020525E-04 1.05846389E-06 8.63196997E-08-1.02999679E-07
23  4-2.25367915E-03 7.75490660E-04 1.00270743E-06-2.02357134E-06 1.45855243E-01
23  5-5.01884496E-02 1.61220676E-06 4.45127119E-08-3.37413777E-07-3.14025351E-01
23  6 1.08055433E-01 9.24443976E-07 6.29932012E-07-1.06606697E+00 3.66831318E-01
23  7 6.34359792E-07 7.57092358E-02 1.67435174E+00-6.04158104E-02-1.33612950E+00
23  8-1.52934856E-02-3.38224064E-01-2.08136673E-03-1.74249422E-02 1.03033270E-02
23  9 8.62675028E-02-8.22212925E-03-6.88392214E-02
24  1 2.24889164E-03-6.65236903E-03 1.54299307E-07 2.11613055E-08 1.76080394E-02
24  2 3.40904757E-02-5.89965736E-07-8.60924747E-08-7.01201971E-02-4.41805460E-02
24  3 5.91629977E-07 1.07892217E-07 2.78030778E-02-1.33284547E-01 1.02325035E-01
24  4 7.24023238E-08 6.88507510E-08-3.66733849E-02 2.34943705E+00-2.84019554E-07
24  5 1.80234995E-07-3.10118988E-01 4.33445398E-02-7.91682303E-02-3.41554104E-07
24  6 2.56527718E-09-3.72429096E-02-7.15292571E-01-1.44346655E-06 7.63054046E-08
24  7-2.22875554E-01 2.59167908E-02 4.03424257E-01 2.59166418E-02 4.03420838E-01
24  8 2.59166931E-02 4.03420935E-01-6.19658131E-02-1.14851532E+00-6.19657925E-02
24  9-1.14851548E+00-6.19658095E-02-1.14851476E+00
25  1-1.20572235E-09 3.11998618E-08 1.46333380E-02 1.50027564E-02-8.71043143E-09
25  2 8.32926952E-08-4.28154066E-02-4.38962820E-02 1.27669407E-07-3.21476959E-07
25  3-1.07180448E-02-1.09886139E-02-6.09580554E-07 4.19023535E-08-3.62119591E-08
25  4-2.19264349E-01-2.24799663E-01-5.29442741E-07-4.15118568E-07-1.12362147E+00
25  5-1.15198726E+00-7.86022240E-07-5.54730602E-08 1.97842781E-07-2.62382675E-02
25  6-2.69006403E-02-3.90642931E-07 2.34219092E-07 4.82452955E-02 4.94633183E-02
25  7-3.73079135E-07-1.39046349E-02 4.36158237E-02-5.39346049E-03 1.69180346E-02
25  8 1.92980874E-02-6.05336813E-02 6.87017015E-02 1.98816439E+00-4.95007641E-02
25  9-1.43251033E+00-1.92007275E-02-5.55653724E-01
26  1-4.09928321E-09 3.01604112E-08 1.50027563E-02-1.46333398E-02 6.90588743E-09
26  2 3.66350416E-10-4.38962822E-02 4.28154158E-02 3.98549438E-08-1.79483742E-07
26  3-1.09886099E-02 1.07180235E-02-3.77263618E-07 6.72955106E-08 4.47557487E-08
26  4-2.24799682E-01 2.19264326E-01-3.91385354E-07-1.18091908E-06-1.15198724E+00
26  5 1.12362158E+00-5.60895805E-07-3.75428167E-08 1.39725081E-07-2.69006612E-02
26  6 2.62382677E-02-2.65418614E-07 1.46248965E-07 4.94632668E-02-4.82454407E-02
26  7-4.12301287E-07-1.42556497E-02 4.47169363E-02 1.91696623E-02-6.01306346E-02
26  8-4.91393996E-03 1.54138982E-02-1.74937142E-02-5.06252995E-01-5.07505207E-02
26  9-1.46867357E+00 6.82442790E-02 1.97492792E+00
27  1 6.66345414E-02-1.35249928E-01-1.30828544E-06-3.25791055E-07 1.46416508E-01
27  2 1.32586201E+00 5.07004224E-06 1.24259180E-06-5.92735435E-01-1.24237191E+00
27  3-5.40650646E-06-1.21386951E-06 8.10384014E-01 6.68837031E-03-1.04990458E-02
27  4-1.38261887E-06 4.11505423E-07-1.40853030E-01-7.63468582E-02 2.00559948E-06
27  5-1.14605474E-06 4.67455310E-01 2.27346125E-03 4.72679634E-02-4.01099346E-07
27  6-1.39275016E-09-5.29986891E-02-1.52697993E-01 1.59572830E-06-3.86581819E-08
27  7 2.53983451E-01-1.64723694E-02-3.05130379E-02-1.64705983E-02-3.05124246E-02
27  8-1.64708638E-02-3.05123845E-02 6.43592064E-02 2.21863770E-02 6.43598000E-02
27  9 2.21853121E-02 6.43586486E-02 2.21853888E-02
28  1-6.68856095E-08 1.31740150E-07 7.49987014E-02-2.75232513E-02-1.87723385E-07
28  2-1.34574174E-06-2.70515856E-01 9.92747285E-02 7.38579847E-07 1.30454205E-06
28  3 1.80449241E-01-6.62217977E-02-8.82741754E-07-1.44881990E-08 9.59359950E-08
28  4-6.01864350E-01 2.20874034E-01 2.06952006E-07 2.12569753E-08 1.40730530E+00
28  5-5.16457241E-01-2.57736488E-07-1.63460726E-09 4.09637421E-08-9.90982870E-02
28  6 3.63674885E-02-5.93595544E-08 1.01495950E-08 3.31247968E-01-1.21562727E-01
28  7 4.64543134E-08-3.42279637E-01-2.08810950E-02 2.79922137E-01 1.70769828E-02
28  8 6.23574819E-02 3.80414466E-03-7.72454079E-02-8.10890581E-02 4.23998289E-01
28  9 4.45095817E-01-3.46753090E-01-3.64006632E-01
29  1 5.07369709E-08-8.27004704E-08 2.75232683E-02 7.49986854E-02 1.14473120E-08
29  2 1.08373689E-06-9.92747904E-02-2.70515795E-01-1.06400615E-08-1.19281890E-06
29  3 6.62218404E-02 1.80449184E-01-1.47466491E-07 2.38059171E-08-1.64419635E-07
29  4-2.20874078E-01-6.01864217E-01-3.57662916E-07-4.62825413E-08 5.16457468E-01
29  5 1.40730508E+00-1.92656758E-07-1.70339494E-08 3.47558032E-08-3.63674516E-02
29  6-9.90983090E-02-2.24591650E-08 9.58094842E-08 1.21562450E-01 3.31248097E-01
29  7-2.52288603E-07-1.25610776E-01-7.66310147E-03-2.33617526E-01-1.42519923E-02
29  8 3.59228376E-01 2.19150939E-02-4.44993519E-01-4.67135350E-01 1.55600521E-01
29  9 1.63342617E-01 2.89393338E-01 3.03792823E-01
30  1 1.44407333E-06-1.37832228E-06 1.24156360E-01 2.59525070E-01-3.98125482E-06
30  2 3.44186684E-05-4.78819331E-01-1.00088002E+00 1.87367250E-05-4.60824482E-05
30  3 4.97029241E-01 1.03894433E+00-3.83864405E-05 1.07885928E-06 4.82431502E-07
30  4 3.41353614E-02 7.13532303E-02-1.61329534E-05-2.43289043E-05-9.91561204E-03
30  5-2.07263045E-02-3.75141477E-05-4.71252868E-07 5.91799710E-07 7.54270126E-02
30  6 1.57665478E-01 1.41363259E-05 1.83811680E-06-2.16587951E-01-4.52735222E-01
30  7-4.97719151E-05 1.25998986E-01 1.62385986E-02 1.65089578E-01 2.12745920E-02
30  8-2.91070350E-01-3.74942527E-02 3.68609585E-02-1.51053495E-01-1.59531113E-02
30  9 6.53933553E-02-2.09031374E-02 8.56803404E-02
31  1 2.01390379E-06-1.91940653E-06 2.59525063E-01-1.24156372E-01-5.61814182E-06
31  2 4.80119872E-05-1.00087999E+00 4.78819374E-01 2.63918462E-05-6.43000514E-05
31  3 1.03894430E+00-4.97029276E-01-5.38425239E-05 1.51936055E-06 5.82958253E-07
31  4 7.13532915E-02-3.41352508E-02-2.25561768E-05-3.39014496E-05-2.07264253E-02
31  5 9.91540392E-03-5.23911621E-05-6.64076140E-07 8.91192735E-07 1.57665515E-01
31  6-7.54269143E-02 1.96767120E-05 2.49675809E-06-4.52735278E-01 2.16587797E-01
31  7-6.94616787E-05 2.63372538E-01 3.39390610E-02-2.40786638E-01-3.10137568E-02
31  8-2.25604956E-02-2.89880927E-03 2.86023356E-03-1.17032224E-02-3.33478444E-02
31  9 1.36687661E-01 3.04944730E-02-1.24956303E-01
32  1-3.44339541E-02 2.91210957E-02 1.74118381E-05 3.11051997E-06 1.20174517E-01
32  2-8.34199905E-01-6.70505165E-05-1.19644704E-05-5.51400408E-01 1.14724602E+00
32  3 6.90559699E-05 1.22573522E-05 1.07568154E+00-2.43988896E-02-3.30634245E-02
32  4 1.02803067E-06 3.34099945E-08 3.64462220E-01 6.59464472E-01 5.83958316E-06
32  5 1.56447070E-06 1.03695564E+00 4.79937624E-03 4.08380331E-03 1.40927811E-05
32  6 2.37356899E-06-4.79080360E-01 2.96758351E-03-3.96407405E-05-6.89135389E-06
32  7 1.44277114E+00-1.86590382E-01-1.89873803E-01-1.86620447E-01-1.89876704E-01
32  8-1.86627063E-01-1.89877485E-01-2.68387971E-02-1.75159626E-01-2.68417573E-02
32  9-1.75141425E-01-2.68388368E-02-1.75156198E-01
33  1-1.82301651E-07 1.26507288E-07 7.90531386E-02 2.76843458E-02 9.39135062E-07
33  2-4.50757652E-06-3.22390275E-01-1.12900818E-01-4.04691102E-06 6.50679583E-06
33  3 4.21470765E-01 1.47598736E-01 7.06556902E-06-1.56855296E-08-1.40249011E-06
33  4 5.58094859E-01 1.95444436E-01-4.10489166E-07 5.58581614E-06-1.21451419E+00
33  5-4.25322024E-01 7.47566032E-06-2.28337722E-07 2.57533047E-07-4.43186271E-01
33  6-1.55203377E-01-5.73773818E-06 2.29953101E-06 1.36324083E+00 4.77405753E-01
33  7 1.20018538E-05-6.04769823E-01-1.67313689E-01 1.18966872E-01 3.29116455E-02
33  8 4.85796628E-01 1.34396531E-01 3.25990517E-02 3.27088345E-01-4.05817447E-02
33  9-4.07193149E-01 7.98346025E-03 8.01008901E-02
34  1 2.45112665E-08-1.73607445E-08-2.76843368E-02 7.90531173E-02-1.41534122E-07
34  2 6.05163157E-07 1.12900783E-01-3.22390197E-01 6.11007124E-07-8.75317886E-07
34  3-1.47598705E-01 4.21470714E-01-1.04002706E-06 1.93933255E-08 6.04980016E-07
34  4-1.95444590E-01 5.58095076E-01 3.82986564E-08-2.01418742E-06 4.25322175E-01
34  5-1.21451445E+00-1.16425156E-06 4.22676682E-08 5.45239892E-08 1.55203199E-01
34  6-4.43186061E-01 1.00480881E-06-6.34599232E-07-4.77405499E-01 1.36324053E+00
34  7-2.22858496E-06 2.11789777E-01 5.85924463E-02-6.29638528E-01-1.74191724E-01
34  8 4.17850034E-01 1.15600409E-01 2.80392781E-02 2.81339702E-01 1.42118092E-02
34  9 1.42598826E-01-4.22509595E-02-4.23937050E-01
35  1-1.39943814E-02-1.24539334E-02-4.14847552E-07-7.01900190E-08-2.22281260E-02
35  2-4.20748428E-01 1.62140357E-06 2.74646513E-07 4.70692319E-02 8.22976936E-01
35  3-1.78697038E-06-2.91898233E-07 4.38866286E-01-3.03670843E-02-1.50979208E-01
35  4-7.49750436E-07-1.62285862E-07-1.03656467E+00 6.53142067E-01 1.54644632E-06
35  5 2.89944696E-07 1.78122442E+00-2.21325775E-02 1.27862003E-01 7.26651662E-07
35  6-9.51196310E-08 1.84338282E-01-3.72544925E-01-1.66552593E-06 2.61072643E-08
35  7 6.54924099E-01-3.58781202E-01-1.05253574E-02-3.58781225E-01-1.05268362E-02
35  8-3.58781514E-01-1.05265014E-02-1.55746251E-01-6.68612261E-02-1.55746297E-01
35  9-6.68603803E-02-1.55746351E-01-6.68608863E-02
36  1 3.97511305E-08 2.54611452E-08 1.28057926E-05 4.01398430E-05-1.75892617E-08
36  2 1.16758105E-06 3.86908136E-04 1.21288909E-03 1.96985107E-07-2.10988233E-06
36  3-3.16896940E-03-9.93406885E-03-1.41917871E-06-9.07066407E-08-6.93893791E-07
36  4-2.82429414E-02-8.85359953E-02 1.36657233E-06 1.75550825E-06 6.62487436E-02
36  5 2.07676338E-01-2.96675265E-06-1.76086600E-07 1.67406835E-06-2.90404957E-01
36  6-9.10359411E-01 8.40456744E-07-1.63593615E-06 3.21775260E-01 1.00869876E+00
36  7-1.05738095E-06 2.36123206E-01-4.20165383E-01 5.22969749E-01-9.30588226E-01
36  8-7.59096868E-01 1.35075775E+00-6.23664434E-02-1.03498640E-01 1.93988830E-02
36  9 3.21942228E-02 4.29655111E-02 7.13043843E-02
37  1 4.78633224E-08 1.77296078E-08-4.01459933E-05 1.28077896E-05-1.19322780E-07
37  2 1.36140044E-06-1.21286397E-03 3.86899091E-04 6.28496423E-07-2.35295187E-06
37  3 9.93403117E-03-3.16895403E-03-2.03792056E-06-2.11611991E-08-2.83410182E-06
37  4 8.85361223E-02-2.82427635E-02 1.11404439E-06 5.60964825E-06-2.07676467E-01
37  5 6.62484311E-02-2.66766450E-06-8.51901859E-08-4.56333070E-07 9.10359409E-01
37  6-2.90405160E-01-2.94085802E-07 2.24811491E-06-1.00869871E+00 3.21775539E-01
37  7 7.87171714E-07-7.40202359E-01 1.31713554E+00 5.74589650E-01-1.02244286E+00
37  8 1.65610364E-01-2.94693383E-01 1.36059289E-02 2.25795757E-02-6.08133110E-02
37  9-1.00923834E-01 4.72072134E-02 7.83411740E-02
38  1 1.85918457E-02 1.17700646E-02-6.79182208E-08 4.77945149E-09-1.79787508E-02
38  2 5.46149860E-01 2.64292762E-07-3.00014903E-08 1.36878098E-01-9.78243431E-01
38  3-2.84777039E-07 9.27320944E-08-7.24264514E-01-3.55611271E-02-6.70623828E-01
38  4-2.85664849E-07 8.37179691E-08 5.33623262E-01 1.48290934E+00 4.11583112E-07
38  5-4.72087057E-07-1.24716657E+00-7.37895188E-02 5.14834600E-01-6.44587616E-07
38  6 2.48776319E-06 2.18770360E-01-2.67994716E-01 7.14248685E-07-2.49863207E-06
38  7-1.60864117E-01-5.80283641E-01 4.32868305E-01-5.80286367E-01 4.32872882E-01
38  8-5.80282431E-01 4.32866613E-01-2.50853828E-01-1.61463814E-01-2.50854452E-01
38  9-1.61463216E-01-2.50854644E-01-1.61463503E-01
39  1-8.81022999E-03 8.00305877E-03-3.68101945E-07 2.98935276E-08 3.38266538E-03
39  2-2.14166302E-01 1.45569878E-06-1.64050545E-07-3.09218559E-02 2.72069396E-01
39  3-1.69293040E-06 4.06809262E-07 9.01490352E-02 5.46453251E-02-1.70186664E+00
39  4 4.26192796E-07-2.17559113E-06-5.00647461E-02 3.21378709E+00 1.77990637E-07
39  5 2.21577476E-06 2.05093178E-01 7.85534149E-03-6.82851907E-02-5.24516689E-07
39  6-4.17191613E-07 7.31280594E-02-2.15860963E-01-2.84025569E-07 1.25327551E-06
39  7 1.27942134E-01-4.77649255E-02 4.34686225E-02-4.77669223E-02 4.34695617E-02
39  8-4.77663137E-02 4.34704396E-02 5.50317748E-01-1.13075950E+00 5.50317374E-01
39  9-1.13075823E+00 5.50312684E-01-1.13075189E+00
40  1 1.51704367E-02 2.03070172E-03-2.33171088E-07-1.18973397E-07-3.92524887E-02
40  2 4.21668438E-01 8.30787262E-07 4.94157765E-07 2.10278721E-01-6.63747594E-01
40  3-5.48448875E-07-6.77028504E-07-5.86482313E-01-5.83669758E-02-1.07659887E+00
40  4-4.62902782E-06 1.84817340E-06-8.11009077E-02 2.35275612E+00 5.07171113E-06
40  5-1.80961116E-06-1.19947762E-01 4.21780512E-02-1.18013392E+00-1.49502142E-06
40  6 1.10770584E-07-3.73426916E-01 2.05991451E+00 2.61970585E-06-7.22780034E-07
40  7 9.67162254E-01 8.00133837E-02-6.94683254E-01 8.00137378E-02-6.94680854E-01