!  H2CO plus PCM water solvent ...pyramidal (distorted) geometry
!  This uses the MRMP2/PCM and ORMAS-PT2/PCM codes to reproduce the MP2/PCM energy
!  The guess orbitals are from gas-phase SCF run
!  Energies below are from a serial run
!
!  E(MRMP2/PCM)  = -114.3140578154
!  E(OR-PT2/PCM) = -114.3140578154
!  E(MP2/PCM)    = -114.3140578153
!
!  To do ORMAS-PT2/PCM (OR-PT2 above) uncomment second $mcscf line (!)
!  To do comparable MP2 run comment out the first $contrl line and uncomment
!  the three following input specification lines (#)
!
 $contrl scftyp=mcscf mplevl=2 runtyp=energy ispher=1 icut=20 itol=30 $end

# $contrl scftyp=rhf mplevl=2 runtyp=energy ispher=1 icut=20 itol=30 $end
# $scf    CONV=1d-7 fdiff=.false. $end
# $mp2    nacore=0 nbcore=0 $end

 $system mwords=100 memddi=100 $end
 $trans  cuttrf=1d-20 $end
 $guess  guess=moread norb=88 $end
 $basis  gbasis=cct $end

 $det    ncore=0 nact=8 nels=16 $end
 $mcscf  acurcy=1E-8  $end
! $mcscf cistep=ormas $end
 $detpt  nval=0 $end 

 $data  
H2CO at a geometry for S1 by TD-B3LYP/DH(d,p)
C1
O           8.0   2.0046394572  -1.6983458738  -1.0803502172
C           6.0   1.6864387177  -1.1433619435   0.0668605451
H           1.0   0.7867298151  -1.5283667256   0.5664801688
H           1.0   1.8451944981  -0.0589815678   0.1487405204
 $end
 $pcm   solvnt=water $end


--- CLOSED SHELL ORBITALS --- GENERATED AT Wed Dec  2 15:03:57 2015
H2CO - RHF orbitals                             
E(RHF)=     -113.8707169605, E(NUC)=   29.5207398230,   15 ITERS
 $VEC   
 1  1 9.75701249E-01-1.32048979E-03 4.32045125E-02 2.13341267E-03-3.86811433E-04
 1  2 7.40104331E-04 1.62560168E-03 4.67316062E-04-8.53695423E-04-1.82112879E-03
 1  3-5.23777719E-05 7.09404521E-05 1.17144961E-04-6.49137671E-05 4.23291323E-05
 1  4 2.25846347E-05 8.89000008E-05-1.16702110E-04 6.46438141E-05 2.61708147E-04
 1  5 2.31816072E-04-4.93524219E-04 2.24027978E-04 1.56482973E-04-4.31184613E-04
 1  6-4.28315772E-05 5.69252419E-05-5.25884537E-05 3.32318757E-05 6.03861911E-05
 1  7-7.08793991E-06 1.01686233E-05 6.45525308E-05-1.09605102E-04 3.97843775E-05
 1  8 4.53653875E-04 9.79652307E-04-2.53027741E-04-1.25295249E-03-1.99830518E-05
 1  9 6.41512345E-06-2.79051904E-05 7.91950171E-04-1.10963814E-03-1.90160787E-03
 1 10 5.55874846E-05 4.01130137E-05 2.82248881E-04-2.13547646E-04-1.17577990E-04
 1 11 3.31125636E-04-7.93737732E-05-1.83627351E-04 3.21645191E-04-3.32202861E-04
 1 12-4.44697591E-04 7.76900451E-04-5.37591184E-04-1.15297512E-04 6.45836692E-04
 1 13-1.03502640E-04 7.92015721E-05-8.36124814E-05 1.41166112E-04 1.04167005E-04
 1 14-4.50937621E-05 8.01091086E-06 1.83957125E-04-2.47426172E-04 9.26707315E-05
 1 15 1.52482230E-05 9.13993349E-04 9.13253787E-05 2.80386072E-05 2.31910771E-05
 1 16 3.96402454E-06 2.72376977E-04 1.27005889E-06-2.08479191E-04 3.80172350E-05
 1 17 1.44126109E-05-5.24298459E-05 8.56043418E-06 1.66073327E-05-3.27448910E-05
 1 18 1.52441769E-05 9.12888740E-04 9.13401217E-05-1.00292926E-05-2.95812100E-05
 1 19 1.89554879E-05 4.11029484E-05-3.19193547E-04-1.16719911E-04 2.39805885E-05
 1 20 2.42491626E-05-4.82297511E-05 1.39932055E-06 1.36956786E-05-4.30602238E-05
 2  1-2.32925738E-04 6.66422414E-05 2.13964579E-04-1.72640185E-04-9.94100829E-05
 2  2 1.54015384E-04 2.90305779E-04-7.13157344E-06-1.87207902E-05-8.43955091E-05
 2  3 9.45470973E-06 4.29734503E-05 1.74497846E-04 1.33896032E-05-1.50713874E-06
 2  4-1.18824645E-05-1.91117250E-05 7.40192894E-06-5.28034849E-06 8.63918675E-05
 2  5 4.51982791E-05-1.31590147E-04 5.72660592E-05 1.04520155E-04-1.57458902E-04
 2  6-4.37820021E-05 6.43327973E-05-5.58380249E-05 2.97502194E-05 5.93582386E-05
 2  7 1.44501562E-06 1.55563331E-05 5.72947041E-05-1.16061724E-04 5.45377796E-05
 2  8 9.78535632E-01 7.58163278E-04 4.04358279E-02 3.64949357E-03 2.85685897E-04
 2  9-1.65694028E-04 1.41883952E-04-3.02454931E-04 9.84565025E-05-4.22498784E-04
 2 10-2.31377521E-04 2.39375956E-04 2.56142517E-04-1.90350398E-04 1.43343205E-04
 2 11 4.70071936E-05 2.30399344E-04-4.15276169E-04 2.39313976E-04-4.62085424E-05
 2 12 2.27773725E-05 2.34311699E-05 3.45545254E-06-1.24333836E-04 9.74604603E-05
 2 13-1.78016041E-04 5.01518650E-04-2.83855446E-04-2.46682185E-04 3.07466579E-04
 2 14 1.75397633E-04 7.33654647E-05 6.34359482E-05-4.26175691E-04 2.78843000E-04
 2 15 1.13205688E-04 5.45789628E-05-7.67392492E-04-2.29431046E-04-8.03274133E-05
 2 16 1.21307272E-04 3.51763372E-05-1.00887114E-04 3.07285825E-05-1.10451875E-04
 2 17 7.71317856E-05 3.33200896E-05-9.35075373E-05 1.08449644E-04 9.25221186E-05
 2 18 1.13408984E-04 5.33490216E-05-7.66971324E-04 2.28491013E-05 2.69753795E-04
 2 19 2.17112436E-05 1.11199501E-04 5.05513923E-06 5.85986741E-07 8.24352703E-05
 2 20-1.91689433E-04 1.09254163E-04-5.08825923E-05-4.63694248E-05-1.72775675E-05
 3  1-6.59912376E-03 4.81650731E-01 1.26695090E-01 2.59906294E-01-1.58894245E-02
 3  2 2.55918535E-02 4.98087195E-02-2.14739783E-02 3.48119419E-02 6.81130315E-02
 3  3-4.60529072E-03 6.53916455E-03 1.13471424E-02-2.58123546E-03-1.24979410E-03
 3  4 3.83102956E-03-8.59202237E-04-2.50072899E-03 3.96270222E-03-5.81402789E-03
 3  5-3.23856129E-03 9.05258918E-03-2.72902565E-03-5.48045866E-03 9.28437672E-03
 3  6 1.28701595E-03-2.08748444E-03 1.69087139E-03-5.90450082E-04-1.78980939E-03
 3  7-1.91245282E-04-4.78732635E-04-1.53546781E-03 3.39110434E-03-1.68193949E-03
 3  8-1.14112421E-02 2.21525567E-01 4.82056323E-02 5.76969333E-02 1.85553954E-02
 3  9-3.33717801E-02-7.04396559E-02 1.38213581E-02-3.00411813E-02-7.06874782E-02
 3 10 1.78062210E-03-3.44815320E-03-7.62022045E-03-6.50384936E-03-2.27136594E-03
 3 11 8.77521530E-03-1.51008867E-03-7.59486553E-03 1.02243872E-02-6.52894949E-03
 3 12-2.11793866E-03 8.64688814E-03-2.15984946E-03-8.62208918E-03 1.10675391E-02
 3 13-2.40988853E-03 5.68435133E-03-3.55434403E-03-1.61406808E-03 3.77827030E-03
 3 14 1.66260869E-03 9.90382623E-04 1.57059605E-03-6.01228951E-03 3.67740295E-03
 3 15 1.75229973E-02 5.65019207E-03-1.21911733E-03 6.47437862E-04-1.72782218E-04
 3 16-1.05037682E-03-4.33034864E-03-2.75345525E-03 1.84368412E-03-5.31203851E-04
 3 17-2.48871987E-05 5.56091049E-04-8.37762836E-04 1.79265904E-04 3.05051397E-04
 3 18 1.75238793E-02 5.67144396E-03-1.21769466E-03 1.14354692E-04-9.14527299E-04
 3 19-8.40604629E-04 1.42890091E-03 5.23506193E-03-4.27370788E-04 3.15514418E-04
 3 20-8.34488221E-04 5.18973803E-04-4.96506418E-04 4.01669381E-05 5.12658382E-04
 4  1-7.25214932E-04-2.20849383E-01-6.22549357E-02-1.86812484E-01-2.63779241E-02
 4  2 3.75042351E-02 6.51946749E-02-3.22051024E-02 4.50301826E-02 7.69294880E-02
 4  3-1.69577795E-02 2.43542580E-02 4.27721141E-02-9.65871014E-04-5.35366891E-04
 4  4 1.50123790E-03-7.97496043E-04-1.25486561E-03 1.88633675E-03-1.11311480E-03
 4  5-1.73631211E-03 2.84942691E-03-3.46949884E-03-1.48692345E-03 3.57031010E-03
 4  6 2.52069892E-04-5.23411911E-04 1.87272635E-04 1.71683505E-04-1.80450200E-04
 4  7-2.48386439E-04-7.08024053E-05-8.98008096E-05 5.30547264E-04-5.63515219E-04
 4  8-7.63148808E-03 4.06209722E-01 9.20468664E-02 1.57940041E-01-4.68464639E-02
 4  9 5.04897780E-02 5.91868983E-02-5.51871148E-02 6.02952633E-02 7.25720126E-02
 4 10-1.88736493E-02 2.41660398E-02 3.72811900E-02-1.27123273E-04 6.03968055E-03
 4 11-5.91255728E-03 7.79992546E-03-5.88292956E-03-1.40200481E-03 1.27691280E-03
 4 12 6.48510896E-03-7.76202175E-03 6.70111601E-03-5.55026892E-03-2.23939933E-03
 4 13-1.13439288E-03 4.29737408E-03-2.44467497E-03-2.81342942E-03 2.50470508E-03
 4 14 1.81252867E-03 7.75170567E-04-2.90580909E-04-2.95210293E-03 2.13596087E-03
 4 15 1.04603524E-01 1.37639733E-01 1.67517686E-02 8.76829402E-03 5.02291224E-03
 4 16-4.27411664E-03 9.15727685E-03 4.69590131E-03-2.08442004E-03 1.27335643E-03
 4 17-6.29103587E-04-6.44252842E-04 1.37889191E-03-1.19355173E-03-7.21035953E-04
 4 18 1.04512956E-01 1.37553512E-01 1.67468980E-02-2.53759140E-03-1.06620119E-02
 4 19 1.89260671E-04-1.55065070E-03-1.01624238E-02 2.14320767E-03-1.04774543E-03
 4 20 2.22087064E-03-1.17312521E-03 7.03692094E-04 1.10917971E-04-1.13415232E-04
 5  1-1.43038673E-06-1.38804848E-04-4.22969511E-05-1.46452815E-04 9.44993377E-02
 5  2 1.31341970E-01-3.71378952E-02 1.20891886E-01 1.68018912E-01-4.75142385E-02
 5  3 7.15766903E-02 9.94861594E-02-2.81244654E-02-1.43175358E-03 3.33239603E-03
 5  4-1.90064244E-03 2.39452136E-04 3.11222152E-03 3.32977571E-03-3.63745200E-03
 5  5 8.75690509E-03-5.11945309E-03 7.28884316E-04 8.33391047E-03 9.00631642E-03
 5  6-2.60295888E-04-3.01933095E-04-1.64489095E-03-1.38662047E-03-6.63430238E-04
 5  7-1.79643536E-03 2.87028303E-03 2.14565894E-03 1.79170622E-03 8.87539371E-04
 5  8 5.02477357E-07 7.76085841E-05 1.84402894E-05 6.42584817E-06 1.29262939E-01
 5  9 1.79361194E-01-5.10567416E-02 1.61214635E-01 2.23711686E-01-6.36660146E-02
 5 10 5.41528375E-02 7.51844601E-02-2.13528504E-02-7.20117424E-03 7.97589958E-03
 5 11-7.74725342E-04-2.45242915E-03 2.77717487E-03 2.72662070E-04-8.91249131E-03
 5 12 1.03580604E-02-1.44556911E-03-2.83579788E-03 4.14568240E-03 1.23221921E-03
 5 13-1.13587505E-03 3.10018940E-04-1.70391126E-03-1.78290103E-03-2.30270832E-03
 5 14-1.39661199E-03 4.58874516E-03 2.92054829E-03 1.36696698E-03 1.63629140E-04
 5 15-1.17646343E-01-1.75892045E-01-5.49521862E-02-9.56225487E-03-1.59394940E-03
 5 16 6.46799853E-03-1.00242947E-02-2.23817214E-03 3.04741809E-03-1.99462665E-03
 5 17 1.84008212E-03 1.54544537E-04-5.88647314E-04 2.70529384E-03 1.03080706E-03
 5 18 1.17619611E-01 1.75886671E-01 5.49431194E-02 2.66260600E-04-1.13063065E-02
 5 19-2.79777092E-03 7.21498061E-04-1.06809102E-02 6.21581936E-04-1.58974446E-03
 5 20 3.37295051E-03-1.78320605E-03-1.14873333E-04 4.92805803E-04 1.41995059E-03
 6  1-2.44713875E-03-1.58932889E-01-5.07541937E-02-1.77406565E-01-6.09536162E-02
 6  2 1.13655367E-01 2.46230813E-01-7.56460037E-02 1.42604846E-01 3.11076794E-01
 6  3-5.23784891E-02 9.67273811E-02 2.08243052E-01-4.45976444E-03-2.89475782E-03
 6  4 7.35452227E-03-1.77484343E-03-2.99726086E-03 6.39290121E-03-1.34751646E-02
 6  5-8.42050963E-03 2.18956742E-02-5.33828506E-03-9.74460760E-03 1.96204132E-02
 6  6 1.61760836E-03-3.29274085E-03 3.23507664E-03-8.45149495E-04-3.04811160E-03
 6  7-4.97280908E-04-1.29219917E-03-1.67296845E-03 5.26282492E-03-2.51491129E-03
 6  8-4.25006638E-04 5.16833635E-02 1.78441424E-02-6.96566315E-02 7.91005208E-02
 6  9-1.02846012E-01-1.60999718E-01 9.50418988E-02-1.20896990E-01-1.83946384E-01
 6 10 2.32040821E-02-2.24769913E-02-1.99509483E-02-5.45856078E-03-5.92660197E-03
 6 11 1.13851627E-02-6.67792953E-03-2.82920561E-03 9.88488682E-03-6.04889980E-04
 6 12-5.85830580E-03 6.46319578E-03-1.04750718E-02 1.58227362E-03 5.49877430E-03
 6 13-7.06921529E-04 6.75029426E-04-4.02511807E-04 7.30408170E-04 4.18145828E-04
 6 14 3.66802744E-05 1.21880429E-04 9.11754482E-04-1.63605518E-03 1.17544084E-03
 6 15-5.81551663E-02-8.27546552E-02-3.60379493E-02-4.34457914E-03-3.56760277E-03
 6 16 1.29710022E-03-4.63552225E-03-1.03194446E-02-4.07250719E-03-9.11679900E-04
 6 17-4.20041931E-04 1.33172183E-03-1.77764608E-03-1.49494893E-04 1.02137473E-03
 6 18-5.82304570E-02-8.28728012E-02-3.60753996E-02 2.01780894E-03 5.27119102E-03
 6 19-1.21198145E-03 6.62275866E-03 5.31573087E-03-8.51627783E-03 1.77796603E-04
 6 20-1.36741498E-03 1.18961838E-03-1.29828631E-03-1.88647148E-04 1.46597202E-03
 7  1-8.34759021E-04-6.50481235E-03-1.30329997E-03-4.78357488E-03 2.17660396E-01
 7  2-1.30493390E-01 9.23462730E-02 2.81739553E-01-1.68786889E-01 1.19970697E-01
 7  3 2.14501900E-01-1.28211574E-01 9.23799136E-02-2.26698911E-03-2.42218981E-03
 7  4 4.68917892E-03 3.51351781E-03 4.90673706E-03-2.08829940E-03-8.74246824E-03
 7  5-8.89666991E-03 1.76391382E-02 1.32641670E-02 1.76627007E-02-7.32017650E-03
 7  6-2.33070723E-03 1.45141173E-03 3.46531599E-03-1.99095400E-03-1.74314977E-03
 7  7 5.29279290E-04-2.90605950E-03 2.59769259E-03 4.36808271E-05 2.28508898E-03
 7  8 6.99109753E-04 5.86464758E-02 1.34209127E-02 5.05962929E-02 1.22415715E-01
 7  9-5.98328286E-02 9.97564935E-02 1.75730928E-01-8.90817160E-02 1.31939041E-01
 7 10 1.26234393E-01-6.70214930E-02 8.40777736E-02 6.62094522E-03 5.96787547E-03
 7 11-1.25888207E-02-7.21325245E-03-8.90421504E-03 1.95795586E-03 1.35045632E-02
 7 12 1.14599706E-02-2.49645337E-02-1.99546772E-02-2.17219643E-02 8.46323397E-03
 7 13-2.94473085E-03 1.48689681E-04 6.89116369E-03-1.42807290E-03-5.03572233E-03
 7 14 9.65829550E-04-4.20974394E-03 2.98494147E-03 1.22858476E-03 4.71170606E-03
 7 15-3.39575635E-03 5.87877067E-03 8.07021294E-03 2.19216764E-03-1.70260372E-03
 7 16 2.97259898E-03 7.70910850E-03-1.87313458E-03 3.49710828E-03 1.48789306E-03
 7 17-3.11840052E-04-1.17605300E-03-3.52476358E-05 5.31354018E-04 7.26462950E-04
 7 18-3.40761590E-03 5.83992819E-03 8.04189143E-03 3.06400971E-03-4.89988718E-04
 7 19 2.62684427E-03 5.28862553E-03-5.22213221E-03 4.45339126E-03-3.34218733E-04
 7 20 6.17434586E-04-2.83215853E-04-1.10954737E-03-3.58088039E-04-1.23739661E-03
 8  1 6.01967598E-07 8.59338225E-06 2.01631356E-06 5.73309993E-06 1.85498325E-01
 8  2 2.57634074E-01-7.31250230E-02 2.32624799E-01 3.23086201E-01-9.17029351E-02
 8  3 1.95110239E-01 2.70983550E-01-7.69164946E-02-5.30195712E-04 1.48215992E-03
 8  4-9.51964212E-04 1.90916090E-04 1.51479967E-03 1.69465340E-03-2.41778564E-03
 8  5 6.89448999E-03-4.47670434E-03 9.27703834E-04 7.10432891E-03 7.97573845E-03
 8  6 3.85996491E-04-4.43463506E-04-1.42582056E-03-1.14975055E-03 9.10868188E-05
 8  7-2.07199383E-03 1.82185220E-03 1.55412520E-03 1.74471928E-03 1.17745544E-03
 8  8-4.53137013E-06-2.75607198E-05-4.23727892E-06-9.52493685E-05-5.97558318E-02
 8  9-8.29683462E-02 2.35401871E-02-5.76165426E-02-8.00155788E-02 2.26804718E-02
 8 10-2.43707307E-03-3.40253634E-03 9.31510025E-04 1.16453724E-02-1.97685263E-02
 8 11 8.12315394E-03 1.11416720E-03-1.45368203E-02-1.32534368E-02 3.09016546E-03
 8 12-1.46572717E-02 1.15671062E-02-3.61324757E-03-1.76235322E-02-2.10959745E-02
 8 13-1.47319698E-03 3.59427734E-04-2.53241014E-03-2.60330196E-03-3.12333086E-03
 8 14-2.22977235E-03 6.52091558E-03 4.20627350E-03 2.12107905E-03 4.02802781E-04
 8 15 9.05902414E-02 2.04367751E-01 1.16085391E-01 6.00856811E-03 2.52842383E-03
 8 16-3.01182482E-03 1.98483926E-02 7.71783565E-03-8.77798869E-03 1.72039730E-03
 8 17-9.35255418E-04-7.85141886E-04 1.87366774E-03-1.30007512E-03-1.10899189E-03
 8 18-9.06223472E-02-2.04420342E-01-1.16115496E-01 9.38961111E-04 7.11473158E-03
 8 19 2.68928609E-04 2.23606694E-03 2.29342719E-02 5.16986412E-05 1.38409062E-03
 8 20-2.86270781E-03 1.47861720E-03-9.66127287E-04-4.18836317E-04 3.29232420E-04
 9  1 3.17080844E-03 4.94509556E-03 1.94315998E-03 1.16016552E-02-2.06395553E-01
 9  2 1.08499410E-01-1.41364854E-01-2.62205713E-01 1.38384249E-01-1.77665780E-01
 9  3-1.78707796E-01 9.49832641E-02-1.18745294E-01 2.62393699E-04 1.89709421E-04
 9  4-4.52103120E-04 3.07357529E-05 6.06078020E-05-2.83309189E-04-5.38974943E-04
 9  5-3.88342273E-04 9.27317216E-04-2.95626330E-04-3.55254438E-04 8.13601634E-04
 9  6-3.35098997E-05 2.77952961E-05 2.49003405E-05-1.07790341E-05-8.98448374E-06
 9  7 8.08915374E-06-2.44228287E-05 3.68690944E-05-2.65122687E-05 4.26913455E-05
 9  8 3.52460758E-02 2.04344053E-01 4.93394064E-02 1.43611269E-01 2.09385335E-01
 9  9-9.81190178E-02 1.85441868E-01 2.93508993E-01-1.34973680E-01 2.68983953E-01
 9 10 1.94939389E-01-8.90459421E-02 1.80762068E-01-2.42381103E-04-4.99818808E-05
 9 11 2.92362984E-04 5.17274658E-04 2.02711133E-04-1.52135545E-04 1.40688318E-03
 9 12 2.31780944E-03-3.72469262E-03 1.56311089E-03-1.16788175E-03-1.58941509E-03
 9 13 3.87442003E-05 5.65273520E-04-4.60541693E-04-6.71360990E-04 4.73198593E-04
 9 14 2.35870922E-04 1.44682926E-04-2.87851722E-04-8.70330194E-05-1.39118149E-04
 9 15-4.34740767E-02-1.00487819E-01-7.37137569E-02-4.25306915E-04 1.11634989E-04
 9 16 1.15264963E-04-2.84337345E-03-2.17100023E-03 1.99663100E-03-2.57720753E-04
 9 17 1.14771555E-04 1.42949198E-04-4.03710092E-04 2.95113361E-04 2.14357692E-04
 9 18-4.34699337E-02-1.00474599E-01-7.37042487E-02-2.20347298E-04 3.95531352E-04
 9 19 3.46344251E-05 1.46751874E-03 3.81248607E-03 2.93677867E-04 2.52314027E-04
 9 20-5.38032525E-04 2.85718498E-04-2.66435829E-04-3.00837470E-05 3.18503088E-05
10  1 1.71379831E-03-4.51669596E-03 1.35487303E-03 3.01446372E-02 6.25241733E-02
10  2-4.99091370E-02-1.67990326E-02 7.83886334E-02-6.17426910E-02-1.81309961E-02
10  3 5.03492235E-02-3.68250539E-02-1.67922350E-03 5.46925581E-04 2.88464584E-04
10  4-8.35390165E-04 2.47213824E-04 5.40771482E-04-8.80198345E-04-1.53318707E-03
10  5-8.79383393E-04 2.41257046E-03-5.08993664E-04-1.18041052E-03 2.21343940E-03
10  6 1.43521542E-04-9.86728996E-05-1.85041717E-05-6.57892584E-05-4.68627059E-05
10  7 3.07981727E-05 7.16886574E-05-2.23352527E-04 1.98172845E-04-1.18723043E-04
10  8 1.47929601E-01 7.31636553E-01 1.94894168E-01 4.87130695E-01-1.86108040E-01
10  9 1.59312182E-01 8.72936266E-02-2.56508601E-01 2.21646134E-01 1.27689049E-01
10 10-1.79582495E-01 1.55811602E-01 9.17098684E-02-1.34819481E-04-9.90250680E-04
10 11 1.12507016E-03-1.25986924E-03 7.07234479E-04 4.79508501E-04 2.78765622E-03
10 12-1.08823625E-03-1.69941997E-03-1.64610555E-03 5.50741128E-03-4.16855892E-03
10 13 5.46305824E-04-1.49311955E-03 6.61354088E-04 9.98117974E-04-8.75822700E-04
10 14-4.75958124E-04-1.14769190E-05-2.56988051E-04 1.00511212E-03-5.87163035E-04
10 15-2.39543344E-01-4.86483860E-01-3.80610160E-01-4.57517261E-06-2.19977919E-04
10 16-1.10541328E-04 8.27973714E-03 3.81444010E-03-4.53835546E-03 1.11229746E-03
10 17-8.07861025E-04-3.04436432E-04 1.34864248E-03-1.72582071E-03-4.70578827E-04
10 18-2.39868799E-01-4.87134115E-01-3.81083918E-01 1.67632224E-04 2.16586882E-05
10 19-1.78302402E-04-1.69189459E-03-1.00553156E-02-6.10626349E-04-1.36045831E-03
10 20 2.37424280E-03-1.01378449E-03 6.91613028E-04-1.29306962E-04 4.44221533E-04
11  1 2.08198324E-04 1.13007045E-03 3.19102193E-04 8.08495776E-04-6.59207380E-02
11  2-9.08484324E-02 2.66057872E-02-8.43189707E-02-1.16194189E-01 3.40429518E-02
11  3-5.30249106E-02-7.30084621E-02 2.14636901E-02 1.61420353E-04-3.59541614E-04
11  4 1.98121261E-04-2.10483751E-05-3.28912052E-04-3.51279101E-04-4.03054019E-04
11  5 7.25274113E-04-3.22220094E-04-1.59647327E-05 5.74520159E-04 5.79093742E-04
11  6-2.45810259E-05 5.71877785E-05-1.31224281E-04-1.73895945E-04-2.11203158E-04
11  7-2.00547544E-04 3.87259006E-04 2.33526451E-04 9.71704884E-05 2.74138838E-05
11  8-3.73144920E-04-1.76634592E-03-4.14194249E-04-1.21571575E-03 2.65200311E-01
11  9 3.68521616E-01-1.03965353E-01 3.49468483E-01 4.85699776E-01-1.36903321E-01
11 10 2.34277639E-01 3.25593315E-01-9.17596340E-02 2.65719812E-03-3.62527275E-03
11 11 9.68074633E-04 6.20220915E-04-2.02975375E-03-1.39409068E-03 1.06146093E-02
11 12-1.22354153E-02 1.62080598E-03 3.41103847E-03-4.78740271E-03-1.29526800E-03
11 13 4.11514828E-04-1.01683495E-03-7.84091206E-04-7.71960711E-05 1.59281343E-03
11 14-7.82648870E-04-5.40844684E-04 2.30543793E-04 1.44142332E-03 1.13043285E-03
11 15 2.54532467E-01 5.04161239E-01 3.77197985E-01-9.72123783E-05-7.13450589E-04
11 16 5.09596629E-05-1.99872018E-02-6.43297727E-03 1.29218875E-02-2.25411642E-03
11 17 1.71633971E-03 5.37776703E-04-2.24227619E-03 3.52638369E-03 1.20884048E-03
11 18-2.54168371E-01-5.03413106E-01-3.76589161E-01-6.21829790E-04-2.83318364E-04
11 19 2.37436433E-04-2.08060117E-03-2.41948944E-02-4.21433431E-03-2.44137375E-03
11 20 4.66979984E-03-2.22842609E-03 1.13215065E-03 1.43902190E-05 1.16730034E-03
12  1 9.19686342E-02 4.84798736E-01 1.38195203E-01 3.57404975E-01-7.40817694E-02
12  2 1.35935731E-01 2.89601692E-01-9.61364701E-02 1.76677869E-01 3.76802351E-01
12  3-6.97112450E-02 1.26615408E-01 2.68105219E-01 9.93404175E-04 5.45319622E-04
12  4-1.53872380E-03 4.13720215E-04 9.06250154E-04-1.54320659E-03-4.62581023E-03
12  5-2.56172172E-03 7.18753195E-03-1.91191956E-03-4.14694334E-03 7.14767787E-03
12  6 2.73665875E-04-3.90810928E-04 3.15905154E-04-1.50296833E-04-3.63886063E-04
12  7 9.25938249E-06-5.99451757E-05-3.76420683E-04 6.74624714E-04-2.85246965E-04
12  8-9.17340443E-02-4.53417873E-01-9.82072963E-02-3.16730056E-01-9.90530346E-02
12  9 1.63942918E-01 3.31028848E-01-1.44537478E-01 2.40215741E-01 4.85804250E-01
12 10-9.57545063E-02 1.62296589E-01 3.33018808E-01 1.86102780E-03 1.10507997E-03
12 11-2.96610777E-03 9.16680815E-04 1.68428547E-03-2.96397373E-03 2.76451676E-03
12 12 2.04074249E-06-2.76655751E-03-9.89278761E-04 3.87365054E-03-3.78238911E-03
12 13 1.74870161E-03-2.90691052E-03 2.22892184E-03-5.75773311E-04-2.40961613E-03
12 14-3.17605300E-04-5.80796320E-04-2.02852411E-03 4.47580303E-03-2.25429962E-03
12 15-1.20357303E-02-2.16611218E-02-1.22517285E-02 5.20710045E-04 4.98192795E-04
12 16 6.90453136E-04 9.15097752E-04-1.46442932E-05-1.54851946E-03 7.81496000E-04
12 17-2.31584457E-04-5.49911543E-04 5.90404685E-05-3.78809216E-04-7.37000549E-04
12 18-1.07689584E-02-1.91422889E-02-1.03701671E-02-8.66539193E-05-3.46385816E-04
12 19 9.30359491E-04-5.24757989E-05-1.25199617E-03-1.13695010E-03 8.67729673E-05
12 20 8.73771111E-04-9.60544078E-04-4.23012149E-05 3.99215817E-04-7.23491062E-05
13  1 1.82074268E-02 6.94527154E-02 1.82893750E-02-3.47512808E-01-8.25301231E-03
13  2 8.18180234E-03 9.13274464E-03-1.26576283E-02 5.55280259E-04-2.76710813E-02
13  3 4.83268606E-02-5.53988076E-02-7.56170624E-02 2.59080240E-04-7.31007452E-06
13  4-2.51770165E-04 7.17086538E-04 1.14804601E-03-1.15778899E-03 3.30717060E-03
13  5 3.34420858E-03-6.65137917E-03 7.67792707E-03 6.21192009E-03-9.89171267E-03
13  6-6.98745479E-04 4.28854817E-04 5.97444190E-04-1.28425699E-04-1.80291189E-04
13  7-1.82204830E-05-6.21264304E-04 9.55685916E-04-4.46943415E-04 6.12893568E-04
13  8 2.03713574E-03-4.39408666E-02-3.40227996E-02 2.63748579E+00 2.52469563E-02
13  9-1.11835175E-02 2.42382531E-02-4.88115464E-02 6.60862053E-02 1.09108060E-01
13 10-3.59157667E-01 2.30701103E-01-6.70719733E-02 1.98983742E-03 1.22733500E-02
13 11-1.42631874E-02 1.46747622E-02-9.68950455E-03-5.32623066E-03-4.78692296E-02
13 12 8.98680112E-02-4.19987817E-02 1.09906277E-01-1.74072278E-01 6.49333721E-02
13 13-6.06076922E-03 1.70645793E-02-1.33606939E-02-5.69585705E-03 1.46454745E-02
13 14 3.22109254E-03 3.27977736E-03 4.91028264E-03-1.71986785E-02 5.43913564E-03
13 15 8.08533066E-02 3.35104284E-01-1.79416910E+00 1.77204870E-02 1.39235679E-02
13 16-1.34765144E-02-2.56699482E-01-1.92223222E-01 1.51495105E-01-6.81859152E-03
13 17 8.87885749E-04 5.93070577E-03-1.19865781E-02 1.01709183E-02 3.27432857E-03
13 18 8.00138411E-02 3.26879581E-01-1.76173558E+00-9.74928501E-03-2.38074470E-02
13 19-2.55535922E-03 1.22002859E-01 3.30249865E-01 1.15187530E-03 7.06001567E-03
13 20-1.54752981E-02 8.41528247E-03-7.65110736E-03 3.32248375E-03 9.69989470E-04
14  1-1.40321026E-04-5.18885057E-04-1.36182699E-04 2.72831663E-03-2.19460168E-02
14  2-3.06092278E-02 8.60814568E-03-4.19101285E-02-5.82706876E-02 1.67654778E-02
14  3 5.10696879E-02 7.17018313E-02-1.97124004E-02 4.17835640E-05-4.52753211E-04
14  4 4.10969647E-04-1.56805744E-04-6.16226087E-04-7.43207719E-04-5.13185278E-03
14  5 1.33850011E-02-8.25314832E-03 1.42782240E-03 1.32822890E-02 1.47589263E-02
14  6 3.44385707E-05 3.81699254E-04-2.24561582E-04-5.20865105E-04-8.58210651E-04
14  7-6.25897746E-04 1.15949163E-03 5.79693555E-04 8.76181820E-06-6.61306453E-05
14  8-1.30134193E-05 3.34109621E-04 2.77051539E-04-1.84031281E-02 7.48108419E-03
14  9 1.06818266E-02-3.20987679E-03-1.99654611E-03-3.82824450E-03 1.21258961E-04
14 10-5.72917531E-01-8.00050733E-01 2.27755941E-01 1.00066464E-02-1.55733838E-02
14 11 5.56673743E-03 1.48752966E-03-1.02109256E-02-8.51368509E-03 8.05274616E-02
14 12-6.87710305E-02-1.17564311E-02 3.51117625E-02 5.99226549E-04 3.51116370E-02
14 13 3.79359801E-03 4.63307459E-03 2.40471034E-03-1.85661383E-03-5.62950259E-03
14 14-4.35776984E-03 2.40324512E-03-7.31875971E-04-4.35930801E-03-1.71255049E-03
14 15 5.91593819E-02 6.08474645E-01-2.28971579E+00 2.54275723E-02 6.92041652E-03
14 16-1.56312407E-02-1.64375698E-01-7.03961753E-03 1.26097936E-01-7.22048372E-04
14 17 3.11705854E-03-2.39501017E-03-6.06613349E-04 7.08589672E-03 2.93283214E-04
14 18-6.02617286E-02-6.13052835E-01 2.31427719E+00 1.43661115E-03 3.05123632E-02
14 19 5.11811465E-03 1.74183976E-02-1.99268533E-01-6.87735687E-02-3.70302265E-03
14 20 5.12706316E-03-1.42404052E-03 5.86547645E-04-7.40499597E-04 5.88450081E-03
15  1-7.10473838E-02-9.45366054E-02-2.26960899E-02 2.32957933E+00 3.82456755E-02
15  2-5.48905107E-02-9.62554226E-02-1.21380377E-02 1.79085154E-02 3.22522004E-02
15  3-8.22438320E-02 2.28399455E-01 5.96117378E-01-1.32493355E-03-4.23399381E-04
15  4 1.74833293E-03 1.02120329E-03-3.28168014E-04 8.04025565E-04-6.36719146E-02
15  5-4.02866259E-02 1.03958540E-01-3.28307206E-02-5.23305917E-02 9.97406429E-02
15  6 4.88559405E-03-6.82298289E-03 4.92553900E-03-2.43750789E-03-5.71722688E-03
15  7-2.01589597E-04-8.91077129E-04-6.35312265E-03 1.15915000E-02-5.74265590E-03
15  8 3.61411872E-02 1.54494941E-01 8.57961366E-02-2.87785247E-01 9.60460716E-02
15  9-1.13091648E-01-1.54276648E-01 4.65740501E-02 1.48837893E-02 1.70148678E-01
15 10-1.08664978E+00 1.29091739E+00 1.78563638E+00 1.52952359E-05-9.33696661E-04
15 11 9.18401425E-04-1.25545090E-03 8.66064012E-04 2.67499815E-04 2.32920909E-01
15 12 2.38113008E-01-4.71033917E-01 2.02660344E-01 7.32960224E-02-3.55330833E-01
15 13 1.60487127E-02-8.46852641E-03 2.06465130E-02-3.86816848E-02-1.99530728E-02
15 14 1.08992796E-02-7.74713112E-03-3.24308872E-02 5.00434052E-02-1.76561733E-02
15 15 1.77291673E-02-4.19167508E-01-6.40476285E-01-8.20061449E-04 1.20617177E-02
15 16 8.21014152E-03-1.40623538E-01-9.10786791E-02 8.84756777E-02-3.10684943E-03
15 17 2.80659300E-03 3.00256431E-04 2.49463834E-03 9.15421017E-03 6.16698392E-03
15 18 1.77463396E-02-4.19706057E-01-6.41172204E-01-9.04669942E-03 6.39298146E-04
15 19 1.14614138E-02 5.53701609E-02 1.81271852E-01 1.10643354E-02-4.81870389E-04
15 20-7.38200356E-03 7.86387395E-03 3.58109112E-04-2.49648425E-03-7.49361552E-03
16  1-2.85300269E-02-3.97214800E-02-3.98587261E-03 5.85583255E-01-1.93851252E-02
16  2 3.61151451E-03-3.64655623E-02-1.18398504E-02 2.03004207E-03-2.28561882E-02
16  3-2.27011842E-01 1.71767958E-01 2.87069662E-02-3.97868167E-05 2.44343764E-04
16  4-2.04556947E-04-9.56582933E-04-1.54794614E-03 1.26440571E-03 6.18053010E-05
16  5 6.43215524E-03-6.49396054E-03-1.62205818E-02-2.99199858E-02 2.24449765E-02
16  6 1.15116346E-03-7.91068943E-04-1.50960928E-04-5.65167418E-04-3.30615339E-04
16  7 2.05917183E-04 5.33150677E-04-1.75036503E-03 1.62649778E-03-1.06580705E-03
16  8-1.34448062E-02-6.20670185E-02 6.29297797E-03-5.11915035E-01-1.20757929E-01
16  9 4.80642172E-02-1.37062865E-01-5.42974735E-01 2.74382159E-01-4.10060570E-01
16 10 9.50895466E-01-3.75698052E-01 1.09152777E+00-1.51374754E-03 1.04953422E-03
16 11 4.64213318E-04 5.49993375E-03 4.75328341E-04-1.81551850E-03 1.20183359E-02
16 12 2.35177854E-02-3.55361213E-02 6.28252850E-02 2.99040921E-02-5.85761686E-02
16 13 5.19326479E-03-6.21814762E-03 3.29958584E-03 1.01134446E-03-7.82204453E-03
16 14 3.29633649E-03 3.39518559E-03-1.02638324E-02 7.33117599E-03 3.21197321E-03
16 15 5.77040878E-03 1.52537353E-01 3.08204637E-03 7.08069196E-03-2.22745677E-03
16 16 1.06907560E-02-6.29376913E-02 4.82179410E-03-6.57674735E-02-3.05751639E-03
16 17 1.42590933E-03 1.63160706E-03-1.25882189E-03 2.20245381E-03 1.73345336E-03
16 18 5.75382231E-03 1.53166180E-01 3.95477227E-03 7.22465008E-03-2.02421895E-03
16 19 1.06352095E-02-4.33077545E-02 3.18416676E-02-7.35867753E-02 1.21688322E-03
16 20-4.14774818E-03 2.93086496E-03-1.40096021E-04-6.80723735E-04 8.80505072E-06
17  1 4.06918196E-05 4.79267416E-05 1.41745127E-05-1.00273505E-03-4.53770243E-02
17  2-6.29346031E-02 1.79081015E-02-2.12720144E-02-2.95231287E-02 8.36230135E-03
17  3-2.57559462E-01-3.57755604E-01 1.01368384E-01-2.13094970E-03 1.31508698E-03
17  4 8.15862716E-04-1.16329384E-03-7.13290943E-04-1.87443979E-03 2.55043740E-02
17  5-2.08951095E-02-4.60926444E-03 1.17417203E-02 9.37133266E-04 1.26838400E-02
17  6-1.11373949E-03-1.60115917E-03-7.49185831E-04 6.50765187E-04 1.96506823E-03
17  7 1.33936987E-03-9.59929966E-04 1.54868464E-04 1.49741526E-03 6.27937472E-04
17  8-7.69874506E-05-1.65137605E-04-1.23146115E-04-1.01907760E-03-9.77748147E-02
17  9-1.35660594E-01 3.85748392E-02 3.93779287E-01 5.46351065E-01-1.55739288E-01
17 10 2.36253722E+00 3.27812601E+00-9.32677634E-01-7.14959069E-03 1.23094293E-02
17 11-5.15983861E-03-6.12287150E-04 9.18896540E-03 8.48158464E-03-5.43981132E-01
17 12 7.29219644E-01-1.85238512E-01-1.32558185E-01 3.95189497E-01 2.56870126E-01
17 13 7.48441943E-04 3.92757382E-02 2.83332967E-02-1.82854353E-03-5.49737218E-02
17 14 9.46451287E-03 1.69606153E-02-1.04686531E-02-5.08653887E-02-3.43008880E-02
17 15-3.12969602E-02 1.74516881E+00 2.55122197E+00 1.31323415E-02 1.46471857E-02
17 16-1.27300036E-03 5.59352455E-01 2.63817069E-01-3.67969263E-01 2.51962589E-02
17 17-2.07043298E-02-4.49192914E-03 2.85643976E-02-2.94154743E-02-1.83825348E-02
17 18 3.13366229E-02-1.74419288E+00-2.55001473E+00 8.90673148E-03 1.59261369E-02
17 19-7.42892193E-03 1.35322715E-01 7.00439837E-01 9.37425158E-02 2.68788309E-02
17 20-4.88750434E-02 2.19962124E-02-1.57758903E-02-8.04692406E-03-5.72856591E-03
18  1 3.98205853E-02 1.31847890E-02 7.19141817E-03-1.32652953E+00-1.39943243E-03
18  2 1.36544180E-02 4.43622497E-02 3.51681842E-03 1.84322595E-03 1.52480344E-02
18  3 2.40397684E-01-3.68687416E-01-6.87452281E-01-3.09038737E-03 1.28566001E-04
18  4 2.96182137E-03 1.97758548E-03-3.60553075E-03 3.40701367E-03 6.00920663E-02
18  5 1.31028550E-02-7.31949213E-02-1.41300648E-02 5.97873966E-02-7.45603733E-02
18  6-4.73192266E-03 4.15044782E-03-3.33906636E-03 4.45804030E-03 4.95467489E-03
18  7-1.99534152E-03-4.74847274E-04 8.34388196E-03-1.00264504E-02 2.98642309E-03
18  8 1.05437392E-02-1.88012801E-01-1.76511350E-01 7.29547041E+00 2.51142021E-02
18  9-2.75409638E-02-3.31775646E-02-3.79737017E-01 2.46942893E-01-9.05214188E-02
18 10-9.01848868E-01 7.88151379E-01 4.86793673E-01-3.21690166E-03 9.84384619E-03
18 11-6.62694453E-03 1.03895055E-02-1.70887210E-02 5.17205347E-03-4.77613155E-02