!   Y+3(H2)2 cation complex...A test case from Takeshi, May 2009.
!   this one is NOT run by FMO, but rather a straight calculation.
!
!   Geometry optimization is limited to 5 steps to truncate CPU requirement:
!        NSERCH:   0  E=     -175.1533095206  R.M.S.=  0.0198748
!        NSERCH:   1  E=     -175.1658153010  R.M.S.=  0.0112282
!        NSERCH:   2  E=     -175.1720681044  R.M.S.=  0.0121443
!        NSERCH:   3  E=     -175.1739936574  R.M.S.=  0.0127722
!        NSERCH:   4  E=     -175.1770946440  R.M.S.=  0.0047483
!        NSERCH:   5  E=     -175.1756340136  R.M.S.=  0.0117779
!
!   this test takes 39 seconds on 2.66 GHz Cloverton ( 7 Apr 2015)
!
 $CONTRL SCFTYP=RHF ICHARG=+3 RUNTYP=optimize pp=MCP ISPHER=1 $END
 $System MWORDS=5 $End
 $statpt nstep=5 opttol=1d-5 $end

x$fmo    nfrag=3 icharg(1)=3,0,0
         frgnam(1)=frag01,frag02,frag03
         indat(1)=  1, 2, 2, 2,  3, 3, 3
         modgrd=42 RESPAP=0 RESPPC=0 RESDIM=0 $end
x$fmoprp nprint=9 $end
x$fmoxyz
Y 39   0.289862  -0.220320   0.110936
O  8  -1.693142   0.540356  -0.944119
H  1  -1.611926   1.142964  -1.696853
H  1  -2.513216   0.011833  -0.974974
O  8  -1.510977  -1.948669   0.387336
H  1  -1.880133  -2.229923   1.231449
H  1  -1.612506  -2.606588  -0.305078
 $END

the first $DATA is for FMO runs, having only "fake coordinates"
x$data
cation [Y(H2O)2]3+
C1
h      1
      ccd

o.1      8
      ccd

Y.1-1     39
 MCP READ
 s    7
   1      3191.9500000     0.0026491
   2       399.7420000     0.0149180
   3        29.4797000    -0.0778168
   4         3.9074100     0.2417421
   5         0.6522880    -0.3903585
   6         0.3189210    -0.2376773
   7         0.0605090     0.7266523
 s    1
   1         0.0250130     1.0000000
 p    5
   1       325.1830000     0.0214978
   2        67.9496000     0.1046597
   3         6.0805800    -0.3601821
   4         0.7311300     0.7829397
   5         0.2557800     0.3124772
 p    2
   1         0.0850520     0.7663350
   2         0.0329190     0.2841850
 d    3
   1        36.9778000    -0.0329702
   2         8.8107900    -0.0972133
   3         0.7391200     0.3940517
 d    1
   1         0.2156700     1.0000000
 d    1
   1         0.0614000     1.0000000
 f    3
   1         1.4920170     0.0981590
   2         0.3483670     0.4907650
   3         0.1014070     0.6529900

 $end

the 2nd $DATA allows for fully ab initio calculation,
also, comment out all FMO inputs to use this:

 $data
cation [Y(H2O)2]3+
C1
Y 39   0.289862  -0.220320   0.110936
 MCP READ
 s    7
   1      3191.9500000     0.0026491
   2       399.7420000     0.0149180
   3        29.4797000    -0.0778168
   4         3.9074100     0.2417421
   5         0.6522880    -0.3903585
   6         0.3189210    -0.2376773
   7         0.0605090     0.7266523
 s    1
   1         0.0250130     1.0000000
 p    5
   1       325.1830000     0.0214978
   2        67.9496000     0.1046597
   3         6.0805800    -0.3601821
   4         0.7311300     0.7829397
   5         0.2557800     0.3124772
 p    2
   1         0.0850520     0.7663350
   2         0.0329190     0.2841850
 d    3
   1        36.9778000    -0.0329702
   2         8.8107900    -0.0972133
   3         0.7391200     0.3940517
 d    1
   1         0.2156700     1.0000000
 d    1
   1         0.0614000     1.0000000
 f    3
   1         1.4920170     0.0981590
   2         0.3483670     0.4907650
   3         0.1014070     0.6529900

O  8  -1.693142   0.540356  -0.944119
      ccd

H  1  -1.611926   1.142964  -1.696853
      ccd

H  1  -2.513216   0.011833  -0.974974
      ccd

O  8  -1.510977  -1.948669   0.387336
      ccd

H  1  -1.880133  -2.229923   1.231449
      ccd

H  1  -1.612506  -2.606588  -0.305078
      ccd

 $end

 $MCP

  MCP for Y

  Y
  6  4 13  2 10  1  5
      9.00(5F14.7)
     1.4527660     0.8222894     0.2564705   151.5775300    11.7297290
     0.3754446
   182.5430000     9.0361203     1.6516607  3825.0059000    44.2211360
     1.3386849
  0  0  0  1  1  1
  1260.6700000   177.7594000    30.4724000     4.3083780
 33058.6400000  3775.3112000   780.4635800   209.1077200   342.4077600
    37.6433250    15.8086450    29.4695360     4.8394968     2.1167037
     3.6136942     0.6848534     0.2820916
     0.0184144     0.1287837     0.4483323     0.5301393    -0.0043047
     0.0276819     0.0189320     0.0057708    -0.0187822    -0.0077000
     0.0000000     0.0000000     0.0000000
     0.0065991     0.0461519     0.1606676     0.1899845     0.1031637
    -0.6634121    -0.4537159     0.0041690    -0.0135688    -0.0055627
    -0.0010341     0.0031307     0.0013468
     0.0027582     0.0192901     0.0671542     0.0794078     0.0504830
    -0.3246398    -0.2220252    -0.2735295     0.8902563     0.3649706
    -0.0011930     0.0036116     0.0015537
     0.0010154     0.0071011     0.0247209     0.0292317     0.0186023
    -0.1196252    -0.0818132    -0.1309922     0.4263402     0.1747830
     0.2967901    -0.8984989    -0.3865248
   157.8983200    23.8157600
  1061.7592000   227.7997900    69.2314190    23.9780640    11.0514610
     4.4239919     1.8804841     1.0721349     0.4418150     0.1730433
     0.0283953     0.1900033     0.5120395     0.4236629     0.0141956
     0.0209723     0.0058292    -0.0049075    -0.0057239    -0.0014037
     0.0132299     0.0885264     0.2385696     0.1973932    -0.4124650
    -0.6093658    -0.1693711    -0.0014093    -0.0016438    -0.0004031
    12.8174800
   138.9967000    38.2425970    13.3840300     4.9830930     1.8050660
     0.0258552     0.1580709     0.4056704     0.4828548     0.1941097
 $END

! TRAVIS-CI SMALL

! TRAVIS-CI SKIP
