!    test of potentials and basis sets on the Ir4(CO)12 cluster
!    The calculations use the same all-electron 6-31G(d) for C and O.
!
!    FINAL E= 1659.1309107544, 14 iters, RMS grad= 0.000001684
!
!    this test takes 90 seconds on 2.66 GHz Cloverton ( 7 Apr 2015)
!    answers unchanged since 2008
!
!    Compare to crystal structure given by
!    M.R.Churchill, J.P.Hutchinson  Inorg.Chem. 17, 3528-3535(1978)
!    avg r(IrIr)=2.693  avg r(IrC)=1.87  assumed r(CO)=1.14, aIrCO=180
!
!    R.Ros, A.Tassen, R.Scopellito, R.Roulet
!    Inorg.Chim.Acta 358, 2327-2331(2005) solved Ir4(CO)11(NC5H4CH3)
!    with avg IrIr=2.6868, avg Ir-C=1.914, avg CO=1.137, avg IrCO=178.1
!
!    There are a variety of MCP and ECP calculations here, namely
!    4 different DATA and 2 different MCP groups and an ECP group.
!    To use Model Core Potentials, use mcp=read and the appropriate
!    potential (2 choices), and the desired basis set (3 choices).
!    To use Effective core potential, use mcp=read and select the
!    correct basis set and potential group.
!
!               #AOs #MOs  r(IrIr)  r(IrC)  r(CO)   a(IrCO)
!    SBKJC      496  460    2.704   1.964   1.120   179.07 (*)
!    IMCP-SR1   468  432    2.684   1.985   1.118   178.14
!    IMCP-SR2   508  460    2.681   1.980   1.118   178.12
!    MCP-TZP    504  456    2.708   1.961   1.120   178.78
!      these use RHF.  First two are s,p,d metal bases, last two add f's
!    IMCP-SR2 using PBE     2.698   1.902   1.164   179.68
!
!    (*) ECP shown by analytic hessian to be positive definite,
!    with the vibrational spectra running 
!        36.7, 54.0(3), 67.4(2) ... 2372.8(3), 2415.5 cm-1
!    the ECP hessian took 5936 s.conds on 2.66 GHz Cloverton.
!
 $contrl scftyp=rhf mplevl=0 runtyp=gradient pp=mcp ispher=1 $end
 $system mwords=40 $end
 $scf    rstrct=.false. ethrsh=2.0 $end
 $guess  guess=huckel $end
 $cphf   cphf=ao $end
x$mp2    nacore=36 code=ims $end    (400 Mwords/process needed)

----- Ir=IMCP-SR1, C,O=6-31G(d):   RHF
IR         77.0   0.9488831296   0.9488831296   0.9488831296
C           6.0   2.2092984232   0.0748507999   2.2092984232
O           8.0   2.9076750079  -0.4498362390   2.9076750079

----- Ir=IMCP-SR2, C,O=6-31G(d):   RHF
IR         77.0   0.9478003335   0.9478003335   0.9478003335
C           6.0   2.2071293039   0.0827166975   2.2071293039
O           8.0   2.9067837758  -0.4386879419   2.9067837758

----- Ir=IMCP-SR2, C,O=6-31G(d):   using PBE functional
IR         77.0   0.9539900553   0.9539900553   0.9539900553
C           6.0   2.1418175997   0.0608454534   2.1418175997
O           8.0   2.8663262011  -0.4911960171   2.8663262011

----- Ir=IMCP-SR2, C,O=6-31G(d):   using MP2

----- Ir=MCP-TZP, C,O=6-31G(d):    RHF
IR         77.0   0.9572634976   0.9572634976   0.9572634976
C           6.0   2.2004555188   0.0888226053   2.2004555188
O           8.0   2.9027629030  -0.4283651479   2.9027629030

----- Ir=SBKJC, C,O=6-31G(d):
IR         77.0   0.9560166271   0.9560166271   0.9560166271
C           6.0   2.1983815115   0.0777973462   2.1983815115
O           8.0   2.9006875792  -0.4389520170   2.9006875792


 $data
Ir4(CO)12 cluster...IMCP-SR1 basis set on Ir
Td

IR         77.0   0.9488831296   0.9488831296   0.9488831296
   mcp read
 S   5
 1   1811.73934     -0.110607380E-01
 2   160.065632      0.500572070E-01
 3   26.9096550     -0.161418322
 4   6.16636332      0.328256792
 5  0.969123580     -0.603000252
  S   1
 6  0.101676950      0.744814142
  S   1
 7  0.379760300E-01  0.397376868
  P   6
 1   1085.95048     -0.194251962E-01
 2   301.006049     -0.705106219E-01
 3   41.4491031      0.254291895
 4   7.27726577     -0.570336712
 5   1.21829057      0.827311503
 6  0.446988120      0.302973227
  P   1
 1  0.110862650      0.986736420
  D   4
 1   103.654307      0.924592109E-01
 2   8.57525457     -0.251370760
 3   1.29788591      0.410420284
 4  0.530583440      0.429429498
  D   1
 5  0.213315020      0.299435354
  D   1
 6  0.816659200E-01  0.771839225E-01

C           6.0   2.2092984232   0.0748507999   2.2092984232
 n31 6
 d 1 ; 1 0.8 1.0

O           8.0   2.9076750079  -0.4498362390   2.9076750079
 n31 6
 d 1 ; 1 0.8 1.0

 $end

--- $data
Ir4(CO)12 cluster...IMCP-SR2 basis set on Ir
Td

IR         77.0   0.9478003335   0.9478003335   0.9478003335
   mcp read
  S   5
 1   1811.73934     -0.110607380E-01
 2   160.065632      0.500572070E-01
 3   26.9096550     -0.161418322    
 4   6.16636332      0.328256792    
 5  0.969123580     -0.603000252    
  S   1
 6  0.101676950      0.744814142    
  S   1
 7  0.379760300E-01  0.397376868    
  P   6
 1   1085.95048     -0.194251962E-01
 2   301.006049     -0.705106219E-01
 3   41.4491031      0.254291895    
 4   7.27726577     -0.570336712    
 5   1.21829057      0.827311503    
 6  0.446988120      0.302973227    
  D   4
 1   103.654307      0.924592109E-01
 2   8.57525457     -0.251370760    
 3   1.29788591      0.410420284    
 4  0.530583440      0.429429498    
  D   1
 5  0.213315020      0.299435354    
  D   1
 6  0.816659200E-01  0.771839225E-01
  P   2
 1  0.137070550      0.773243580    
 2  0.435480900E-01  0.290123640    
  F   1
 1  0.859348570      0.923558460    

C           6.0   2.2071293039   0.0827166975   2.2071293039
 n31 6
 d 1 ; 1 0.8 1.0

O           8.0   2.9067837758  -0.4386879419   2.9067837758
 n31 6
 d 1 ; 1 0.8 1.0

 $end

! IMCP-SR1 aka IMCP-SR2 potential...62 e-...QR (5P/6S/5D) from P(6)S(1)D(8)
! That is to say, use this potential with either SR1 or SR2 basis set.
! C C Lovallo and M Klobukowski J Comput Chem 25 (2004) 1206-1213
 $mcp
IR iMCP-sr1
  6  5 20  3 18  2 16  1 12  0  0  0  0
     15.00(4D15.8)
  2.4767260      .77183266      .12762574E-01  674.46356
  13.648947      .17234415
  138.42338      3.3881127      .28574198      11374.242
  30.019743      3.6733143
  0  0  0  1  1  1
  5645.1298      998.45452      238.10516      53.181706
  8.2905472
  127789.30      47823.634      19394.076      8404.2078
  3841.4461      1830.8483      900.90061      453.96052
  232.72071      120.76021      63.186663      33.245073
  17.553763      9.2889135      4.9217725      2.6097127
  1.3842960      .73442114      .38966943      .20675729
  .52139327D-01 -.29637107D-01  .15269719D+00  .34239799D-01
  .33200697D+00  .19368348D+00  .36900176D+00  .39117015D-01
  .54411163D-01 -.11944872D-01  .00000000D+00  .00000000D+00
  .00000000D+00  .00000000D+00  .00000000D+00  .00000000D+00
  .00000000D+00  .00000000D+00  .00000000D+00  .00000000D+00
 -.21845453D-01  .11847367D-01 -.65725722D-01 -.19446652D-01
 -.15849668D+00 -.11979457D+00 -.22569503D+00  .54990518D-01
  .35095322D+00  .56325156D+00  .17416821D+00  .25379479D-01
 -.34200756D-02  .00000000D+00  .00000000D+00  .00000000D+00
  .00000000D+00  .00000000D+00  .00000000D+00  .00000000D+00
  .10601319D-01 -.57031929D-02  .32034970D-01  .98952905D-02
  .78651526D-01  .62343390D-01  .11760006D+00 -.40246866D-01
 -.30129491D+00 -.60237422D+00 -.70019372D-01  .78921995D+00
  .50796526D+00  .46657567D-01  .44312914D-02  .00000000D+00
  .00000000D+00  .00000000D+00  .00000000D+00  .00000000D+00
 -.52724981D-02  .28288804D-02 -.15944607D-01 -.49990814D-02
 -.39296785D-01 -.31676452D-01 -.59331061D-01  .21472653D-01
  .17382526D+00  .36521242D+00  .41700030D-01 -.86371792D+00
 -.67520999D+00  .67671236D+00  .79547390D+00  .15062112D+00
  .36286753D-02  .13418068D-02  .00000000D+00  .00000000D+00
  .22234371D-02 -.11913388D-02  .67224158D-02  .21253517D-02
  .16568288D-01  .13481200D-01  .24996577D-01 -.89805214D-02
 -.76392291D-01 -.16089099D+00 -.20596436D-01  .44653741D+00
  .35319725D+00 -.47554435D+00 -.87748552D+00 -.36578898D-01
  .77033966D+00  .52989692D+00  .10412062D+00  .82893558D-02
  870.05942      199.78181      40.350738
  47823.634      19394.076      8404.2078      3841.4461
  1830.8483      900.90061      453.96052      232.72071
  120.76021      63.186663      33.245073      17.553763
  9.2889135      4.9217725      2.6097127      1.3842960
  .73442114      .38966943
  .10846744D-02  .13549771D-02  .73342707D-02  .18472845D-01
  .53807732D-01  .12634631D+00  .25128349D+00  .35245261D+00
  .28089788D+00  .88090773D-01  .69956391D-02 -.24952340D-03
  .00000000D+00  .00000000D+00  .00000000D+00  .00000000D+00
  .00000000D+00  .00000000D+00
 -.57353286D-03 -.71738019D-03 -.39219265D-02 -.99291653D-02
 -.29577314D-01 -.71289193D-01 -.14883517D+00 -.21508223D+00
 -.11220691D+00  .28405380D+00  .55701064D+00  .27390860D+00
  .34272090D-01  .20353609D-02  .00000000D+00  .00000000D+00
  .00000000D+00  .00000000D+00
  .28439463D-03  .35540888D-03  .19505052D-02  .49388054D-02
  .14806549D-01  .35884473D-01  .75925103D-01  .11048752D+00
  .46716919D-01 -.22119757D+00 -.46175986D+00 -.54331236D-01
  .56305217D+00  .50565208D+00  .11802248D+00  .83818670D-02
  .19104231D-03  .24280410D-03
  156.14292      24.039268
  8404.2078      3841.4461      1830.8483      900.90061
  453.96052      232.72071      120.76021      63.186663
  33.245073      17.553763      9.2889135      4.9217725
  2.6097127      1.3842960      .73442114      .38966943
  .16255041D-03  .46251216D-03  .22976873D-02  .89208355D-02
  .31031069D-01  .92653791D-01  .21503553D+00  .35409324D+00
  .34132934D+00  .14652520D+00  .23001448D-01  .13757018D-02
  .26321284D-03  .00000000D+00  .00000000D+00  .00000000D+00
 -.81640938D-04 -.24451556D-03 -.11620324D-02 -.46642260D-02
 -.16079036D-01 -.49335923D-01 -.11488206D+00 -.18590418D+00
 -.12263385D+00  .18055805D+00  .44080880D+00  .37970839D+00
  .13742571D+00  .19770874D-01  .11690084D-02  .20930871D-03
  5.8479606
  900.90061      453.96052      232.72071      120.76021
  63.186663      33.245073      17.553763      9.2889135
  4.9217725      2.6097127      1.3842960      .73442114
  .20858191D-03  .81323078D-03  .38977175D-02  .16431907D-01
  .51835261D-01  .13414932D+00  .24504765D+00  .31608220D+00
  .29006512D+00  .19259439D+00  .76029499D-01  .27847853D-01
          
 $end          

--- $data
Ir4(CO)12 cluster...the MCP-TZP of Osanai, et al JCP 2004
Td

IR         77.0   0.9572634976   0.9572634976   0.9572634976
   mcp read
  s    7
    1      2458.6300000   -0.00245840
    2       151.5690000    0.04400080
    3        28.3161000   -0.15535940
    4         5.7452600    0.36139730
    5         1.3372300   -0.30306020
    6         0.7701200   -0.36148660
    7         0.1163600    0.66767350
  s    1
    1         0.0434000    1.00000000
  p    6
    1      1654.1400000   -0.01423450
    2       338.3470000   -0.07319620
    3        40.7638000    0.27132880
    4         7.3179100   -0.56539490
    5         1.2124900    0.83080490
    6         0.4439600    0.29736300
  p    4
    1         6.6294280   -0.01752100
    2         1.3175520    0.18847500
    3         0.2240720   -0.73980100
    4         0.0891040   -0.36825600
  d    4
    1       296.4180000    0.01688210
    2        78.2767000    0.07684060
    3         9.0688000   -0.24366770
    4         1.1671000    0.51102980
  d    1
    1         0.4065580    1.00000000
  d    1
    1         0.1291290    1.00000000
  f    5
    1        96.9441200   -0.01700500
    2        26.4235200   -0.09496700
    3         8.4706090   -0.17054400
    4         0.9312550    0.57179200
    5         0.3204020    0.54762900

C           6.0   2.2004555188   0.0888226053   2.2004555188
 n31 6
 d 1 ; 1 0.8 1.0

O           8.0   2.9027629030  -0.4283651479   2.9027629030
 n31 6
 d 1 ; 1 0.8 1.0

 $end

--- $mcp
*     this is the MCP-TZP potential from Sapporo
  Ir
  6  5 14  3 10  2  7  1  4
     15.00(5F14.7)
     2.0521808     1.1368056     0.2698307    60.1606420    14.1490620
     0.2878179
   292.3991100     8.3177050     2.6085279  2429.0826000    52.0342260
     2.3395685
  0  0  0  1  1  1
  3951.1496000   698.8451400   166.6501200    37.2149400     5.7947400
400907.1600000 31706.4290000  5026.4466000  1126.6412000  2142.8516000
   213.7918000    93.1417390   167.7403000    28.2967100    11.6924300
     6.7116086     2.8802248     1.1657129     0.4524959
     0.0188418     0.1083474     0.4003055     0.5990094    -0.0054342
     0.0450131     0.0403324     0.0111935    -0.0369100    -0.0091029
     0.0000000     0.0000000     0.0000000     0.0000000
     0.0076780     0.0441513     0.1631236     0.2440950     0.0660929
    -0.5360950    -0.5730727     0.0096486    -0.0318156    -0.0078465
     0.0069446     0.0019726     0.0000000     0.0000000
     0.0036896     0.0212166     0.0783880     0.1172983     0.0377393
    -0.3061124    -0.3272268    -0.3039934     1.0571371     0.2633746
    -0.0135649    -0.0038531     0.0026250     0.0006629
     0.0019579     0.0112585     0.0415962     0.0622437     0.0112612
    -0.0913420    -0.0976424    -0.3271444     1.1376449     0.2834323
    -1.2641219    -0.3164597     0.0014067     0.0003552
     0.0008530     0.0049048     0.0181215     0.0271166     0.0031783
    -0.0257796    -0.0275578    -0.1689363     0.5874760     0.1463635
    -1.0916952    -0.2732945     1.1370434     0.2804831
   609.0352800   139.8392800    28.2371600
  6715.6388000  1325.4077000   387.7726400   133.7590000    60.0037080
    23.8277840    10.5311780     4.3132418     1.5520898     0.5429141
     0.0224997     0.1540355     0.4705676     0.4820933     0.0320173
     0.0401998    -0.0109230    -0.0097058     0.0000000     0.0000000
     0.0125833     0.0861464     0.2631711     0.2696170    -0.5132339
    -0.6443983    -0.0314637    -0.0279576     0.0076149     0.0053102
     0.0063199     0.0432666     0.1321765     0.1354139    -0.3907078
    -0.4905588     0.6817723     0.6057997     0.0141005     0.0098329
   109.2920100    16.8190400
   637.7161400   175.1807900    62.1207870    23.8603090    20.3490130
     8.0581726     3.0908006
     0.0383670     0.2355305     0.5398357     0.3695585     0.0074126
     0.0195209     0.0100855
     0.0198882     0.1220915     0.2798336     0.1915673    -0.2968133
    -0.6580269    -0.3239451
     4.0850950
    68.5101910    20.1014730     6.6891382     2.0843984
     0.1000231     0.3900237     0.5500236     0.2969191

 $end

--- $data
Ir4(CO)12 using SBKJC for Ir atoms
Td

IR         77.0   0.9560166271   0.9560166271   0.9560166271
  sbkjc

C           6.0   2.1983815115   0.0777973462   2.1983815115
 n31 6
 d 1 ; 1 0.8 1.0

O           8.0   2.9006875792  -0.4389520170   2.9006875792
 n31 6
 d 1 ; 1 0.8 1.0

 $end

!     caution, change to pp=read to use this input group.
--- $ecp 
Ir-ecp sbkjc
Ir-ecp sbkjc
Ir-ecp sbkjc
Ir-ecp sbkjc
C-ecp none
C-ecp none
C-ecp none
C-ecp none
C-ecp none
C-ecp none
C-ecp none
C-ecp none
C-ecp none
C-ecp none
C-ecp none
C-ecp none
O-ecp none
O-ecp none
O-ecp none
O-ecp none
O-ecp none
O-ecp none
O-ecp none
O-ecp none
O-ecp none
O-ecp none
O-ecp none
O-ecp none
 $end

--- $GRAD  
E=    -1769.0106941292  GMAX=   0.0000035  GRMS=   0.0000029
IR          77.   -2.9483445627E-06    2.9483445612E-06    2.9483445628E-06
IR          77.    2.9483445627E-06   -2.9483445612E-06    2.9483445628E-06
IR          77.    2.9483445627E-06    2.9483445612E-06   -2.9483445628E-06
IR          77.   -2.9483445627E-06   -2.9483445612E-06   -2.9483445628E-06
C            6.   -1.7151538383E-06    3.5028658127E-06    1.7151538389E-06
C            6.    1.7151538383E-06   -3.5028658127E-06    1.7151538389E-06
C            6.    1.7151538383E-06    3.5028658127E-06   -1.7151538389E-06
C            6.   -1.7151538389E-06   -1.7151538383E-06   -3.5028658127E-06
C            6.    1.7151538389E-06   -1.7151538383E-06    3.5028658127E-06
C            6.    1.7151538389E-06    1.7151538383E-06   -3.5028658127E-06
C            6.   -1.7151538389E-06    1.7151538383E-06    3.5028658127E-06
C            6.   -3.5028658127E-06   -1.7151538389E-06   -1.7151538383E-06
C            6.    3.5028658127E-06    1.7151538389E-06   -1.7151538383E-06
C            6.   -3.5028658127E-06    1.7151538389E-06    1.7151538383E-06
C            6.    3.5028658127E-06   -1.7151538389E-06    1.7151538383E-06
C            6.   -1.7151538383E-06   -3.5028658127E-06   -1.7151538389E-06
O            8.   -3.2939104860E-06   -2.9162927696E-06    3.2939104848E-06
O            8.    3.2939104860E-06    2.9162927696E-06    3.2939104848E-06
O            8.    3.2939104860E-06   -2.9162927696E-06   -3.2939104848E-06
O            8.   -3.2939104848E-06   -3.2939104860E-06    2.9162927696E-06
O            8.    3.2939104848E-06   -3.2939104860E-06   -2.9162927696E-06
O            8.    3.2939104848E-06    3.2939104860E-06    2.9162927696E-06
O            8.   -3.2939104848E-06    3.2939104860E-06   -2.9162927696E-06
O            8.    2.9162927696E-06   -3.2939104848E-06   -3.2939104860E-06
O            8.   -2.9162927696E-06    3.2939104848E-06   -3.2939104860E-06
O            8.    2.9162927696E-06    3.2939104848E-06    3.2939104860E-06
O            8.   -2.9162927696E-06   -3.2939104848E-06    3.2939104860E-06
O            8.   -3.2939104860E-06    2.9162927696E-06   -3.2939104848E-06
 $END
--- $HESS
ENERGY IS    -1769.0106941292 E(NUC) IS     3675.7189263030
 1  1 3.17195334E-01-2.07705717E-02-2.07705717E-02-4.40356989E-02 1.70598682E-02
 1  2-3.25336672E-03-4.40356989E-02-3.25336672E-03 1.70598682E-02-3.85735198E-03
 1  3 3.25336672E-03 3.25336672E-03-5.64856086E-02-1.85118950E-03-1.64211765E-03
 1  4-1.98694581E-03 5.82573146E-03 3.39044025E-03-6.37560926E-03 1.83283079E-03
 1  5 1.24720042E-02-8.59654916E-03-1.44317333E-02 4.00478467E-03-6.37560926E-03
 1  6 1.24720042E-02 1.83283079E-03-1.98694581E-03 3.39044025E-03 5.82573146E-03
 1  7-5.64856086E-02-1.64211765E-03-1.85118950E-03-1.90434106E-03 1.41762310E-03
 1  8 1.41762310E-03-2.73990167E-03 4.06146970E-03-4.39042051E-03-5.53020512E-02
 1  9-2.55138514E-03-2.55138514E-03-2.73990167E-03-4.39042051E-03 4.06146970E-03
 1 10-8.59654916E-03 4.00478467E-03-1.44317333E-02-1.74127761E-02-2.53212229E-02
 1 11 3.72667051E-02 1.74932412E-03-1.42488062E-03-5.08497664E-04-1.02624484E-03
 1 12 2.05937140E-03-7.25598092E-04 6.77956140E-03 8.52795145E-03-4.37774776E-03
 1 13-1.02624484E-03-7.25598092E-04 2.05937140E-03 1.74932412E-03-5.08497664E-04
 1 14-1.42488062E-03-1.74127761E-02 3.72667051E-02-2.53212229E-02-2.49642943E-03
 1 15 3.82834843E-03 3.82834843E-03 1.82965665E-03-2.79069683E-03 2.49675485E-03
 1 16 2.96301499E-03-2.34600672E-02-2.34600672E-02 1.82965665E-03 2.49675485E-03
 1 17-2.79069683E-03 6.77956140E-03-4.37774776E-03 8.52795145E-03
 2  1-2.07705717E-02 3.17195334E-01 2.07705717E-02 1.70598682E-02-4.40356989E-02
 2  2 3.25336672E-03 3.25336672E-03-3.85735198E-03-3.25336672E-03-3.25336672E-03
 2  3-4.40356989E-02-1.70598682E-02-2.55138514E-03-5.53020512E-02 2.55138514E-03
 2  4-4.39042051E-03-2.73990167E-03-4.06146970E-03 1.41762310E-03-1.90434106E-03
 2  5-1.41762310E-03 3.39044025E-03-1.98694581E-03-5.82573146E-03 1.24720042E-02
 2  6-6.37560926E-03-1.83283079E-03-1.44317333E-02-8.59654916E-03-4.00478467E-03
 2  7-1.64211765E-03-5.64856086E-02 1.85118950E-03 1.83283079E-03-6.37560926E-03
 2  8-1.24720042E-02 4.00478467E-03-8.59654916E-03 1.44317333E-02-1.85118950E-03
 2  9-5.64856086E-02 1.64211765E-03 5.82573146E-03-1.98694581E-03-3.39044025E-03
 2 10 4.06146970E-03-2.73990167E-03 4.39042051E-03-2.34600672E-02 2.96301499E-03
 2 11 2.34600672E-02 2.49675485E-03 1.82965665E-03 2.79069683E-03 3.82834843E-03
 2 12-2.49642943E-03-3.82834843E-03-5.08497664E-04 1.74932412E-03 1.42488062E-03
 2 13-7.25598092E-04-1.02624484E-03-2.05937140E-03 8.52795145E-03 6.77956140E-03
 2 14 4.37774776E-03 3.72667051E-02-1.74127761E-02 2.53212229E-02 2.05937140E-03
 2 15-1.02624484E-03 7.25598092E-04-4.37774776E-03 6.77956140E-03-8.52795145E-03
 2 16-2.53212229E-02-1.74127761E-02-3.72667051E-02-1.42488062E-03 1.74932412E-03
 2 17 5.08497664E-04-2.79069683E-03 1.82965665E-03-2.49675485E-03
 3  1-2.07705717E-02 2.07705717E-02 3.17195334E-01 3.25336672E-03-3.25336672E-03
 3  2-3.85735198E-03 1.70598682E-02 3.25336672E-03-4.40356989E-02-3.25336672E-03
 3  3-1.70598682E-02-4.40356989E-02-1.64211765E-03 1.85118950E-03-5.64856086E-02
 3  4-1.44317333E-02-4.00478467E-03-8.59654916E-03 1.24720042E-02-1.83283079E-03
 3  5-6.37560926E-03 4.06146970E-03 4.39042051E-03-2.73990167E-03 1.41762310E-03
 3  6-1.41762310E-03-1.90434106E-03-4.39042051E-03-4.06146970E-03-2.73990167E-03
 3  7-2.55138514E-03 2.55138514E-03-5.53020512E-02 1.83283079E-03-1.24720042E-02
 3  8-6.37560926E-03 5.82573146E-03-3.39044025E-03-1.98694581E-03-1.85118950E-03
 3  9 1.64211765E-03-5.64856086E-02 4.00478467E-03 1.44317333E-02-8.59654916E-03
 3 10 3.39044025E-03-5.82573146E-03-1.98694581E-03 3.72667051E-02 2.53212229E-02
 3 11-1.74127761E-02 8.52795145E-03 4.37774776E-03 6.77956140E-03-7.25598092E-04
 3 12-2.05937140E-03-1.02624484E-03-2.79069683E-03-2.49675485E-03 1.82965665E-03
 3 13 3.82834843E-03-3.82834843E-03-2.49642943E-03 2.49675485E-03 2.79069683E-03
 3 14 1.82965665E-03-2.34600672E-02 2.34600672E-02 2.96301499E-03 2.05937140E-03
 3 15 7.25598092E-04-1.02624484E-03-1.42488062E-03 5.08497664E-04 1.74932412E-03
 3 16-2.53212229E-02-3.72667051E-02-1.74127761E-02-4.37774776E-03-8.52795145E-03
 3 17 6.77956140E-03-5.08497664E-04 1.42488062E-03 1.74932412E-03
 4  1-4.40356989E-02 1.70598682E-02 3.25336672E-03 3.17195334E-01-2.07705717E-02
 4  2 2.07705717E-02-3.85735198E-03 3.25336672E-03-3.25336672E-03-4.40356989E-02
 4  3-3.25336672E-03-1.70598682E-02-1.98694581E-03 5.82573146E-03-3.39044025E-03
 4  4-5.64856086E-02-1.85118950E-03 1.64211765E-03-8.59654916E-03 4.00478467E-03
 4  5 1.44317333E-02-1.98694581E-03 3.39044025E-03-5.82573146E-03-5.64856086E-02
 4  6-1.64211765E-03 1.85118950E-03-8.59654916E-03-1.44317333E-02-4.00478467E-03
 4  7-6.37560926E-03 1.24720042E-02-1.83283079E-03-2.73990167E-03 4.06146970E-03
 4  8 4.39042051E-03-1.90434106E-03 1.41762310E-03-1.41762310E-03-2.73990167E-03
 4  9-4.39042051E-03-4.06146970E-03-5.53020512E-02-2.55138514E-03 2.55138514E-03
 4 10-6.37560926E-03 1.83283079E-03-1.24720042E-02 1.74932412E-03-1.42488062E-03
 4 11 5.08497664E-04-1.74127761E-02-2.53212229E-02-3.72667051E-02 6.77956140E-03
 4 12-4.37774776E-03-8.52795145E-03 1.74932412E-03-5.08497664E-04 1.42488062E-03
 4 13-1.74127761E-02 3.72667051E-02 2.53212229E-02 6.77956140E-03 8.52795145E-03
 4 14 4.37774776E-03-1.02624484E-03-7.25598092E-04-2.05937140E-03 1.82965665E-03
 4 15-2.79069683E-03-2.49675485E-03-2.49642943E-03 3.82834843E-03-3.82834843E-03
 4 16 1.82965665E-03 2.49675485E-03 2.79069683E-03 2.96301499E-03-2.34600672E-02
 4 17 2.34600672E-02-1.02624484E-03 2.05937140E-03 7.25598092E-04
 5  1 1.70598682E-02-4.40356989E-02-3.25336672E-03-2.07705717E-02 3.17195334E-01
 5  2-2.07705717E-02-3.25336672E-03-4.40356989E-02 1.70598682E-02 3.25336672E-03
 5  3-3.85735198E-03 3.25336672E-03-4.39042051E-03-2.73990167E-03 4.06146970E-03
 5  4-2.55138514E-03-5.53020512E-02-2.55138514E-03 4.06146970E-03-2.73990167E-03
 5  5-4.39042051E-03-1.44317333E-02-8.59654916E-03 4.00478467E-03-1.64211765E-03
 5  6-5.64856086E-02-1.85118950E-03 3.39044025E-03-1.98694581E-03 5.82573146E-03
 5  7 1.24720042E-02-6.37560926E-03 1.83283079E-03 4.00478467E-03-8.59654916E-03
 5  8-1.44317333E-02 1.83283079E-03-6.37560926E-03 1.24720042E-02 5.82573146E-03
 5  9-1.98694581E-03 3.39044025E-03-1.85118950E-03-5.64856086E-02-1.64211765E-03
 5 10 1.41762310E-03-1.90434106E-03 1.41762310E-03 2.49675485E-03 1.82965665E-03
 5 11-2.79069683E-03-2.34600672E-02 2.96301499E-03-2.34600672E-02-2.79069683E-03
 5 12 1.82965665E-03 2.49675485E-03 8.52795145E-03 6.77956140E-03-4.37774776E-03
 5 13 3.72667051E-02-1.74127761E-02-2.53212229E-02-5.08497664E-04 1.74932412E-03
 5 14-1.42488062E-03-7.25598092E-04-1.02624484E-03 2.05937140E-03-4.37774776E-03
 5 15 6.77956140E-03 8.52795145E-03 2.05937140E-03-1.02624484E-03-7.25598092E-04
 5 16-1.42488062E-03 1.74932412E-03-5.08497664E-04-2.53212229E-02-1.74127761E-02
 5 17 3.72667051E-02 3.82834843E-03-2.49642943E-03 3.82834843E-03
 6  1-3.25336672E-03 3.25336672E-03-3.85735198E-03 2.07705717E-02-2.07705717E-02
 6  2 3.17195334E-01 3.25336672E-03 1.70598682E-02-4.40356989E-02-1.70598682E-02
 6  3-3.25336672E-03-4.40356989E-02 1.44317333E-02 4.00478467E-03-8.59654916E-03
 6  4 1.64211765E-03-1.85118950E-03-5.64856086E-02-3.39044025E-03 5.82573146E-03
 6  5-1.98694581E-03 4.39042051E-03 4.06146970E-03-2.73990167E-03 2.55138514E-03
 6  6-2.55138514E-03-5.53020512E-02-4.06146970E-03-4.39042051E-03-2.73990167E-03
 6  7-1.41762310E-03 1.41762310E-03-1.90434106E-03-5.82573146E-03 3.39044025E-03
 6  8-1.98694581E-03-1.83283079E-03 1.24720042E-02-6.37560926E-03-4.00478467E-03
 6  9-1.44317333E-02-8.59654916E-03 1.85118950E-03-1.64211765E-03-5.64856086E-02
 6 10-1.24720042E-02 1.83283079E-03-6.37560926E-03-8.52795145E-03-4.37774776E-03
 6 11 6.77956140E-03-3.72667051E-02-2.53212229E-02-1.74127761E-02 5.08497664E-04
 6 12-1.42488062E-03 1.74932412E-03-2.49675485E-03-2.79069683E-03 1.82965665E-03
 6 13 2.34600672E-02-2.34600672E-02 2.96301499E-03 2.79069683E-03 2.49675485E-03
 6 14 1.82965665E-03-3.82834843E-03 3.82834843E-03-2.49642943E-03 1.42488062E-03
 6 15-5.08497664E-04 1.74932412E-03-2.05937140E-03-7.25598092E-04-1.02624484E-03
 6 16 4.37774776E-03 8.52795145E-03 6.77956140E-03 2.53212229E-02 3.72667051E-02
 6 17-1.74127761E-02 7.25598092E-04 2.05937140E-03-1.02624484E-03
 7  1-4.40356989E-02 3.25336672E-03 1.70598682E-02-3.85735198E-03-3.25336672E-03
 7  2 3.25336672E-03 3.17195334E-01 2.07705717E-02-2.07705717E-02-4.40356989E-02
 7  3-1.70598682E-02-3.25336672E-03-6.37560926E-03-1.83283079E-03 1.24720042E-02
 7  4-8.59654916E-03-4.00478467E-03-1.44317333E-02-5.64856086E-02 1.85118950E-03
 7  5-1.64211765E-03-6.37560926E-03-1.24720042E-02 1.83283079E-03-8.59654916E-03
 7  6 1.44317333E-02 4.00478467E-03-5.64856086E-02 1.64211765E-03-1.85118950E-03
 7  7-1.98694581E-03-3.39044025E-03 5.82573146E-03-2.73990167E-03 4.39042051E-03
 7  8 4.06146970E-03-5.53020512E-02 2.55138514E-03-2.55138514E-03-2.73990167E-03
 7  9-4.06146970E-03-4.39042051E-03-1.90434106E-03-1.41762310E-03 1.41762310E-03
 7 10-1.98694581E-03-5.82573146E-03 3.39044025E-03-1.02624484E-03-2.05937140E-03
 7 11-7.25598092E-04 6.77956140E-03 4.37774776E-03 8.52795145E-03-1.74127761E-02
 7 12 2.53212229E-02 3.72667051E-02-1.02624484E-03 7.25598092E-04 2.05937140E-03
 7 13 6.77956140E-03-8.52795145E-03-4.37774776E-03-1.74127761E-02-3.72667051E-02
 7 14-2.53212229E-02 1.74932412E-03 5.08497664E-04-1.42488062E-03 1.82965665E-03
 7 15-2.49675485E-03-2.79069683E-03 2.96301499E-03 2.34600672E-02-2.34600672E-02
 7 16 1.82965665E-03 2.79069683E-03 2.49675485E-03-2.49642943E-03-3.82834843E-03
 7 17 3.82834843E-03 1.74932412E-03 1.42488062E-03-5.08497664E-04
 8  1-3.25336672E-03-3.85735198E-03 3.25336672E-03 3.25336672E-03-4.40356989E-02
 8  2 1.70598682E-02 2.07705717E-02 3.17195334E-01-2.07705717E-02-1.70598682E-02
 8  3-4.40356989E-02-3.25336672E-03-1.41762310E-03-1.90434106E-03 1.41762310E-03
 8  4-4.06146970E-03-2.73990167E-03-4.39042051E-03 2.55138514E-03-5.53020512E-02
 8  5-2.55138514E-03-1.24720042E-02-6.37560926E-03 1.83283079E-03-3.39044025E-03
 8  6-1.98694581E-03 5.82573146E-03 1.64211765E-03-5.64856086E-02-1.85118950E-03
 8  7 1.44317333E-02-8.59654916E-03 4.00478467E-03-5.82573146E-03-1.98694581E-03
 8  8 3.39044025E-03 1.85118950E-03-5.64856086E-02-1.64211765E-03-4.00478467E-03
 8  9-8.59654916E-03-1.44317333E-02-1.83283079E-03-6.37560926E-03 1.24720042E-02
 8 10 4.39042051E-03-2.73990167E-03 4.06146970E-03-3.82834843E-03-2.49642943E-03
 8 11 3.82834843E-03 2.79069683E-03 1.82965665E-03 2.49675485E-03 2.34600672E-02
 8 12 2.96301499E-03-2.34600672E-02 7.25598092E-04-1.02624484E-03 2.05937140E-03
 8 13 5.08497664E-04 1.74932412E-03-1.42488062E-03-3.72667051E-02-1.74127761E-02
 8 14-2.53212229E-02-8.52795145E-03 6.77956140E-03-4.37774776E-03 1.42488062E-03
 8 15 1.74932412E-03-5.08497664E-04 2.53212229E-02-1.74127761E-02 3.72667051E-02
 8 16 4.37774776E-03 6.77956140E-03 8.52795145E-03-2.05937140E-03-1.02624484E-03
 8 17-7.25598092E-04-2.49675485E-03 1.82965665E-03-2.79069683E-03
 9  1 1.70598682E-02-3.25336672E-03-4.40356989E-02-3.25336672E-03 1.70598682E-02
 9  2-4.40356989E-02-2.07705717E-02-2.07705717E-02 3.17195334E-01 3.25336672E-03
 9  3 3.25336672E-03-3.85735198E-03 1.24720042E-02 1.83283079E-03-6.37560926E-03
 9  4 3.39044025E-03 5.82573146E-03-1.98694581E-03-1.64211765E-03-1.85118950E-03
 9  5-5.64856086E-02 1.41762310E-03 1.41762310E-03-1.90434106E-03 4.06146970E-03
 9  6-4.39042051E-03-2.73990167E-03-2.55138514E-03-2.55138514E-03-5.53020512E-02
 9  7-4.39042051E-03 4.06146970E-03-2.73990167E-03 4.00478467E-03-1.44317333E-02
 9  8-8.59654916E-03-1.85118950E-03-1.64211765E-03-5.64856086E-02 5.82573146E-03
 9  9 3.39044025E-03-1.98694581E-03 1.83283079E-03 1.24720042E-02-6.37560926E-03
 9 10-1.44317333E-02 4.00478467E-03-8.59654916E-03-7.25598092E-04 2.05937140E-03
 9 11-1.02624484E-03-5.08497664E-04-1.42488062E-03 1.74932412E-03 3.72667051E-02
 9 12-2.53212229E-02-1.74127761E-02 3.82834843E-03 3.82834843E-03-2.49642943E-03
 9 13-2.79069683E-03 2.49675485E-03 1.82965665E-03-2.34600672E-02-2.34600672E-02
 9 14 2.96301499E-03 2.49675485E-03-2.79069683E-03 1.82965665E-03-4.37774776E-03
 9 15 8.52795145E-03 6.77956140E-03-2.53212229E-02 3.72667051E-02-1.74127761E-02
 9 16-1.42488062E-03-5.08497664E-04 1.74932412E-03 2.05937140E-03-7.25598092E-04
 9 17-1.02624484E-03 8.52795145E-03-4.37774776E-03 6.77956140E-03
10  1-3.85735198E-03-3.25336672E-03-3.25336672E-03-4.40356989E-02 3.25336672E-03
10  2-1.70598682E-02-4.40356989E-02-1.70598682E-02 3.25336672E-03 3.17195334E-01
10  3 2.07705717E-02 2.07705717E-02-8.59654916E-03-4.00478467E-03 1.44317333E-02
10  4-6.37560926E-03-1.83283079E-03-1.24720042E-02-1.98694581E-03-5.82573146E-03
10  5-3.39044025E-03-5.64856086E-02 1.64211765E-03 1.85118950E-03-1.98694581E-03
10  6-3.39044025E-03-5.82573146E-03-6.37560926E-03-1.24720042E-02-1.83283079E-03
10  7-8.59654916E-03 1.44317333E-02-4.00478467E-03-5.53020512E-02 2.55138514E-03