!   PH3 rhf trudge optimization of MP2 energy, basis P(311/311/1*) H(311/1*)
!
!   at initial geometry,
!   FINAL RHF ENERGY IS       -8.1162238599, 11 iters
!               E(MP2)=       -8.2501050177
!
!   at optimized geometry, 28 trudge steps later,
!   PH = 1.4169606 A,  HPZ = 57.46622 deg, meaning HPH = 93.793 deg
!   FINAL RHF ENERGY IS       -8.1282082354
!               E(MP2)=       -8.2636708032
!
!   This run takes 5 seconds on a 2.66 GHz Cloverton ( 7 Apr 2015)
!   test hasn't changed much since 2005
!
 $mp2 code=ddi $end
 $contrl scftyp=rhf mplevl=2 runtyp=trudge pp=mcp coord=hint $end
 $system parall=.t. mwords=1 memddi=2 $end
 $trudge optmiz=geometry npar=2 iex(1)=21,22 $end
 $trurst tolf=0.0001 tolr=0.001 fnoise=0.00001 $end
 $data
PH3 MP2 trudge
Cnv 3

P 15.0  LC 0.0   0.0   0.0   -   O   K
 mcp read
  L       3
  1  27.717341          0.10660592         -0.36764287E-01
  2  5.5388850         -0.20417549         -0.19127865
  3  1.6309336         -0.42614950         -0.21092985E-01
  L       1
  1 0.36611343           1.0000000           1.0000000
  L       1
  1 0.10677848           1.0000000           1.0000000
  D   1; 1 0.340 1.0

H 1.0  PCC 1.4  68.34  0.0   +   O   K  I
  TZV
  P   1; 1 1.100 1.0

 $end

 $mcp
Int. J. Quantum Chem. 90 (2002) 1099
MCP for  P  NR (3S/3P)             S(2)P(3)
  P
  6  2 16  1 15  0  0  0  0
      5.00(4D15.8)
  3.5078363      .29068993E-02  .64254775      14.924974
 -21.732883      2.7170215
  136.72234      .83125346      12.141684      1805.2293
  102.32266      4.3709700
  0  0  0  1  1  1
  95.986878      9.0345286
  100925.88      32369.229      11337.532      4284.5562
  1726.0005      732.62856      324.18302      148.13044
  69.332080      33.019677      15.917404      7.7354733
  3.7786579      1.8515197      .90879143      .44645285
  .21039118D-03  .35429261D-03  .17584632D-02  .48992775D-02
  .14629758D-01  .37952185D-01  .91352146D-01  .18839636D+00
  .30950553D+00  .32666562D+00  .15585992D+00  .18509933D-01
  .24013596D-02  .00000000D+00  .00000000D+00  .00000000D+00
 -.57052583D-04 -.96775232D-04 -.47679300D-03 -.13425179D-02
 -.40129295D-02 -.10663627D-01 -.26509198D-01 -.59450833D-01
 -.11408104D+00 -.16581226D+00 -.10429663D+00  .15585513D+00
  .47915478D+00  .43588610D+00  .92425256D-01  .50714876D-02
  6.5021410
  4284.5562      1726.0005      732.62856      324.18302
  148.13044      69.332080      33.019677      15.917404
  7.7354733      3.7786579      1.8515197      .90879143
  .44645285      .21940782      .10784200
  .46956713D-04  .12472286D-03  .62118220D-03  .23011644D-02
  .80909302D-02  .25529975D-01  .70934597D-01  .16364002D+00
  .28186285D+00  .34686506D+00  .24539018D+00  .65460109D-01
  .52970332D-02  .62064628D-03  .54511400D-03
 $end

! TRAVIS-CI SMALL

! TRAVIS-CI SKIP
