!   Ni(CO)4, B3LYP hamiltonian, using model core potential.
!   illustration of Hilderbrandt coordinate input!
!     basis set Ni(2111/41*1*/411), C and O (41/41/1*)
!
!   FINAL R-B3LYP E= -216.7860561853, 21 iters, RMS grad= 0.05770962
!   
!   This run takes 80 seconds on a 2.66 GHz Opteron ( 7 Apr 2015)
!   test has been in use since 2005.
!
 $CONTRL scftyp=rhf dfttyp=b3lyp pp=mcp RUNTYP=gradient COORD=HINT $END
 $system mwords=2 $end
 $scf    soscf=.f. diis=.t. ethrsh=5.0 $end
 $dft    NRAD=96     NTHE=24     NPHI=48
        NRAD0=96    NTHE0=24    NPHI0=48
 $end
 $data
Ni(CO)4 
Td

Ni 28.0 LC   0.00         0.0   0.0   -   O   K
 mcp read
  S       2
  1  149.62933         -0.41754695E-01
  2  14.903271          0.12202933
  S       1
  1  1.3335640           1.0000000
  S       1
  1 0.86906170E-01       1.0000000
  S       1
  1 0.31446090E-01       1.0000000
  P       4
  1  99.387949         -0.10675769
  2  25.707257         -0.26264541
  3  2.7562750          0.67005265
  4 0.86932480          0.42195961
  D       4
  1  54.333161          0.22125363E-01
  2  14.542983          0.11896033
  3  4.9215959          0.32402594
  4  1.7351686          0.43261671
  D       1
  1 0.58220650           1.0000000
  D       1
  1 0.17632140           1.0000000
  P  1; 1 0.153 1.0
  P  1; 1 0.049 1.0

C  6.   NPCC 1.838   109.471220634/2  109.471220634/2  + O K I
 mcp read
  L       4
  1  18.517235         -0.16370140          0.22673090E-01
  2  2.5787547         -0.26304451          0.19109693
  3 0.58994362          0.58040872          0.50918856
  4 0.17330638          0.56036392          0.43385786
  L       1
  1 0.60957120E-01       1.0000000           1.0000000
  D  1; 1 0.600 1.0

O  8.   NPCC 2.979   109.471220634/2  109.471220634/2  + O K I
 mcp read
  L       4
  1  44.242510         -0.13535836          0.17372951E-01
  2  6.2272700         -0.30476423          0.16466813
  3  1.4361751          0.43955753          0.46721611
  4 0.40211473          0.66623895          0.47180327
  L       1
  1 0.12688798           1.0000000           1.0000000
  D  1; 1 1.154 1.0

 $end

 $mcp
MCP for  O  NR (2S/2P)             S(2)P(4)
  O
  2  1 16  0  0  0  0
      6.00(4D15.8)
  .31002267      .27178756E-01
  25.973731      13.843290
  0  0
  41.361784
  57480.749      17270.167      5766.9282      2107.0076
  829.06758      346.04791      151.12147      68.233250
  31.542773      14.815300      7.0298236      3.3561489
  1.6077662      .77153240      .37052330      .17799002
  .85822477D-04  .18173691D-03  .84803428D-03  .25439914D-02
  .76877460D-02  .20823429D-01  .52424753D-01  .11864010D+00
  .22782741D+00  .33492260D+00  .28833079D+00  .93046197D-01
  .55937988D-02  .16121923D-02  .10915544D-04  .21431633D-03

  --- Int. J. Quantum Chem. 90 (2002) 1099 ---
MCP for  C  NR (2S/2P)             S(2)P(2)
  C
  2  1 14  0  0  0  0
      4.00(4D15.8)
  .41856306      .99599513E-01
  16.910482      7.4125554
  0  0
  22.676882
  26848.283      8199.1206      2798.3668      1048.2982
  423.36984      181.26843      81.068295      37.403931
  17.629539      8.4254263      4.0611964      1.9672294
  .95541420      .46459041
  .10743274D-03  .21285491D-03  .99343100D-03  .28327774D-02
  .83154481D-02  .21694082D-01  .52916004D-01  .11618593D+00
  .21812785D+00  .32180986D+00  .29375407D+00  .10974353D+00
  .70844050D-02  .17825971D-02
 
  --- J. Comp. Chem. 24 (2003) 1009 ---
MCP for NI  QR (3P/4S/3D)             P(6)S(1)D(9)
 NI
  6  3 19  1 15  0  0  0  0
     16.00(4D15.8)
  .51287264      .40065583E-01  .48383762E-01  68.911628
  3.9069146      .76844032E-01
  433.21742      10.966005      2.6268847      942.15064
  48.068637      2.2270420
  0  0  0  1  1  1
  463.26750      57.620339      7.1679465
  264240.98      87702.120      31809.669      12445.101
  5185.8136      2274.3173      1038.5971      489.28600
  235.94339      115.72624      57.447897      28.753468
  14.469995      7.3071106      3.6976900      1.8734163
  .94976189      .48164829      .24428887
  .69062002D-03  .37836117D-03  .33400875D-02  .65695976D-02
  .19657561D-01  .44853225D-01  .10230466D+00  .19652753D+00
  .30614913D+00  .30907689D+00  .14565598D+00  .18154922D-01
  .96316511D-03  .00000000D+00  .00000000D+00  .00000000D+00
  .00000000D+00  .00000000D+00  .00000000D+00
 -.21828134D-03 -.12029171D-03 -.10619950D-02 -.20962820D-02
 -.63490830D-02 -.14750270D-01 -.35215257D-01 -.73484629D-01
 -.13597382D+00 -.18349446D+00 -.10055781D+00  .23515438D+00
  .56223389D+00  .34025759D+00  .42117243D-01  .58658333D-02
  .00000000D+00  .00000000D+00  .00000000D+00
  .81508709D-04  .45530160D-04  .39550607D-03  .78986680D-03
  .23661240D-02  .55748589D-02  .13227877D-01  .28217836D-01
  .52737165D-01  .75302628D-01  .42085004D-01 -.11653602D+00
 -.39598448D+00 -.33252220D+00  .24229012D+00  .60446182D+00
  .39451537D+00  .70393820D-01  .37757755D-02
  49.322993
  12445.101      5185.8136      2274.3173      1038.5971
  489.28600      235.94339      115.72624      57.447897
  28.753468      14.469995      7.3071106      3.6976900
  1.8734163      .94976189      .48164829
  .11052111D-03  .20359306D-03  .10889704D-02  .34687059D-02
  .11796131D-01  .34873154D-01  .93622095D-01  .20376934D+00
  .33352678D+00  .33694463D+00  .15027316D+00  .20660737D-01
  .22331124D-02  .14495425D-03  .27145559D-03

 $end

! TRAVIS-CI SMALL

! TRAVIS-CI SKIP
