!  Baker's test case E.
!
!  Following mode 2 (lowest a' mode) gives...
!     NSERCH:   0  E=     -137.8841864661  R.M.S.=  0.0107575
!     NSERCH:   1  E=     -137.8815050771  R.M.S.=  0.0111646
!     NSERCH:   2  E=     -137.8785026281  R.M.S.=  0.0098004
!           ...snipped...
!     NSERCH:  39  E=     -137.8035008516  R.M.S.=  0.0000449
!     NSERCH:  40  E=     -137.8035008827  R.M.S.=  0.0000029
!
!  This run takes 1 seconds on a 2.66 GHz Cloverton (28 Apr 2015)
!  answers essentially unchanged since at least 2005
!
!  -----------------------------------------------------------
!  The hessian below is from the exact equilibrium
!  geometry, which has x(H3)=-0.784860, y(H3)=-1.262922.
!  The frequencies at the minimum are 97.2, 617.3, 785.5,
!  940.9, 1100.0, 1427.0, 3305.0, 3529.7, 3726.2 cm**-1.
!  The FH bond is lengthened to 1.0, and the HFC angle is
!  decreased to 120 degrees, to generate a nonzero gradient,
!  and to begin the motion towards both the bridging and the
!  dissociative saddle points.  Unfortunately, Baker does
!  not precisely define his starting geometry, and this type
!  of run is very sensitive to its starting point.
!
!  An earlier version of the GAMESS geometry searcher explored
!  geometries near the bridged TS, but eventually settled upon
!  a TS at FINAL E= -137.8813743218, for cis-trans isomerization,
!  involving a nearly planar CH2 group.
!
 $contrl scftyp=uhf runtyp=sadpoint mult=2 icharg=1 nzvar=9 $end
 $statpt nstep=40 ifolow=2 hess=read $end
 $basis  gbasis=n21 ngauss=3 $end
 $guess  guess=huckel $end
 $zmat   izmat(1)=1,1,2,   1,2,3,   1,1,4,   1,1,5,   2,1,2,3,
                  2,4,1,2,   2,5,1,2,   3,4,1,2,3,   3,5,1,2,3  $END
 $data
H2CFH cation...Baker's test case E...mode following
Cs

CARBON      6.0       0.006291    0.887108     0.000000
FLUORINE    9.0       0.006291   -0.706892     0.000000
HYDROGEN    1.0      -0.859734   -1.206892     0.000000
HYDROGEN    1.0       0.345249    1.151150    -0.978852
 $END
 $HESS
...hessian title card...
 1  1 0.15141187D+00 0.63624148D-01 0.00000000D+00-0.30378514D-01-0.10286353D-01
 1  2 0.00000000D+00 0.86408880D-02-0.12080365D-01 0.00000000D+00-0.64836868D-01
 1  3-0.20628653D-01-0.10443389D+00-0.64836868D-01-0.20628653D-01 0.10443389D+00
 2  1 0.63624148D-01 0.20200069D+00 0.00000000D+00 0.38195699D-01-0.72794612D-01
 2  2 0.00000000D+00-0.24324213D-01-0.13081311D-01 0.00000000D+00-0.38747887D-01
 2  3-0.58062374D-01-0.81212421D-01-0.38747887D-01-0.58062374D-01 0.81212421D-01
 3  1 0.00000000D+00 0.00000000D+00 0.76231676D+00 0.00000000D+00 0.00000000D+00
 3  2-0.41331170D-01 0.00000000D+00 0.00000000D+00-0.36357518D-02-0.12275166D+00
 3  3-0.59122715D-01-0.35867503D+00 0.12275166D+00 0.59122715D-01-0.35867503D+00
 4  1-0.30378514D-01 0.38195699D-01 0.00000000D+00 0.37591273D+00 0.21499434D+00
 4  2 0.00000000D+00-0.35131437D+00-0.21540582D+00 0.00000000D+00 0.28900326D-02
 4  3-0.18892050D-01 0.29170599D-02 0.28900326D-02-0.18892050D-01-0.29170599D-02
 5  1-0.10286353D-01-0.72794612D-01 0.00000000D+00 0.21499434D+00 0.29615865D+00
 5  2 0.00000000D+00-0.21067407D+00-0.16601051D+00 0.00000000D+00 0.29830644D-02
 5  3-0.28676824D-01 0.10792608D-01 0.29830644D-02-0.28676824D-01-0.10792608D-01
 6  1 0.00000000D+00 0.00000000D+00-0.41331170D-01 0.00000000D+00 0.00000000D+00
 6  2 0.25488668D-01 0.00000000D+00 0.00000000D+00 0.22292874D-02 0.14211233D-02
 6  3-0.21389359D-01 0.68067359D-02-0.14211233D-02 0.21389359D-01 0.68067359D-02
 7  1 0.86408880D-02-0.24324213D-01 0.00000000D+00-0.35131437D+00-0.21067407D+00
 7  2 0.00000000D+00 0.34291218D+00 0.22738783D+00 0.00000000D+00-0.11920462D-03
 7  3 0.38050972D-02-0.97622162D-03-0.11920462D-03 0.38050972D-02 0.97622162D-03
 8  1-0.12080365D-01-0.13081311D-01 0.00000000D+00-0.21540582D+00-0.16601051D+00
 8  2 0.00000000D+00 0.22738783D+00 0.18252045D+00 0.00000000D+00 0.49139313D-04
 8  3-0.17142402D-02-0.56839163D-03 0.49139313D-04-0.17142402D-02 0.56839163D-03
 9  1 0.00000000D+00 0.00000000D+00-0.36357518D-02 0.00000000D+00 0.00000000D+00
 9  2 0.22292874D-02 0.00000000D+00 0.00000000D+00 0.56432338D-03-0.54218644D-04
 9  3-0.23113593D-02 0.42100678D-03 0.54218644D-04 0.23113593D-02 0.42100678D-03
10  1-0.64836868D-01-0.38747887D-01-0.12275166D+00 0.28900326D-02 0.29830644D-02
10  2 0.14211233D-02-0.11920462D-03 0.49139313D-04-0.54218644D-04 0.52057212D-01
10  3 0.33131942D-01 0.11193898D+00 0.10008476D-01 0.25837517D-02 0.94459936D-02
11  1-0.20628653D-01-0.58062374D-01-0.59122715D-01-0.18892050D-01-0.28676824D-01
11  2-0.21389359D-01 0.38050972D-02-0.17142402D-02-0.23113593D-02 0.33131942D-01
11  3 0.75337045D-01 0.76905642D-01 0.25837517D-02 0.13116372D-01 0.59177350D-02
12  1-0.10443389D+00-0.81212421D-01-0.35867503D+00 0.29170599D-02 0.10792608D-01
12  2 0.68067359D-02-0.97622162D-03-0.56839163D-03 0.42100678D-03 0.11193898D+00
12  3 0.76905642D-01 0.35290462D+00-0.94459936D-02-0.59177350D-02-0.14572919D-02
13  1-0.64836868D-01-0.38747887D-01 0.12275166D+00 0.28900326D-02 0.29830644D-02
13  2-0.14211233D-02-0.11920462D-03 0.49139313D-04 0.54218644D-04 0.10008476D-01
13  3 0.25837517D-02-0.94459936D-02 0.52057212D-01 0.33131942D-01-0.11193898D+00
14  1-0.20628653D-01-0.58062374D-01 0.59122715D-01-0.18892050D-01-0.28676824D-01
14  2 0.21389359D-01 0.38050972D-02-0.17142402D-02 0.23113593D-02 0.25837517D-02
14  3 0.13116372D-01-0.59177350D-02 0.33131942D-01 0.75337045D-01-0.76905642D-01
15  1 0.10443389D+00 0.81212421D-01-0.35867503D+00-0.29170599D-02-0.10792608D-01
15  2 0.68067359D-02 0.97622162D-03 0.56839163D-03 0.42100678D-03 0.94459936D-02
15  3 0.59177350D-02-0.14572919D-02-0.11193898D+00-0.76905642D-01 0.35290462D+00
 $END

! TRAVIS-CI SMALL

! TRAVIS-CI SKIP
