!   artificial test of MCSCF convergence behavior.   Created 1/2002
!   H2C=CH-HC=O...3-A' state from 4 electrons in 4 pi orbitals...100 AOs
!
!   deliberate use of diffuse basis functions to have poor canonical virtuals
!   deliberate avoidance of MVOs or ACAVOs, to use these diffuse virtuals
!   deliberate use of RHF singlet orbitals to start the triplet state.
!   deliberate use of 4 pi MO active space, so all MOs have the same symmetry
!   deliberate use of a singles dominated CI expansion for the triplet state
!    (pi)2(pi)1(pi*)1(pi*)0 to maximally couple CI coef/active MO optimizations
!
!   Talk about shooting your own foot off!
!
!   The calculation below, with 4 space products, results in
!      SOSCF F.NAL E= -190.6565005296, 38 iters,  21 s.conds,  3 MWrds
!     FULLNR F.NAL E= -190.6565005290, 14 iters,  28 s.conds,  9 MWrds
!     JACOBI FINAL E= -190.6565005271, 10 iters, 282 s.conds, 51 MWrds
!   If you run a FORS active space (CISTEP=ALDET), E= -190.6863
!
!   This run takes 282 seconds on 2.66 GHz Cloverton (26 Apr 2015)
!
!   -----------------------------------------------------------------
!   notes: I am not sure if the ground state is flat, no hessian was
!   computed.  A slight non-planarity would bring sigma-pi rotations
!   into the problem.  Also, one could consider H2C=N-HC=O, just to
!   get a little more ionicity into the pi bonds.
!
!   Jobs run on a IBM m270 uniprocessor with 16 GB RAM (7 May 2002)
!   memory requirements shown are to get transformation into memory.
!
 $contrl mult=3 scftyp=mcscf runtyp=energy nzvar=18 coord=zmt molplt=.t. $end
 $system mwords=55 memddi=0 $end
 $basis  gbasis=n31 ngauss=6 ndfunc=1 npfunc=1 diffsp=.t. diffs=.t. $end
 $guess  guess=moread norb=100 
         norder=1 iorder(13)=14,  13,15,19,21,  16,17,18,20 $end
 $mcscf  cistep=genci soscf=.f. fullnr=.f. jacobi=.t. $end
 $gen    glist=input ncore=13 nact=4 nels=4 $end
 $det                ncore=13 nact=4 nels=4 $end
 $gcilst
4
2 1 1 0
2 1 0 1
1 2 1 0
1 2 0 1
 $end
 $data
H2C=CH-HC=O...geometry of RHF/6-31G(d,p) ground state
Cs

O
C 1 rCO
C 2 rCCa 1 aCCO
C 3 rCCb 2 aCCC  1 180.0
H 2 rCHa 1 aHCO  3 180.0
H 3 rCHb 2 aHCCb 1   0.0
H 4 rCHc 3 aHCCc 2   0.0
H 4 rCHd 3 aHCCd 2 180.0

rCO=1.1913248
rCCa=1.4784214
rCCb=1.3238797
rCHa=1.0954763
rCHb=1.0760540
rCHc=1.0773781
rCHd=1.0749105
aCCO=123.8063682
aCCC=121.1687111
aHCO=120.6870943
aHCCb=116.4976673
aHCCc=121.4324220
aHCCd=121.8660125
 $end

--- CLOSED SHELL ORBITALS --- GENERATED AT Tue May  7 18:30:28 2002
E(RHF)=     -190.7770968995, E(NUC)=  103.8561060166,   13 ITERS
 $VEC
 1  1 9.94622634E-01 2.09269146E-02 1.54769637E-03-6.56074502E-04 0.00000000E+00
 1  2 4.94668760E-03-7.58453614E-04 2.87572574E-04 0.00000000E+00-2.25317221E-03
 1  3 1.93786169E-04-8.38479451E-05 0.00000000E+00-3.89880506E-03-4.04911058E-03
 1  4-4.38538181E-03-9.80848112E-05 0.00000000E+00 0.00000000E+00-9.64744098E-08
 1  5 4.09700399E-04 2.30605527E-05-3.61734586E-05 0.00000000E+00 7.86515338E-04
 1  6-2.91715527E-04 3.31664743E-04 0.00000000E+00 1.90699459E-03-4.96041705E-04
 1  7 5.87030907E-04 0.00000000E+00-6.15309852E-04-1.47110399E-04-6.54961237E-05
 1  8 2.75512677E-04 0.00000000E+00 0.00000000E+00-8.06658975E-06-1.50676394E-05
 1  9 2.04814809E-05 2.12996373E-05 0.00000000E+00 8.92324398E-05 2.51028274E-04
 1 10-2.49559218E-04 0.00000000E+00-3.91425958E-03-1.42500500E-04 8.98798080E-04
 1 11 0.00000000E+00-1.08936937E-04 5.59503774E-05-3.71962774E-05 3.37210602E-05
 1 12 0.00000000E+00 0.00000000E+00-1.27681553E-06 1.44381838E-05-6.44890133E-07
 1 13 1.64140653E-05 0.00000000E+00-2.57243067E-04 1.82593988E-05-9.46250326E-05
 1 14 0.00000000E+00 2.95040367E-03-1.11007514E-03-9.34952683E-05 0.00000000E+00
 1 15-1.37703253E-05 9.06728269E-06-8.91339410E-06-4.13641609E-05 0.00000000E+00
 1 16 0.00000000E+00-5.26820538E-05 1.82483905E-04-4.02044204E-07 9.81695879E-05
 1 17-8.73324096E-06 0.00000000E+00 9.39223182E-07 1.71819619E-04-5.20857693E-04
 1 18-2.55397541E-05 8.98869597E-06 0.00000000E+00 2.22478815E-07-6.50977154E-05
 1 19-9.36411558E-05-2.78831956E-06-6.89156871E-06 0.00000000E+00 1.75991745E-05
 1 20 9.51820234E-05 4.69834761E-04-1.53701055E-05-8.68368127E-06 0.00000000E+00
 2  1-3.43997247E-04 6.68417609E-04 3.19923100E-04-1.35130317E-04 0.00000000E+00
 2  2-2.14387273E-03-8.37147721E-04 3.74620642E-04 0.00000000E+00 6.49352572E-03
 2  3 3.22296582E-03-1.16377486E-03 0.00000000E+00 2.11036976E-04 1.86047488E-04
 2  4 4.13289391E-04 2.01121058E-05 0.00000000E+00 0.00000000E+00 9.95906265E-01
 2  5 2.76438046E-02-6.50240779E-04 3.74701242E-04 0.00000000E+00-1.37822740E-02
 2  6-4.97969787E-04 7.51838568E-05 0.00000000E+00-3.31069114E-04-7.39257964E-06
 2  7 3.40165350E-03 0.00000000E+00-7.88729913E-04-1.25799824E-03-2.14907188E-03
 2  8-2.69966576E-04 0.00000000E+00 0.00000000E+00 4.43204110E-03 4.76962955E-04
 2  9-3.25110174E-05 5.80434922E-05 0.00000000E+00 1.51715800E-03-3.24692540E-04
 2 10-8.53750636E-04 0.00000000E+00 1.38258922E-02 8.89179378E-03-4.99428792E-03
 2 11 0.00000000E+00-3.88931915E-04-3.21121733E-04-1.73759207E-05-2.49244164E-04
 2 12 0.00000000E+00 0.00000000E+00 2.70551956E-05-1.47610852E-04 7.39763472E-05
 2 13 2.60359824E-05 0.00000000E+00-5.38823014E-04-4.43203564E-04-3.28214550E-04
 2 14 0.00000000E+00-2.04944620E-02 3.62135436E-03-3.18549811E-03 0.00000000E+00
 2 15 9.47351772E-05 7.66422786E-05-4.98993997E-05-4.78611262E-06 0.00000000E+00
 2 16 0.00000000E+00-5.76047954E-05 2.06948204E-03 2.56057836E-03 5.30601972E-05
 2 17-2.28296387E-04 0.00000000E+00-4.98047514E-05 5.74487712E-04 3.20918889E-03
 2 18 2.07037203E-05-9.01612265E-05 0.00000000E+00-7.16164604E-05-1.90367559E-04
 2 19-1.64706995E-03 4.52974091E-05-1.71737258E-05 0.00000000E+00-3.01180868E-05
 2 20 8.48370963E-04 4.24904229E-04-2.00465449E-05-4.72014562E-06 0.00000000E+00
 3  1-1.90216192E-05-1.08643651E-04-3.01004812E-05 2.41826819E-05 0.00000000E+00
 3  2 6.79360410E-04 3.93821004E-04-1.69499923E-04 0.00000000E+00 1.90262587E-03
 3  3 6.92535076E-04 1.40640436E-04 0.00000000E+00 9.53934530E-06-7.03649430E-05
 3  4-7.00913920E-05 9.40776085E-06 0.00000000E+00 0.00000000E+00-3.38939529E-04
 3  5-1.00463905E-04 2.70878248E-05 2.82482402E-05 0.00000000E+00-9.63067695E-04
 3  6 7.36304779E-04-4.25315559E-04 0.00000000E+00-1.45980654E-02-3.52505126E-03
 3  7-1.79510804E-03 0.00000000E+00 9.54076632E-05 1.25600485E-05 5.44861975E-06
 3  8 1.87059936E-05 0.00000000E+00 0.00000000E+00 6.58613255E-02 1.76311386E-03
 3  9-1.89048271E-04 4.92623350E-05 0.00000000E+00 2.43449195E-03 1.55658761E-03
 3 10-7.15897658E-04 0.00000000E+00 1.00690079E-02-2.93623615E-03-3.70474072E-03
 3 11 0.00000000E+00-3.00664900E-04-3.91163900E-04-1.06810060E-04 9.80937972E-07
 3 12 0.00000000E+00 0.00000000E+00 9.93510260E-01 2.76894113E-02-1.55555570E-05
 3 13-6.89557948E-05 0.00000000E+00-1.29911451E-02 9.60682713E-04-2.74124288E-04
 3 14 0.00000000E+00 6.11258578E-03-5.50377477E-04 5.60571266E-04 0.00000000E+00
 3 15-1.28295897E-03-1.46987349E-03-2.36990344E-03-1.13040681E-04 0.00000000E+00
 3 16 0.00000000E+00-7.64019780E-05-2.66419687E-05 3.82408619E-04-5.00726132E-05
 3 17 8.53575156E-06 0.00000000E+00 1.78066984E-05 1.79849922E-04 1.49986936E-03
 3 18 4.38034862E-05-1.06393359E-04 0.00000000E+00-6.27628645E-05 1.39858524E-03
 3 19-1.71773704E-03-4.68859051E-05-2.95744201E-04 0.00000000E+00-1.27620470E-04
 3 20 1.42588425E-03-1.44389312E-03 1.95055923E-04 2.10505938E-04 0.00000000E+00
 4  1 1.99377761E-05-2.74459270E-05-1.57243493E-05-4.15526168E-06 0.00000000E+00
 4  2 2.05873862E-05 2.88469012E-04-3.65488561E-04 0.00000000E+00 1.93784754E-03
 4  3 3.71433415E-04 1.63272949E-04 0.00000000E+00 1.71595581E-04 1.03220672E-04
 4  4-4.96271181E-05-3.90803812E-05 0.00000000E+00 0.00000000E+00-4.66506051E-03
 4  5 1.68701086E-04 6.23516188E-05-3.08598221E-05 0.00000000E+00 2.15656910E-03
 4  6 1.87079575E-03 3.41947429E-04 0.00000000E+00-1.58579823E-02-3.26676380E-03
 4  7-1.70211989E-03 0.00000000E+00-4.74636427E-04-3.03979385E-04 2.03998070E-05
 4  8-2.11686498E-04 0.00000000E+00 0.00000000E+00 9.93529965E-01 2.81096194E-02
 4  9 1.31499537E-05-2.64924410E-04 0.00000000E+00-1.48554956E-02-1.33758054E-04
 4 10 1.80289975E-03 0.00000000E+00 3.57669726E-02 1.51310128E-03-6.55507713E-03
 4 11 0.00000000E+00-1.27153075E-03-1.44290072E-03-2.26799773E-03-2.14261701E-04
 4 12 0.00000000E+00 0.00000000E+00-6.64498574E-02-1.92178761E-03 1.41303142E-04
 4 13-6.87028099E-05 0.00000000E+00 4.43991059E-03-1.80693321E-03 3.31040047E-04
 4 14 0.00000000E+00-2.06450197E-02 4.74484186E-03-1.32700779E-03 0.00000000E+00
 4 15-2.42768889E-04-2.12160706E-04 2.20772578E-04 4.50604687E-05 0.00000000E+00
 4 16 0.00000000E+00-7.59593826E-05-1.05403542E-04 5.99014275E-04-4.19912173E-05
 4 17 6.49151673E-05 0.00000000E+00-1.28110146E-04 1.04289226E-03 1.93418396E-04
 4 18-2.76330330E-06 2.85261854E-04 0.00000000E+00-1.43172230E-05-2.13827714E-04
 4 19 1.40364884E-04-3.91493392E-05 1.39734183E-04 0.00000000E+00 4.23140371E-05
 4 20 2.18496243E-04-1.77848551E-04-1.38055650E-04-5.35977124E-05 0.00000000E+00
 5  1-1.95765296E-01 4.28785159E-01 1.32489243E-01-5.59347993E-02 0.00000000E+00
 5  2 3.99436496E-01 5.17726682E-02-1.92823945E-02 0.00000000E+00-1.98985528E-02
 5  3-1.08530725E-03-2.09339936E-03 0.00000000E+00 1.50722995E-02-1.03523018E-03
 5  4-3.80669259E-03-8.99564257E-03 0.00000000E+00 0.00000000E+00-1.16521891E-01
 5  5 2.21805236E-01-1.63792193E-01 7.76395535E-02 0.00000000E+00 5.69660935E-02
 5  6 2.68651485E-02-2.01434072E-02 0.00000000E+00 7.64653871E-02 5.40551001E-03
 5  7 4.70356069E-03 0.00000000E+00 2.32667821E-02-1.23247634E-02-1.77278341E-02
 5  8-2.06506046E-02 0.00000000E+00 0.00000000E+00-1.77628930E-02 3.25919928E-02
 5  9-2.45683413E-02-1.05990856E-02 0.00000000E+00 1.95861264E-02-1.26028498E-02
 5 10 3.09296586E-03 0.00000000E+00-1.49803814E-01-2.05274758E-02 3.78159959E-02
 5 11 0.00000000E+00 7.01398937E-03 1.01020890E-04-1.84937095E-03 3.87671643E-03
 5 12 0.00000000E+00 0.00000000E+00-3.42288423E-03 8.23673061E-03-5.66456540E-03
 5 13 3.08437414E-04 0.00000000E+00 8.55458957E-03 8.08654821E-03 8.38497534E-03
 5 14 0.00000000E+00 1.13548525E-01-2.35057767E-02 1.51164792E-02 0.00000000E+00
 5 15 2.74696981E-04-5.77380459E-04 2.31355480E-04 2.11001343E-04 0.00000000E+00
 5 16 0.00000000E+00 3.05530047E-02-1.01172405E-02-9.26774959E-03-2.44643384E-03
 5 17 6.02600977E-03 0.00000000E+00 7.46243887E-03-3.58822601E-03-1.95058236E-02
 5 18-1.95798165E-04-1.01867241E-03 0.00000000E+00 2.62365304E-03 3.21482062E-03
 5 19 1.03915498E-02-2.94903357E-04 2.91800770E-04 0.00000000E+00 3.26375903E-04
 5 20-1.03477350E-02-3.42428153E-03 1.94996301E-04 1.29975698E-04 0.00000000E+00
 6  1 3.66809587E-02-8.38216590E-02 8.69015182E-03 1.19619098E-02 0.00000000E+00
 6  2-8.42475503E-02 4.81597733E-03 4.51323656E-03 0.00000000E+00-9.93903472E-03
 6  3-7.70896817E-03 9.95884896E-05 0.00000000E+00-1.16328482E-04-2.38562091E-03
 6  4 6.96162963E-05 1.39365195E-03 0.00000000E+00 0.00000000E+00-5.02535399E-02
 6  5 1.01285399E-01 1.26884000E-01 1.54012971E-02 0.00000000E+00 7.51413014E-02
 6  6 1.99949811E-02-3.88613335E-03 0.00000000E+00 4.06794583E-02 1.43109185E-02
 6  7 2.43099303E-03 0.00000000E+00 5.19835864E-03 3.36944948E-03-4.36517336E-03
 6  8 1.18559026E-02 0.00000000E+00 0.00000000E+00-1.59350665E-01 3.01295941E-01
 6  9 6.60735579E-02-6.86878884E-02 0.00000000E+00 2.23869795E-01 1.66164189E-03
 6 10-1.00405557E-02 0.00000000E+00-8.28731519E-02-4.55056198E-03 1.35949803E-02
 6 11 0.00000000E+00 1.21600456E-02 1.49433256E-03-1.29333470E-02-4.50505871E-03
 6 12 0.00000000E+00 0.00000000E+00-1.43696721E-01 2.72800955E-01-1.03093475E-01
 6 13 4.17936362E-02 0.00000000E+00 2.01273329E-01-1.00150103E-02 2.03305999E-03
 6 14 0.00000000E+00 1.86417190E-02-7.99484405E-03 1.09029822E-02 0.00000000E+00
 6 15 1.08832845E-02-1.72702185E-03-1.24686462E-02-7.81465835E-03 0.00000000E+00
 6 16 0.00000000E+00 3.41353882E-02 6.08274830E-03-1.68799441E-03 6.24381680E-04
 6 17 3.16022144E-03 0.00000000E+00 7.70496493E-02 1.63582186E-02 2.64337939E-03
 6 18 1.74588902E-03-8.53519851E-03 0.00000000E+00 7.67126129E-02 1.88127625E-02
 6 19 1.54817535E-02-1.95038172E-03 8.60737210E-03 0.00000000E+00 7.15685721E-02
 6 20 1.55094893E-02 1.85062696E-03-7.43630127E-03-3.49851551E-03 0.00000000E+00
 7  1 6.77033526E-02-1.56456327E-01 9.47008616E-02-1.50491360E-02 0.00000000E+00
 7  2-2.01243343E-01 4.26650964E-02-3.90069349E-03 0.00000000E+00-1.44335825E-02
 7  3-8.65336729E-03-7.17851136E-04 0.00000000E+00 5.13576590E-03-3.80692192E-03
 7  4-1.49802183E-03-1.83219721E-03 0.00000000E+00 0.00000000E+00-1.18631663E-01
 7  5 2.48606633E-01 1.59640415E-01-6.35064493E-03 0.00000000E+00 2.27935116E-01
 7  6 4.12632725E-02-1.05835267E-02 0.00000000E+00-4.23462624E-03 1.30724554E-02
 7  7 9.02896481E-03 0.00000000E+00-2.70440026E-04 9.59271344E-03-9.37211574E-03
 7  8 1.12236947E-02 0.00000000E+00 0.00000000E+00-5.24915621E-02 1.05167691E-01
 7  9-2.15420701E-01-2.22950488E-02 0.00000000E+00 9.76625777E-02-5.11019652E-02
 7 10-3.27170638E-03 0.00000000E+00-1.10857732E-01-1.89987189E-02 1.66874305E-02
 7 11 0.00000000E+00 1.37261253E-03 7.23415729E-03-4.90979142E-03 1.76082378E-02
 7 12 0.00000000E+00 0.00000000E+00 1.26380339E-01-2.46804461E-01-6.50277037E-02
 7 13-6.69329576E-03 0.00000000E+00-2.27503742E-01-2.52599082E-02 2.65338693E-03
 7 14 0.00000000E+00 1.24756569E-01-9.45688790E-03 6.82380959E-03 0.00000000E+00
 7 15-1.16887470E-03-6.58072576E-03 1.08917026E-02-1.47070730E-03 0.00000000E+00
 7 16 0.00000000E+00 1.08092473E-01 4.45791632E-02 2.38299563E-02 7.28409509E-04
 7 17 9.05761086E-03 0.00000000E+00 4.28339614E-02 1.67329546E-02 1.54141817E-03
 7 18-1.79947626E-03-3.62993872E-03 0.00000000E+00-1.02560902E-01-4.53937848E-02
 7 19-2.01733136E-02 3.44618752E-04-9.24086274E-03 0.00000000E+00-1.30035434E-01
 7 20-5.99636289E-02-1.72582990E-02 9.50992778E-03 6.08227850E-03 0.00000000E+00
 8  1 3.88367465E-02-9.25022232E-02 4.54023146E-02-1.56202706E-01 0.00000000E+00
 8  2-1.17811151E-01 2.35182600E-02-8.29742106E-02 0.00000000E+00 8.23079758E-03
 8  3 4.15912083E-03 5.34833839E-03 0.00000000E+00-1.89522944E-03 3.86321468E-03
 8  4-2.27560452E-03-1.13713833E-02 0.00000000E+00 0.00000000E+00-8.27240095E-02
 8  5 1.73016302E-01-2.37351055E-02-2.21862813E-01 0.00000000E+00 1.69665264E-01
 8  6 2.50305656E-02-7.40101457E-02 0.00000000E+00-1.48227618E-01-3.12574362E-02
 8  7-1.62510050E-02 0.00000000E+00-3.31594695E-03 4.44377252E-03-6.93879525E-03
 8  8-4.61544733E-03 0.00000000E+00 0.00000000E+00 9.34471272E-02-1.82592238E-01
 8  9 3.51031125E-03-1.59110394E-01 0.00000000E+00-2.10917459E-01 8.93071733E-03
 8 10-4.85196654E-02 0.00000000E+00 2.98838093E-01 1.53417564E-02-4.36964517E-02
 8 11 0.00000000E+00 1.06653418E-03-5.44770256E-03 6.75638367E-03 3.73497692E-03
 8 12 0.00000000E+00 0.00000000E+00-5.10765243E-02 1.00120942E-01 8.62477259E-02
 8 13-1.28569332E-01 0.00000000E+00 1.12276150E-01 2.27150181E-02-4.16500243E-02
 8 14 0.00000000E+00-1.97142445E-01 3.66783613E-02-1.23958629E-02 0.00000000E+00
 8 15-2.14292132E-03 6.65249038E-03-5.02677394E-03 7.62451786E-03 0.00000000E+00
 8 16 0.00000000E+00 1.82572119E-01 1.03845798E-01 1.53587240E-02-1.02804566E-03
 8 17 1.29748046E-02 0.00000000E+00-1.63966618E-01-8.55645762E-02-5.83660808E-03
 8 18-1.43046429E-03 1.19657170E-02 0.00000000E+00 1.19474379E-01 7.11210488E-02
 8 19 1.33339474E-02-4.28149910E-04 8.00756236E-03 0.00000000E+00 5.01034306E-02
 8 20 3.08450095E-02 7.74193936E-03-2.14804468E-03-3.63104192E-03 0.00000000E+00
 9  1 4.92905246E-02-1.13812778E-01 3.37625686E-01 9.50205854E-02 0.00000000E+00
 9  2-2.16409122E-01 1.69502391E-01 6.92897628E-02 0.00000000E+00-4.00115650E-02
 9  3-6.69486200E-03-2.09561273E-03 0.00000000E+00 2.18200446E-02-1.23804642E-02
 9  4-5.08668216E-03 1.61301511E-03 0.00000000E+00 0.00000000E+00-3.48169238E-02
 9  5 8.50066574E-02-5.58281828E-02 2.76256262E-01 0.00000000E+00 6.01788537E-02
 9  6-2.31464376E-02 1.01855605E-01 0.00000000E+00 5.85354276E-03 2.83917668E-02
 9  7-1.92466225E-03 0.00000000E+00 1.20621445E-03-2.84719951E-03-5.10062171E-03
 9  8-9.26772042E-03 0.00000000E+00 0.00000000E+00 3.34564412E-02-6.69099757E-02
 9  9-2.19045362E-01 5.68297004E-02 0.00000000E+00-4.11660881E-02-5.91189549E-02
 9 10 1.70209498E-03 0.00000000E+00 1.06743420E-03-2.74443132E-02-8.11935591E-03
 9 11 0.00000000E+00 4.00888166E-03 3.47515104E-04 1.20117594E-03 1.03693307E-02
 9 12 0.00000000E+00 0.00000000E+00-1.90624903E-02 3.64178256E-02 2.56499122E-01
 9 13-1.19317213E-01 0.00000000E+00 5.53007756E-02 9.94972619E-02-3.68980329E-02
 9 14 0.00000000E+00-2.45824489E-02 2.12560026E-02 1.77603618E-02 0.00000000E+00
 9 15-4.66232628E-03 1.03334445E-02-2.59400265E-03 1.34230611E-02 0.00000000E+00
 9 16 0.00000000E+00-1.12780668E-01-7.24601497E-02-3.44352540E-03 4.82055390E-04
 9 17-6.03914193E-03 0.00000000E+00 1.17009332E-02 1.72797158E-02 6.09760103E-03
 9 18-3.75232366E-03-1.58726712E-04 0.00000000E+00 1.02402752E-01 7.52350241E-02
 9 19 1.76845588E-02 2.94545169E-03 5.86665544E-03 0.00000000E+00 1.11793517E-01
 9 20 7.21943297E-02-7.11931031E-03-2.84798505E-03-5.80179341E-03 0.00000000E+00
10  1-4.63110223E-02 1.07748392E-01-1.73911167E-01 2.55937213E-01 0.00000000E+00
10  2 1.95023002E-01-7.56989322E-02 1.39662913E-01 0.00000000E+00 1.91571249E-02
10  3-9.99754848E-03-1.83669675E-03 0.00000000E+00-3.35051357E-03-4.86653519E-03
10  4 4.61566190E-03 1.70380276E-02 0.00000000E+00 0.00000000E+00 2.61806445E-02
10  5-6.10247210E-02 2.38855367E-01 1.16832159E-01 0.00000000E+00-4.80093862E-02
10  6 5.96499294E-02 4.94016691E-02 0.00000000E+00 7.21692162E-02 2.68551759E-02
10  7 1.34981652E-02 0.00000000E+00-1.63631333E-03 2.68633868E-03 5.40531794E-03
10  8 8.15333589E-03 0.00000000E+00 0.00000000E+00 3.98494391E-03-6.74117951E-03
10  9-1.15048491E-01-2.18101566E-01 0.00000000E+00-1.25276865E-02-3.71349796E-02
10 10-8.72935391E-02 0.00000000E+00-2.12041110E-01-4.98937470E-02 4.80350744E-02
10 11 0.00000000E+00 1.78215589E-03-1.57617849E-03 3.74419956E-04 3.45860813E-03
10 12 0.00000000E+00 0.00000000E+00-1.42072763E-03 8.14561493E-04-1.04416036E-01
10 13-2.46719504E-01 0.00000000E+00 3.66320440E-03-4.90251438E-02-1.03336787E-01
10 14 0.00000000E+00 1.74381802E-01-2.81407280E-02 3.11808010E-02 0.00000000E+00
10 15-4.67988483E-03 5.51735051E-03-6.59882246E-04-3.26032949E-03 0.00000000E+00
10 16 0.00000000E+00-6.97175289E-02-4.32592577E-02 2.67613649E-04 3.16772937E-03
10 17-4.63386706E-03 0.00000000E+00-1.19776131E-01-7.49731914E-02-3.19042269E-02
10 18-3.36928110E-03 6.91055978E-03 0.00000000E+00 1.38892007E-01 9.47638860E-02
10 19 2.09388779E-02-2.30000640E-03 7.54744456E-03 0.00000000E+00-1.26836774E-01
10 20-8.18798275E-02-1.63668868E-02 7.07732964E-03 2.02586294E-03 0.00000000E+00
11  1-3.42036156E-02 7.90713479E-02-3.18639605E-01 1.26677748E-01 0.00000000E+00
11  2 1.78991862E-01-1.57322261E-01 6.41964452E-02 0.00000000E+00 4.09569929E-02
11  3-4.37704383E-03 2.98144398E-03 0.00000000E+00-1.40767863E-02 4.85143127E-03
11  4 5.73757696E-03 9.46372306E-03 0.00000000E+00 0.00000000E+00-3.76188167E-03
11  5-3.25913803E-03 2.38737502E-01-1.44126220E-01 0.00000000E+00 4.70207496E-02
11  6 7.78085789E-02-5.63257394E-02 0.00000000E+00 3.41045016E-02-2.87550821E-03
11  7 3.15778547E-02 0.00000000E+00-2.00487878E-02 2.03863308E-02 5.18450470E-03
11  8 1.65700119E-02 0.00000000E+00 0.00000000E+00 1.02751067E-02-2.15025349E-02
11  9-2.25376638E-01 1.66073165E-01 0.00000000E+00-7.88462850E-03-8.10008177E-02
11 10 7.88675040E-02 0.00000000E+00 2.72145708E-02 5.58659919E-02-2.27952326E-03
11 11 0.00000000E+00-7.02294449E-03 1.14173202E-02-2.36679345E-04 1.51380903E-02
11 12 0.00000000E+00 0.00000000E+00 1.44440222E-02-3.36188045E-02 3.19383827E-01
11 13 6.81631306E-03 0.00000000E+00 3.07961784E-03 1.13688040E-01 1.23016940E-02
11 14 0.00000000E+00-9.77837036E-02 6.75961273E-03-3.92487086E-02 0.00000000E+00
11 15-4.76653599E-05 6.11684009E-03-7.03213721E-04 1.62388625E-02 0.00000000E+00
11 16 0.00000000E+00 1.11297228E-01 8.73201137E-02 2.84737657E-02 1.66511477E-03
11 17 5.38919733E-03 0.00000000E+00 1.07968056E-01 7.57370686E-02 8.34693194E-03
11 18-1.96714341E-03-4.91325266E-03 0.00000000E+00 3.10907278E-03 5.16975242E-03
11 19-2.61785157E-02 4.53294156E-03-9.32171400E-04 0.00000000E+00 1.60376981E-01
11 20 1.28637047E-01 3.17642392E-02-4.36499073E-03-6.03029770E-03 0.00000000E+00
12  1-4.71309446E-03 9.83076371E-03 3.61369123E-02 2.01370191E-01 0.00000000E+00
12  2 2.89542752E-02 3.36625661E-02 1.30062655E-01 0.00000000E+00 4.27462678E-03
12  3-2.72001811E-03 3.41575154E-03 0.00000000E+00 5.71175070E-03-8.16049825E-03
12  4 6.52118752E-04 9.56116670E-03 0.00000000E+00 0.00000000E+00-2.52068448E-02
12  5 5.55476546E-02 1.30161594E-01 7.47063580E-02 0.00000000E+00 3.99105854E-02
12  6 3.32912264E-02 2.68566792E-02 0.00000000E+00 4.94572373E-02 2.48964324E-02
12  7 3.18104257E-02 0.00000000E+00-2.94371499E-03 2.57417548E-03 3.03173848E-04
12  8-4.49645364E-03 0.00000000E+00 0.00000000E+00 1.73028502E-02-3.28396763E-02
12  9 3.75683912E-02-2.63318611E-01 0.00000000E+00-5.50361193E-02-8.45100683E-03
12 10-1.70680915E-01 0.00000000E+00-7.74186148E-02 8.45563789E-03 3.32463328E-02
12 11 0.00000000E+00 1.99131044E-02-2.28276228E-02 1.11165238E-03 1.17446813E-02
12 12 0.00000000E+00 0.00000000E+00-1.12460210E-02 2.58530261E-02 3.77982343E-02
12 13 3.23992938E-01 0.00000000E+00 9.21638161E-03 5.33485770E-02 1.86701054E-01
12 14 0.00000000E+00 4.18677435E-02-2.08368332E-02-2.43460444E-02 0.00000000E+00
12 15 2.09526839E-02-2.31642553E-02-1.19833843E-04 1.20177546E-02 0.00000000E+00
12 16 0.00000000E+00-8.40252238E-03-8.17706950E-03 3.07933062E-02 1.06278654E-03
12 17 4.66856513E-04 0.00000000E+00-2.04070374E-01-1.39909534E-01-4.11078427E-02
12 18-7.12123797E-04 8.78219736E-03 0.00000000E+00-2.13252104E-01-1.68964483E-01
12 19-5.31825531E-02 1.20722756E-03-8.37604346E-03 0.00000000E+00 1.57467083E-01
12 20 1.11577475E-01 4.44174493E-02-7.68987719E-03-1.20400359E-03 0.00000000E+00
13  1 0.00000000E+00 0.00000000E+00 0.00000000E+00 0.00000000E+00 4.54075066E-01
13  2 0.00000000E+00 0.00000000E+00 0.00000000E+00 3.09766580E-01 0.00000000E+00
13  3 0.00000000E+00 0.00000000E+00 1.42890473E-02 0.00000000E+00 0.00000000E+00
13  4 0.00000000E+00 0.00000000E+00 3.65194599E-02-1.54342728E-02 0.00000000E+00
13  5 0.00000000E+00 0.00000000E+00 0.00000000E+00 3.27979478E-01 0.00000000E+00
13  6 0.00000000E+00 0.00000000E+00 1.70998437E-01 0.00000000E+00 0.00000000E+00
13  7 0.00000000E+00 2.69757191E-02 0.00000000E+00 0.00000000E+00 0.00000000E+00
13  8 0.00000000E+00-2.59999391E-02 1.71585356E-02 0.00000000E+00 0.00000000E+00
13  9 0.00000000E+00 0.00000000E+00 1.38742227E-01 0.00000000E+00 0.00000000E+00
13 10 0.00000000E+00 7.73965918E-02 0.00000000E+00 0.00000000E+00 0.00000000E+00
13 11 5.04794475E-03 0.00000000E+00 0.00000000E+00 0.00000000E+00 0.00000000E+00
13 12-3.32191223E-03-8.02365275E-03 0.00000000E+00 0.00000000E+00 0.00000000E+00
13 13 0.00000000E+00 8.38546689E-02 0.00000000E+00 0.00000000E+00 0.00000000E+00
13 14 5.04887587E-02 0.00000000E+00 0.00000000E+00 0.00000000E+00-1.72193164E-03
13 15 0.00000000E+00 0.00000000E+00 0.00000000E+00 0.00000000E+00-7.92738004E-03
13 16 2.95773463E-03 0.00000000E+00 0.00000000E+00 0.00000000E+00 0.00000000E+00
13 17 0.00000000E+00 5.50944229E-03 0.00000000E+00 0.00000000E+00 0.00000000E+00
13 18 0.00000000E+00 0.00000000E+00 2.89989375E-03 0.00000000E+00 0.00000000E+00
13 19 0.00000000E+00 0.00000000E+00 0.00000000E+00 1.92916965E-03 0.00000000E+00
13 20 0.00000000E+00 0.00000000E+00 0.00000000E+00 0.00000000E+00 1.72611605E-03
14  1 1.94661661E-04-7.23390693E-03 2.11690087E-01 4.87703164E-01 0.00000000E+00
14  2 4.03986572E-02 1.73756221E-01 3.60096192E-01 0.00000000E+00 3.59382883E-02
14  3 2.34405898E-02 3.84022125E-02 0.00000000E+00 1.08801476E-02-1.30874929E-02
14  4-2.06750204E-03 1.29036744E-02 0.00000000E+00 0.00000000E+00 2.71790170E-03
14  5-1.69865868E-02-8.62441145E-02-1.78076308E-01 0.00000000E+00 3.80597957E-03
14  6 4.40919668E-02-9.64612020E-02 0.00000000E+00 1.69234528E-01 9.17832703E-02
14  7 7.92486502E-02 0.00000000E+00-3.80389142E-02 3.85724087E-02-1.10058529E-03
14  8-3.84247827E-02 0.00000000E+00 0.00000000E+00 3.37062901E-02-6.50585793E-02
14  9 2.01542162E-01 1.37512067E-01 0.00000000E+00-2.23670085E-01 7.12348958E-02
14 10 1.70753132E-01 0.00000000E+00-3.74530128E-01 2.67119707E-02 1.06450589E-01
14 11 0.00000000E+00-8.09579053E-03 6.47319064E-03 1.06745166E-03-1.14727325E-02
14 12 0.00000000E+00 0.00000000E+00-6.68699283E-03 1.15578120E-02-7.94615554E-02
14 13-6.71427487E-03 0.00000000E+00 9.16319604E-02-9.31530228E-02-1.63325593E-02
14 14 0.00000000E+00 1.69412909E-01-3.73996474E-02-3.07445987E-02 0.00000000E+00
14 15-6.17961227E-03 6.75934083E-03-5.91895944E-04-8.75541648E-03 0.00000000E+00
14 16 0.00000000E+00 1.84284915E-01 2.21863851E-01 1.09165040E-01-1.58742518E-03
14 17 4.98836819E-03 0.00000000E+00 5.78795932E-02 2.99256232E-02-3.17609095E-02
14 18 2.04674904E-03-8.99556945E-04 0.00000000E+00 2.51544954E-02 1.97822448E-02
14 19-5.61285716E-02-1.45032085E-03-2.71237944E-04 0.00000000E+00-5.43117625E-02
14 20-4.40970601E-02 1.37608789E-02 8.26764218E-04 1.47774381E-03 0.00000000E+00
15  1 0.00000000E+00 0.00000000E+00 0.00000000E+00 0.00000000E+00-2.24169056E-01
15  2 0.00000000E+00 0.00000000E+00 0.00000000E+00-1.69648209E-01 0.00000000E+00
15  3 0.00000000E+00 0.00000000E+00-3.88463436E-02 0.00000000E+00 0.00000000E+00
15  4 0.00000000E+00 0.00000000E+00-1.36236458E-02 6.41328285E-03 0.00000000E+00
15  5 0.00000000E+00 0.00000000E+00 0.00000000E+00-3.75582608E-02 0.00000000E+00
15  6 0.00000000E+00 0.00000000E+00-2.45873781E-02 0.00000000E+00 0.00000000E+00
15  7 0.00000000E+00-5.72540034E-03 0.00000000E+00 0.00000000E+00 0.00000000E+00
15  8 0.00000000E+00 2.89757262E-02-1.22622456E-03 0.00000000E+00 0.00000000E+00
15  9 0.00000000E+00 0.00000000E+00 3.57463773E-01 0.00000000E+00 0.00000000E+00
15 10 0.00000000E+00 2.71675194E-01 0.00000000E+00 0.00000000E+00 0.00000000E+00
15 11 3.24516378E-02 0.00000000E+00 0.00000000E+00 0.00000000E+00 0.00000000E+00
15 12 2.11966520E-02-1.47990380E-02 0.00000000E+00 0.00000000E+00 0.00000000E+00
15 13 0.00000000E+00 3.50576521E-01 0.00000000E+00 0.00000000E+00 0.00000000E+00
15 14 2.57162576E-01 0.00000000E+00 0.00000000E+00 0.00000000E+00 4.85007216E-02
15 15 0.00000000E+00 0.00000000E+00 0.00000000E+00 0.00000000E+00-2.33500151E-02
15 16 1.04438417E-02 0.00000000E+00 0.00000000E+00 0.00000000E+00 0.00000000E+00
15 17 0.00000000E+00-3.51818674E-05 0.00000000E+00 0.00000000E+00 0.00000000E+00
15 18 0.00000000E+00 0.00000000E+00 7.72251167E-03 0.00000000E+00 0.00000000E+00
15 19 0.00000000E+00 0.00000000E+00 0.00000000E+00 8.21175643E-03 0.00000000E+00
15 20 0.00000000E+00 0.00000000E+00 0.00000000E+00 0.00000000E+00 8.08856097E-03
16  1-3.08866535E-03 1.51428678E-04-1.05772467E-02 1.53870399E-02 0.00000000E+00
16  2 5.47084246E-02 1.28046601E-02 1.92233760E-02 0.00000000E+00-2.80001640E-01
16  3-2.09149815E-01 3.17473517E-02 0.00000000E+00-1.95688052E-03-1.68180936E-03
16  4-2.43322107E-03-4.20828228E-04 0.00000000E+00 0.00000000E+00-9.70987137E-03
16  5 1.53220258E-02 9.59544610E-03-3.90456417E-02 0.00000000E+00 1.16565220E-01
16  6 1.16255894E-02-6.41296272E-02 0.00000000E+00 6.52753514E+00 1.55886264E+00
16  7-1.81182565E-01 0.00000000E+00-2.91887846E-03 2.93179618E-03-2.34191528E-03
16  8 3.21010372E-04 0.00000000E+00 0.00000000E+00-2.54543685E-03 1.09815814E-02
16  9-7.37460054E-03 3.43977137E-02 0.00000000E+00-5.99112506E-03-9.17593996E-02
16 10 1.16423124E-01 0.00000000E+00-8.43324648E+00-5.30143985E-01 3.34241415E+00
16 11 0.00000000E+00-7.08715804E-04 3.97029056E-03-3.31281215E-03 1.01255053E-03
16 12 0.00000000E+00 0.00000000E+00-2.30800026E-02 6.80662977E-02 5.33245372E-02
16 13-2.17086711E-02 0.00000000E+00 1.56551979E-01-3.59636762E-02-2.09564042E-02
16 14 0.00000000E+00 8.92863574E+00-7.82648605E-01-2.18470510E-01 0.00000000E+00
16 15 4.03611848E-03 5.79843489E-03-1.51964240E-03-1.18607074E-03 0.00000000E+00
16 16 0.00000000E+00 2.16070706E-02-9.33733896E-02-1.33568063E+00-9.74306469E-04
16 17 1.85106771E-03 0.00000000E+00 2.12510172E-02-1.29944920E-01-2.24747418E+00
16 18-3.10362854E-04 3.35178451E-04 0.00000000E+00 1.76998080E-02-8.66095899E-02
16 19-2.16306447E+00 1.33669312E-03 3.33657250E-03 0.00000000E+00 1.58590766E-02
16 20-6.40287196E-02-1.78716143E+00-2.86863016E-03-3.38941480E-03 0.00000000E+00
17  1-4.51031115E-04 3.40736081E-03 1.36505272E-03 5.96036444E-03 0.00000000E+00
17  2-1.18688085E-02-1.05295010E-02-2.69527032E-04 0.00000000E+00-2.92524535E-02
17  3 6.68619201E-02 1.24799648E-01 0.00000000E+00-1.71671598E-03 1.70914353E-03
17  4 5.44296550E-04-5.82222516E-04 0.00000000E+00 0.00000000E+00-9.81318300E-03
17  5 2.91299165E-02 4.99971717E-03-5.42577088E-02 0.00000000E+00 6.89945821E-02
17  6-1.09328233E-02-2.94117793E-02 0.00000000E+00 1.57134470E+00-3.49600541E-01
17  7-8.13849677E-01 0.00000000E+00 3.98530920E-03-8.16542435E-06-5.50279747E-05
17  8-3.75297614E-03 0.00000000E+00 0.00000000E+00 1.13592101E-02-3.51270165E-02
17  9 8.42183890E-03-3.70345299E-02 0.00000000E+00-1.12044159E-02 5.05967649E-02
17 10-2.70843610E-03 0.00000000E+00-7.56352956E-01 5.03318200E-01 9.83705139E-03
17 11 0.00000000E+00-6.41961565E-03 5.63973108E-03-1.96037873E-03-1.35395583E-03
17 12 0.00000000E+00 0.00000000E+00 1.67357835E-04-3.41122918E-04-3.24060917E-02
17 13-6.61736674E-02 0.00000000E+00-3.30127016E-02-7.91102692E-03-6.27213310E-02
17 14 0.00000000E+00-4.13774904E-01-1.08413157E+00-1.65815257E+00 0.00000000E+00
17 15 1.03827421E-04-3.26594411E-04 1.05707632E-04 1.79991929E-03 0.00000000E+00
17 16 0.00000000E+00 8.68524190E-03-8.11047972E-02-2.43117249E+00-1.01515324E-04
17 17 4.05580562E-03 0.00000000E+00 4.39602206E-03 6.12524465E-02 1.57766268E+00
17 18 5.90364895E-05 4.67995512E-03 0.00000000E+00 1.52328381E-02-8.83562631E-02