!   HNO, Experimental geom, cc-pVTZ basis (without H(d),N(f),O(f))
!   Jacobi converger, using full valence space.
!
!   ITERMX set to intermingle the CI with the orbital optimization,
!   using a number greater than 3 to avoid the 3-iterations-at-least
!   change of recent years.  The CI is not fully optimized during
!   the first 6 iterations, while many Jacobi sweeps are still running.
!
!        FINAL E= -129.9676777837 after 12 iters
!
!   This run takes 16 seconds on 2.66 GHz Cloverton (26 Apr 2015)
!   answers stable since 2005
!
 $contrl scftyp=mcscf runtyp=energy mult=1 $end
 $system mwords=2 memddi=0 $end
 $mcscf  cistep=aldet jacobi=.true. $end
 $det    group=Cs stsym=Ap ncore=2 nact=9 nels=12 itermx=5 $end
 $guess  guess=moread norb=59 $end
 $data
HNO cc-pVTZ (without H(d),N(f),O(f)) basis.
Cs

H       1    -0.3390537457838       1.00747781984     0.0
 S   3
  1        33.87000000         0.6068000000E-02
  2        5.095000000         0.4530800000E-01
  3        1.159000000         0.2028220000    
 S   1
  1       0.3258000000          1.000000000    
 S   1
  1       0.1027000000          1.000000000    
 P   1
  1        1.407000000          1.000000000    
 P   1
  1       0.3880000000          1.000000000    

N       7   0.0        0.0       0.0
 S   8
  1        11420.00000         0.5230000000E-03
  2        1712.000000         0.4045000000E-02
  3        389.3000000         0.2077500000E-01
  4        110.0000000         0.8072700000E-01
  5        35.57000000         0.2330740000    
  6        12.54000000         0.4335010000    
  7        4.644000000         0.3474720000    
  8       0.5118000000        -0.8508000000E-02
 S   8
  1        11420.00000        -0.1150000000E-03
  2        1712.000000        -0.8950000000E-03
  3        389.3000000        -0.4624000000E-02
  4        110.0000000        -0.1852800000E-01
  5        35.57000000        -0.5733900000E-01
  6        12.54000000        -0.1320760000    
  7        4.644000000        -0.1725100000    
  8       0.5118000000         0.5999440000    
 S   1
  1        1.293000000          1.000000000    
 S   1
  1       0.1787000000          1.000000000    
 P   3
  1        26.63000000         0.1467000000E-01
  2        5.948000000         0.9176400000E-01
  3        1.742000000         0.2986830000    
 P   1
  1       0.5550000000          1.000000000    
 P   1
  1       0.1725000000          1.000000000    
 D   1
  1        1.654000000          1.000000000    
 D   1
  1       0.4690000000          1.000000000    

O      8    1.212        0.0       0.0
 S   8
  1        15330.00000         0.5080000000E-03
  2        2299.000000         0.3929000000E-02
  3        522.4000000         0.2024300000E-01
  4        147.3000000         0.7918100000E-01
  5        47.55000000         0.2306870000    
  6        16.76000000         0.4331180000    
  7        6.207000000         0.3502600000    
  8       0.6882000000        -0.8154000000E-02
 S   8
  1        15330.00000        -0.1150000000E-03
  2        2299.000000        -0.8950000000E-03
  3        522.4000000        -0.4636000000E-02
  4        147.3000000        -0.1872400000E-01
  5        47.55000000        -0.5846300000E-01
  6        16.76000000        -0.1364630000    
  7        6.207000000        -0.1757400000    
  8       0.6882000000         0.6034180000    
 S   1
  1        1.752000000          1.000000000    
 S   1
  1       0.2384000000          1.000000000    
 P   3
  1        34.46000000         0.1592800000E-01
  2        7.749000000         0.9974000000E-01
  3        2.280000000         0.3104920000    
 P   1
  1       0.7156000000          1.000000000    
 P   1
  1       0.2140000000          1.000000000    
 D   1
  1        2.314000000          1.000000000    
 D   1
  1       0.6450000000          1.000000000    

 $end

--- RHF ORBITALS --- GENERATED AT 20:23:05 CST 14-FEB-2001
HNO cc-pVTZ (without H(d),N(f),O(f)) basis.                                     
E(RHF)=     -129.8312739459, E(NUC)=   30.2240478449,   12 ITERS
 $VEC
 1  1 8.78590293E-05-6.65554803E-05 8.58354292E-05-5.91867888E-08-3.68776605E-05
 1  2 0.00000000E+00-5.61054470E-05-7.53138580E-05 0.00000000E+00 4.64071743E-04
 1  3 8.66483102E-04-1.89582629E-04 2.60246994E-03 8.02524741E-05 1.62327061E-05
 1  4 0.00000000E+00 1.32137366E-03-3.90463238E-05 0.00000000E+00 1.35232766E-03
 1  5 2.19575368E-05 0.00000000E+00 2.67876501E-04-1.56179681E-04-1.23737712E-04
 1  6-7.72159709E-06 0.00000000E+00 0.00000000E+00 6.12177738E-04-4.18065498E-04
 1  7-3.15309993E-04 8.83757206E-05 0.00000000E+00 0.00000000E+00 9.72020431E-01
 1  8-9.27764089E-03 4.58655371E-02-6.26547634E-03-1.96525662E-03 8.78361116E-05
 1  9 0.00000000E+00 1.54593633E-03-5.35485900E-05 0.00000000E+00 1.21553068E-03
 1 10-6.37586787E-06 0.00000000E+00 2.30133018E-03 2.21327974E-03 1.86974692E-03
 1 11 2.29255763E-06 0.00000000E+00 0.00000000E+00 3.29642292E-03 4.54927539E-03
 1 12 4.29329821E-03 2.68826092E-05 0.00000000E+00 0.00000000E+00
 2  1 3.61774202E-04 1.05545774E-03 5.15241279E-04 1.04546203E-04-1.92983765E-04
 2  2 0.00000000E+00 2.49020242E-04-5.02861654E-04 0.00000000E+00 9.73309657E-01
 2  3-8.81882368E-03 4.42313621E-02-4.98485554E-03 1.94522223E-03 1.88133393E-03
 2  4 0.00000000E+00-1.39119307E-03-1.32760933E-03 0.00000000E+00-3.59546050E-04
 2  5-3.35886619E-04 0.00000000E+00 2.16837755E-03 2.08009743E-03 1.63623729E-03
 2  6 5.32052272E-05 0.00000000E+00 0.00000000E+00 3.08068218E-03 3.49517828E-03
 2  7 3.91529402E-03 1.57836583E-04 0.00000000E+00 0.00000000E+00-6.53067706E-06
 2  8 5.17238596E-04-6.94423836E-05 2.01233989E-03-2.23796265E-04-3.28090466E-05
 2  9 0.00000000E+00-9.45780337E-04 7.54269293E-05 0.00000000E+00-6.73491429E-04
 2 10 1.92423571E-05 0.00000000E+00 8.03359688E-05-8.45131720E-05-6.73721868E-05
 2 11 1.24283037E-05 0.00000000E+00 0.00000000E+00 2.46254140E-04-3.29579398E-04
 2 12-2.44742140E-04-1.06571896E-04 0.00000000E+00 0.00000000E+00
 3  1 3.09252882E-02 3.58439418E-02-2.72852731E-03 2.74665840E-03-5.53590432E-03
 3  2 0.00000000E+00 1.54975680E-03-6.70538297E-03 0.00000000E+00-1.60551239E-02
 3  3 2.84709012E-01 7.03206776E-02 7.99062311E-02 9.17553522E-02 1.15699011E-02
 3  4 0.00000000E+00 1.03075241E-01 1.56635757E-02 0.00000000E+00 6.34920374E-03
 3  5-1.94529914E-03 0.00000000E+00 1.99775564E-02-3.05375297E-03-6.07135637E-03
 3  6 1.67727477E-04 0.00000000E+00 0.00000000E+00 4.83009514E-03-1.47411724E-02
 3  7-9.51977910E-03 6.03695787E-03 0.00000000E+00 0.00000000E+00-5.10780512E-03
 3  8 4.27556735E-01 1.11219810E-01 2.08154067E-01-8.13955720E-02 3.21899531E-03
 3  9 0.00000000E+00-1.12153585E-01 3.49681914E-03 0.00000000E+00-2.25940047E-02
 3 10 3.11484168E-03 0.00000000E+00 1.18577313E-02-4.51204743E-03-4.94948611E-03
 3 11-4.62275289E-04 0.00000000E+00 0.00000000E+00 2.10178186E-02-8.73990508E-03
 3 12-6.98287267E-03-3.08701800E-04 0.00000000E+00 0.00000000E+00
 4  1 1.11846711E-01 1.29550609E-01 1.21164544E-02 3.82997230E-03-1.41577104E-02
 4  2 0.00000000E+00 2.32720145E-04-7.73121232E-03 0.00000000E+00-1.09185929E-03
 4  3 3.90850180E-01 1.09580148E-01 2.08087204E-01-7.58859091E-02 6.63718651E-02
 4  4 0.00000000E+00-9.07395350E-02 9.50563529E-02 0.00000000E+00-4.22922593E-02
 4  5 2.40580363E-02 0.00000000E+00-2.86396656E-03 1.24946120E-02-2.86604738E-04
 4  6-3.06216169E-03 0.00000000E+00 0.00000000E+00-4.32042915E-03 2.69688211E-02
 4  7 5.01507312E-03-4.47983010E-03 0.00000000E+00 0.00000000E+00-4.30895285E-04
 4  8-3.19383126E-01-8.93597659E-02-2.67503974E-01-8.85195656E-02 2.38921362E-02
 4  9 0.00000000E+00-1.04667399E-01 2.94796238E-02 0.00000000E+00-4.81671834E-02
 4 10 1.09497047E-02 0.00000000E+00 3.01328446E-03-2.76469981E-03-2.34592966E-03
 4 11-1.74759042E-03 0.00000000E+00 0.00000000E+00 8.61529390E-03-6.18542819E-03
 4 12-6.82322368E-04-3.14317702E-03 0.00000000E+00 0.00000000E+00
 5  1 1.01664195E-01 1.41215736E-01 4.44683839E-02 2.41423025E-03-7.86021045E-03
 5  2 0.00000000E+00-1.96180085E-03-9.41269955E-03 0.00000000E+00-2.32603092E-04
 5  3-8.89738523E-02-3.15351697E-02-5.78273615E-03-1.09684735E-01 1.74500866E-01
 5  4 0.00000000E+00-1.40122423E-01 2.32112994E-01 0.00000000E+00-1.38359301E-02
 5  5 9.95669384E-02 0.00000000E+00-1.69401985E-02 1.14717876E-02-1.84317585E-03
 5  6 3.11619416E-03 0.00000000E+00 0.00000000E+00-2.01059453E-02 1.94357525E-02
 5  7-1.23469062E-02 6.64292555E-03 0.00000000E+00 0.00000000E+00 1.48231998E-03
 5  8 1.41813914E-01 4.14153879E-02 1.63273318E-01 1.84685101E-01 1.67649752E-01
 5  9 0.00000000E+00 2.29680581E-01 2.13883348E-01 0.00000000E+00 1.28915394E-01
 5 10 1.19665394E-01 0.00000000E+00-1.01916298E-02 5.14402702E-03 4.09348659E-03
 5 11-6.04673348E-03 0.00000000E+00 0.00000000E+00-2.18112274E-02 8.95614435E-03
 5 12 5.05260195E-03-1.54260655E-02 0.00000000E+00 0.00000000E+00
 6  1-1.79735843E-02-1.39519941E-02-1.84495209E-02 3.40016954E-03 3.18324925E-03
 6  2 0.00000000E+00 5.14979836E-03 2.44952259E-03 0.00000000E+00-4.14862700E-03
 6  3-1.41399238E-01-3.22008225E-02-2.42414950E-01 1.97547631E-01 1.10621273E-01
 6  4 0.00000000E+00 2.49117797E-01 1.42721611E-01 0.00000000E+00 9.81066560E-02
 6  5 7.94761583E-02 0.00000000E+00 1.61062267E-02-3.62319673E-03-4.12052571E-03
 6  6 1.14372874E-02 0.00000000E+00 0.00000000E+00 1.33557333E-02 6.98978324E-03
 6  7 3.88762656E-04 2.71442613E-02 0.00000000E+00 0.00000000E+00-1.06415956E-04
 6  8-8.25972169E-02-2.42456507E-02-1.19396769E-01-1.90146472E-01 1.90883447E-01
 6  9 0.00000000E+00-2.40970758E-01 2.41568712E-01 0.00000000E+00-1.49935448E-01
 6 10 1.50820024E-01 0.00000000E+00 1.03759190E-02-4.54197904E-03-4.13602770E-03
 6 11-5.75603114E-03 0.00000000E+00 0.00000000E+00 2.40168826E-02-4.36243805E-03
 6 12-6.24169602E-03-1.50371199E-02 0.00000000E+00 0.00000000E+00
 7  1 0.00000000E+00 0.00000000E+00 0.00000000E+00 0.00000000E+00 0.00000000E+00
 7  2 4.19123942E-03 0.00000000E+00 0.00000000E+00 8.11873153E-03 0.00000000E+00
 7  3 0.00000000E+00 0.00000000E+00 0.00000000E+00 0.00000000E+00 0.00000000E+00
 7  4 1.96587341E-01 0.00000000E+00 0.00000000E+00 2.71628915E-01 0.00000000E+00
 7  5 0.00000000E+00 1.81407086E-01 0.00000000E+00 0.00000000E+00 0.00000000E+00
 7  6 0.00000000E+00 1.55932879E-02 2.46576464E-03 0.00000000E+00 0.00000000E+00
 7  7 0.00000000E+00 0.00000000E+00 4.14634776E-02 1.34298557E-02 0.00000000E+00
 7  8 0.00000000E+00 0.00000000E+00 0.00000000E+00 0.00000000E+00 0.00000000E+00
 7  9 2.56013258E-01 0.00000000E+00 0.00000000E+00 3.38013978E-01 0.00000000E+00
 7 10 0.00000000E+00 2.36065279E-01 0.00000000E+00 0.00000000E+00 0.00000000E+00
 7 11 0.00000000E+00-1.02159755E-02 1.75376561E-04 0.00000000E+00 0.00000000E+00
 7 12 0.00000000E+00 0.00000000E+00-3.88952678E-02 2.44434854E-03
 8  1-1.11773164E-01-2.28791373E-01-9.03954812E-02-5.77478727E-03 8.40007521E-03
 8  2 0.00000000E+00-3.31908671E-03 6.22799619E-03 0.00000000E+00 6.48991733E-03
 8  3 1.52360160E-01 3.24131108E-02 3.02553460E-01-8.03882650E-02-2.03646443E-01
 8  4 0.00000000E+00-1.00058417E-01-2.64153604E-01 0.00000000E+00-8.63285549E-02
 8  5-2.11966053E-01 0.00000000E+00-2.38803104E-03-1.14754627E-02 4.51848385E-03
 8  6 1.13396742E-02 0.00000000E+00 0.00000000E+00-5.13883532E-03-2.98499763E-02
 8  7-2.01788369E-03 1.42334971E-02 0.00000000E+00 0.00000000E+00-2.17301967E-03
 8  8-1.48009667E-02-9.20507716E-03 2.40151402E-02 3.26581003E-02 2.82248550E-01
 8  9 0.00000000E+00 4.48187132E-02 3.58527009E-01 0.00000000E+00 3.21094523E-02
 8 10 3.30588663E-01 0.00000000E+00-2.47708344E-03-1.88947893E-04 1.33452913E-04
 8 11 1.03751100E-03 0.00000000E+00 0.00000000E+00-1.17586789E-02-5.99458629E-03
 8 12-6.12531555E-03-7.14236276E-03 0.00000000E+00 0.00000000E+00
 9  1 0.00000000E+00 0.00000000E+00 0.00000000E+00 0.00000000E+00 0.00000000E+00
 9  2 6.60285548E-03 0.00000000E+00 0.00000000E+00 3.18273389E-02 0.00000000E+00
 9  3 0.00000000E+00 0.00000000E+00 0.00000000E+00 0.00000000E+00 0.00000000E+00
 9  4 2.48225275E-01 0.00000000E+00 0.00000000E+00 3.17102920E-01 0.00000000E+00
 9  5 0.00000000E+00 5.72260924E-01 0.00000000E+00 0.00000000E+00 0.00000000E+00
 9  6 0.00000000E+00-8.64857732E-03 3.44620923E-03 0.00000000E+00 0.00000000E+00
 9  7 0.00000000E+00 0.00000000E+00-9.28493929E-03 1.93318152E-02 0.00000000E+00
 9  8 0.00000000E+00 0.00000000E+00 0.00000000E+00 0.00000000E+00 0.00000000E+00
 9  9-2.38724966E-01 0.00000000E+00 0.00000000E+00-2.92032157E-01 0.00000000E+00
 9 10 0.00000000E+00-4.87507846E-01 0.00000000E+00 0.00000000E+00 0.00000000E+00
 9 11 0.00000000E+00-5.46041402E-03 2.19013141E-04 0.00000000E+00 0.00000000E+00
 9 12 0.00000000E+00 0.00000000E+00 1.05384525E-03-1.91978180E-03
10  1 2.67034349E-02 1.59629564E-01 1.97942924E+00-8.29329498E-03 2.44970952E-02
10  2 0.00000000E+00 5.97336020E-02-1.41587287E-01 0.00000000E+00 8.74262817E-03
10  3-1.17131411E-01 8.26434912E-02-1.81731003E+00 4.26464396E-02-1.19749441E-01
10  4 0.00000000E+00 6.35502655E-02-1.77775375E-01 0.00000000E+00 1.71132814E-01
10  5-7.26051741E-01 0.00000000E+00 1.86882353E-02 2.25973094E-02 1.43536245E-02
10  6-2.32255311E-03 0.00000000E+00 0.00000000E+00 1.76580534E-01 1.03320481E-01
10  7 1.92833274E-01 1.59212429E-02 0.00000000E+00 0.00000000E+00-3.85444154E-03
10  8-2.44804738E-02-1.36747110E-03-1.23398411E-02-2.84081485E-02 1.86726215E-02
10  9 0.00000000E+00-3.46414895E-02 2.61406533E-02 0.00000000E+00-8.02002645E-02
10 10 8.88727818E-02 0.00000000E+00 1.05470193E-03 2.86196363E-03 8.87492436E-04
10 11 3.86301538E-03 0.00000000E+00 0.00000000E+00 4.86416071E-03 1.29793417E-02
10 12 1.20190816E-02 2.79852508E-03 0.00000000E+00 0.00000000E+00
11  1 2.93392262E-02 8.92724007E-02-9.86375216E-02 1.50582706E-02-7.03749225E-03
11  2 0.00000000E+00-7.49518710E-04-4.42092573E-03 0.00000000E+00-3.89705945E-04
11  3 8.99215104E-02-1.30466493E-01 3.29600129E+00 5.76280506E-02-1.96000512E-02
11  4 0.00000000E+00 2.16917396E-01-3.89960999E-02 0.00000000E+00 2.40105494E+00
11  5-5.45689263E-02 0.00000000E+00-6.46769996E-02-5.63768653E-03-9.07415695E-03
11  6-3.26595463E-03 0.00000000E+00 0.00000000E+00 3.96333539E-02-2.75281835E-01
11  7-2.63255766E-01 4.10178231E-02 0.00000000E+00 0.00000000E+00 4.91081834E-02
11  8-1.17998489E-01 1.06083518E-03-3.15892938E+00 7.65902796E-02 2.29423011E-03
11  9 0.00000000E+00 1.95200426E-01-1.88894343E-02 0.00000000E+00 1.60735246E+00
11 10 4.10897089E-02 0.00000000E+00 5.80085026E-03-9.13755315E-03-9.56756721E-03
11 11 9.47585092E-05 0.00000000E+00 0.00000000E+00-8.01594998E-02 1.15106232E-01
11 12 1.17309176E-01 1.09881747E-02 0.00000000E+00 0.00000000E+00
12  1-2.27774365E-02 1.18347270E-01-3.22941292E-01-1.24985651E-02 1.86998864E-02
12  2 0.00000000E+00 1.94052062E-01-3.53939317E-01 0.00000000E+00-2.00775983E-03
12  3-1.75734443E-01-8.71960442E-01 3.24540417E+00 1.60816979E-02 1.69236326E-01
12  4 0.00000000E+00 1.34001868E-01 2.56538971E-01 0.00000000E+00-2.77449390E-01
12  5-4.84770255E-01 0.00000000E+00-1.52251273E-01-1.44381895E-01-1.59961365E-01
12  6 8.04941637E-03 0.00000000E+00 0.00000000E+00-1.07728899E+00-1.20867091E+00
12  7-9.95937228E-01 5.64422798E-02 0.00000000E+00 0.00000000E+00 9.77011861E-03
12  8-1.65078679E-02-7.75422261E-02 2.88812733E-01-4.17610371E-02 6.65568196E-05
12  9 0.00000000E+00-9.27004937E-02 3.93610192E-02 0.00000000E+00-1.64429672E-01
12 10-2.09086650E-02 0.00000000E+00-2.66358209E-02-9.93149575E-03-1.07321794E-02
12 11-2.56216569E-03 0.00000000E+00 0.00000000E+00-1.36493017E-01-9.46638760E-02
12 12-8.37972437E-02-3.54714871E-02 0.00000000E+00 0.00000000E+00
13  1 1.11557096E-01 1.83464546E+00-9.76112695E-01 2.85767115E-03-2.51338499E-02
13  2 0.00000000E+00 3.93835044E-02 1.32721386E-01 0.00000000E+00-1.40444660E-02
13  3-1.93032949E-01-2.62791368E-01-5.09057218E-02 3.08990169E-02-1.14761860E-01
13  4 0.00000000E+00-1.61741909E-02-1.88368213E-01 0.00000000E+00-2.23191294E-01
13  5-9.99928308E-01 0.00000000E+00-4.73312066E-02-1.52220694E-02-5.36472458E-02
13  6-8.82701751E-03 0.00000000E+00 0.00000000E+00-3.16129304E-01-3.06338786E-01
13  7-2.92735050E-01 9.16927292E-03 0.00000000E+00 0.00000000E+00-2.91921644E-02
13  8 5.27633938E-03 4.36390958E-02 5.39772029E-01 4.92642519E-03 6.55505370E-02
13  9 0.00000000E+00 2.80614464E-02 9.17165626E-02 0.00000000E+00-6.01155905E-01
13 10 3.07986718E-01 0.00000000E+00 8.60174016E-04 1.59278534E-02 1.89527217E-02
13 11 8.02987128E-03 0.00000000E+00 0.00000000E+00 7.86278178E-02 5.71171885E-02
13 12-5.65471406E-03-4.82209079E-03 0.00000000E+00 0.00000000E+00
14  1 0.00000000E+00 0.00000000E+00 0.00000000E+00 0.00000000E+00 0.00000000E+00
14  2-1.02964078E-03 0.00000000E+00 0.00000000E+00-1.66137643E-02 0.00000000E+00
14  3 0.00000000E+00 0.00000000E+00 0.00000000E+00 0.00000000E+00 0.00000000E+00
14  4-2.33295039E-01 0.00000000E+00 0.00000000E+00-8.16902910E-01 0.00000000E+00
14  5 0.00000000E+00 1.18383161E+00 0.00000000E+00 0.00000000E+00 0.00000000E+00
14  6 0.00000000E+00-1.13626767E-02-8.75733201E-03 0.00000000E+00 0.00000000E+00
14  7 0.00000000E+00 0.00000000E+00-5.05085776E-02 2.19371652E-02 0.00000000E+00
14  8 0.00000000E+00 0.00000000E+00 0.00000000E+00 0.00000000E+00 0.00000000E+00
14  9-4.18101547E-02 0.00000000E+00 0.00000000E+00-1.66500202E-01 0.00000000E+00
14 10 0.00000000E+00 8.52168138E-02 0.00000000E+00 0.00000000E+00 0.00000000E+00
14 11 0.00000000E+00 3.12653945E-03 7.77621092E-05 0.00000000E+00 0.00000000E+00
14 12 0.00000000E+00 0.00000000E+00 6.88787487E-02-3.14250734E-04
15  1 8.21845000E-02-1.77660311E+00-1.83580261E+00 1.30154859E-02 1.39936132E-04
15  2 0.00000000E+00-4.69805312E-01 7.62280820E-01 0.00000000E+00-1.03739771E-01
15  3-3.96119121E-01-6.45844555E-01 5.82022679E+00-4.07743206E-02-1.77593324E-01
15  4 0.00000000E+00-1.64165058E-01-1.92381584E-01 0.00000000E+00 2.15170284E-01
15  5 2.62569861E+00 0.00000000E+00-7.48670230E-02-1.20044543E-01-6.23656555E-02
15  6-1.96673685E-06 0.00000000E+00 0.00000000E+00-7.59816478E-01-4.44409009E-01
15  7-8.61125748E-01-1.47980997E-01 0.00000000E+00 0.00000000E+00 4.46626624E-02
15  8 1.02907777E-01 3.16557617E-02-1.09515233E+00-7.33835145E-02-1.33581291E-02
15  9 0.00000000E+00-8.51978874E-02-5.51660427E-02 0.00000000E+00 2.77730366E-01
15 10-3.40000283E-01 0.00000000E+00-1.47491617E-02-1.94094563E-03-4.35122644E-03
15 11-4.66503204E-03 0.00000000E+00 0.00000000E+00-4.85351302E-02-6.97805058E-03
15 12 7.85328644E-02 6.34675822E-02 0.00000000E+00 0.00000000E+00
16  1 3.56742228E-02-9.14061805E-02-6.04087925E-01 4.25340929E-03-1.91776199E-03
16  2 0.00000000E+00-1.87827670E-01 2.25661435E-01 0.00000000E+00 6.89465417E-02
16  3 1.48283085E-01 1.26449814E-01 5.89886932E-01 1.75920426E-01-4.89962503E-02
16  4 0.00000000E+00 6.97935235E-01 1.72491673E-02 0.00000000E+00-8.42124950E-01
16  5 3.60169143E-01 0.00000000E+00 3.82410873E-02-8.60202646E-03 2.21180900E-03
16  6 3.31862154E-03 0.00000000E+00 0.00000000E+00 1.49005995E-01 2.31412577E-01
16  7 5.21491053E-02-4.57285238E-02 0.00000000E+00 0.00000000E+00 3.31773901E-02
16  8-6.33485748E-02-2.89645532E-01 1.04973464E+00-5.41846138E-02 3.86592903E-02
16  9 0.00000000E+00-2.28940046E-01 9.22460569E-02 0.00000000E+00 1.15103091E+00
16 10-1.37396342E-01 0.00000000E+00-1.89799861E-02-6.58361739E-02-6.66747014E-02
16 11-8.43486304E-04 0.00000000E+00 0.00000000E+00-4.16234981E-01-3.35569748E-01
16 12-3.29009024E-01 1.60027191E-02 0.00000000E+00 0.00000000E+00
17  1-4.06652616E-04 6.47550273E-01 4.34890202E-01 2.45901643E-02-2.11826480E-03
17  2 0.00000000E+00-3.53228587E-01-3.59251520E-01 0.00000000E+00 9.95298958E-03
17  3-8.54742057E-02 1.17725699E-01-9.98884043E-01-2.59508900E-01 2.30867569E-02
17  4 0.00000000E+00-2.68385344E-01-2.98133954E-03 0.00000000E+00 1.06420155E+00
17  5-4.45742874E-01 0.00000000E+00 2.86727039E-02 2.56754475E-02 1.62866625E-02
17  6-2.40048172E-02 0.00000000E+00 0.00000000E+00 6.06076511E-01-1.28425246E-02
17  7 8.66524429E-02 1.34864696E-01 0.00000000E+00 0.00000000E+00 2.92043972E-02
17  8 1.14323812E-01-2.29000676E-01 3.39239905E-01-2.59262006E-01 1.05665294E-01
17  9 0.00000000E+00-2.66480826E-01 2.76480597E-01 0.00000000E+00 3.73324948E-01
17 10-3.96663414E-01 0.00000000E+00-4.88794715E-02-4.87326895E-02-4.86139618E-02
17 11-4.77232157E-03 0.00000000E+00 0.00000000E+00-5.32984886E-01-2.65772058E-01
17 12-2.66593937E-01 3.33062183E-02 0.00000000E+00 0.00000000E+00
18  1-8.95021476E-04 5.38292429E-01-3.04931257E-02-2.61822864E-02-1.05274888E-02
18  2 0.00000000E+00 4.24429224E-01 6.98065231E-03 0.00000000E+00 2.71232045E-02
18  3-2.32319222E-02 9.46712729E-02-1.44822959E+00-1.27998088E-01 1.83036609E-02
18  4 0.00000000E+00-9.31925073E-02-7.30166805E-02 0.00000000E+00-5.27151743E-01
18  5-8.30345917E-01 0.00000000E+00 1.90983388E-02 1.90037521E-02 4.13603165E-03
18  6 1.37131352E-02 0.00000000E+00 0.00000000E+00 3.98984093E-01 5.05506217E-02
18  7 3.31835867E-02-1.52530626E-01 0.00000000E+00 0.00000000E+00-1.05651306E-02
18  8-1.33520072E-02-3.28449362E-01 2.03973315E+00-1.61918128E-01-1.87317768E-01
18  9 0.00000000E+00-2.14766161E-01-5.65182497E-01 0.00000000E+00-6.15608872E-02
18 10 1.24319744E+00 0.00000000E+00-5.09735916E-02-5.53545957E-02-5.46128122E-02
18 11 1.55599020E-02 0.00000000E+00 0.00000000E+00-5.47011065E-01-3.58850237E-01
18 12-4.24006578E-01-5.49128048E-02 0.00000000E+00 0.00000000E+00
19  1 0.00000000E+00 0.00000000E+00 0.00000000E+00 0.00000000E+00 0.00000000E+00
19  2-8.92878532E-02 0.00000000E+00 0.00000000E+00 1.05572530E+00 0.00000000E+00
19  3 0.00000000E+00 0.00000000E+00 0.00000000E+00 0.00000000E+00 0.00000000E+00
19  4-5.06327226E-02 0.00000000E+00 0.00000000E+00-1.04136058E-01 0.00000000E+00
19  5 0.00000000E+00-4.29296856E-01 0.00000000E+00 0.00000000E+00 0.00000000E+00
19  6 0.00000000E+00-8.31667174E-03 1.55874651E-02 0.00000000E+00 0.00000000E+00
19  7 0.00000000E+00 0.00000000E+00 4.79837815E-02 1.69641691E-01 0.00000000E+00
19  8 0.00000000E+00 0.00000000E+00 0.00000000E+00 0.00000000E+00 0.00000000E+00
19  9 7.59799154E-02 0.00000000E+00 0.00000000E+00 1.99711878E-01 0.00000000E+00
19 10 0.00000000E+00-1.70285442E-01 0.00000000E+00 0.00000000E+00 0.00000000E+00
19 11 0.00000000E+00 4.41984889E-05-2.14705320E-03 0.00000000E+00 0.00000000E+00
19 12 0.00000000E+00 0.00000000E+00 1.00100321E-02 8.27681368E-02
20  1 0.00000000E+00 0.00000000E+00 0.00000000E+00 0.00000000E+00 0.00000000E+00
20  2-2.12687255E-02 0.00000000E+00 0.00000000E+00 2.73660437E-01 0.00000000E+00
20  3 0.00000000E+00 0.00000000E+00 0.00000000E+00 0.00000000E+00 0.00000000E+00
20  4 9.04797273E-02 0.00000000E+00 0.00000000E+00 2.16359233E-01 0.00000000E+00
20  5 0.00000000E+00-9.94846371E-01 0.00000000E+00 0.00000000E+00 0.00000000E+00
20  6 0.00000000E+00 9.18170628E-03 6.73551120E-03 0.00000000E+00 0.00000000E+00
20  7 0.00000000E+00 0.00000000E+00-1.59965192E-01 4.68916231E-02 0.00000000E+00
20  8 0.00000000E+00 0.00000000E+00 0.00000000E+00 0.00000000E+00 0.00000000E+00
20  9-2.31361530E-01 0.00000000E+00 0.00000000E+00-7.39819884E-01 0.00000000E+00
20 10 0.00000000E+00 1.52990946E+00 0.00000000E+00 0.00000000E+00 0.00000000E+00
20 11 0.00000000E+00 1.69088873E-02-1.17094435E-03 0.00000000E+00 0.00000000E+00
20 12 0.00000000E+00 0.00000000E+00-2.79180332E-02 2.50179378E-02
21  1-2.86463684E-02-3.37798773E-01-1.62522400E-01-7.74492107E-02-2.74655338E-02
21  2 0.00000000E+00 9.27800912E-01 4.76043315E-01 0.00000000E+00 2.01347352E-02
21  3 2.80370205E-02 1.40086675E-01-1.33152728E+00-6.50421841E-02-6.24212316E-02
21  4 0.00000000E+00-1.39304073E-01-1.23424002E-01 0.00000000E+00-1.36541828E+00
21  5 7.32116529E-01 0.00000000E+00 2.19871056E-02 1.60436160E-02 2.24103285E-02
21  6 1.51330039E-02 0.00000000E+00 0.00000000E+00 2.52505578E-01 2.80064437E-01
21  7 3.30953542E-02 1.51350931E-01 0.00000000E+00 0.00000000E+00-3.76980023E-02
21  8-8.92597880E-02-2.71941300E-01 2.41662895E+00-4.93165776E-02 5.91993324E-02
21  9 0.00000000E+00-9.26711398E-02 3.12516139E-01 0.00000000E+00-4.41652869E-01
21 10-9.74108342E-01 0.00000000E+00-3.71041943E-02-3.58692733E-02-3.60231856E-02
21 11-1.13548900E-02 0.00000000E+00 0.00000000E+00-3.62129906E-01-2.59578752E-01
21 12-3.82540375E-01-9.27085154E-02 0.00000000E+00 0.00000000E+00
22  1-3.24174731E-03 5.85993705E-01 1.22033913E-01 6.06216543E-03 3.29693756E-02
22  2 0.00000000E+00-1.99109752E-02-4.06856405E-01 0.00000000E+00 5.36907972E-02
22  3 2.10254392E-01 1.90720120E-01-6.45076223E+00 1.26274609E-01-3.52645195E-02
22  4 0.00000000E+00-1.33835480E-01-2.31103975E-01 0.00000000E+00-2.85821210E+00
22  5-2.04071816E-01 0.00000000E+00 1.58840363E-02 1.57538059E-02 1.27022033E-02
22  6-7.43329113E-03 0.00000000E+00 0.00000000E+00-1.87370994E-01 3.52118069E-01
22  7 2.64647361E-01 2.53696796E-03 0.00000000E+00 0.00000000E+00-2.43208576E-01
22  8-7.20387829E-01-1.26483239E+00 9.83721712E+00 1.23355307E-01 1.27412586E-02
22  9 0.00000000E+00 2.46041628E-01 1.96630314E-02 0.00000000E+00-3.23437223E+00
22 10 3.68304909E-02 0.00000000E+00-1.68477016E-01-1.31054787E-01-1.33669060E-01
22 11 1.78021897E-03 0.00000000E+00 0.00000000E+00-1.30649532E+00-1.50115989E+00
22 12-1.53468044E+00 2.97532819E-02 0.00000000E+00 0.00000000E+00
23  1 0.00000000E+00 0.00000000E+00 0.00000000E+00 0.00000000E+00 0.00000000E+00
23  2 1.02458493E-02 0.00000000E+00 0.00000000E+00-2.90191121E-01 0.00000000E+00
23  3 0.00000000E+00 0.00000000E+00 0.00000000E+00 0.00000000E+00 0.00000000E+00
23  4-4.67001509E-02 0.00000000E+00 0.00000000E+00-1.14216397E-01 0.00000000E+00
23  5 0.00000000E+00 4.41652628E-01 0.00000000E+00 0.00000000E+00 0.00000000E+00
23  6 0.00000000E+00-5.49379874E-03-1.11592313E-02 0.00000000E+00 0.00000000E+00
23  7 0.00000000E+00 0.00000000E+00 8.72608257E-01 4.25708147E-01 0.00000000E+00
23  8 0.00000000E+00 0.00000000E+00 0.00000000E+00 0.00000000E+00 0.00000000E+00
23  9-9.33426874E-02 0.00000000E+00 0.00000000E+00-2.46610447E-01 0.00000000E+00
23 10 0.00000000E+00-2.82663769E-01 0.00000000E+00 0.00000000E+00 0.00000000E+00
23 11 0.00000000E+00-1.89721821E-02-1.08761910E-03 0.00000000E+00 0.00000000E+00
23 12 0.00000000E+00 0.00000000E+00-1.78652252E-01 1.49108342E-01
24  1-9.75365891E-02-3.62894111E-01-4.44889554E-01 4.03841659E-02-1.13385114E-01
24  2 0.00000000E+00-4.77791928E-01 1.51906696E+00 0.00000000E+00 9.68541144E-02
24  3 2.42893685E-01 5.88358616E-01-2.72644515E+00-1.53385893E-02 1.19791711E-01
24  4 0.00000000E+00-3.13946749E-01 7.91503899E-01 0.00000000E+00-1.12922684E+00
24  5-3.05236757E-01 0.00000000E+00 8.09307772E-02 8.16860148E-02 8.56187596E-02
24  6 9.31940079E-03 0.00000000E+00 0.00000000E+00 5.39119961E-01 4.59778809E-01
24  7 1.11830012E+00 1.51849653E-01 0.00000000E+00 0.00000000E+00-1.18611452E-01
24  8-3.09006308E-01-4.60223145E-01 3.57865527E+00 7.79708163E-03-3.40397462E-02
24  9 0.00000000E+00 3.46248819E-02-1.21607200E-01 0.00000000E+00-1.01216603E+00
24 10 2.41425696E-01 0.00000000E+00-5.01582243E-02-3.91661160E-02-4.18797948E-02
24 11-3.32035171E-03 0.00000000E+00 0.00000000E+00-4.64320158E-01-7.41690187E-01
24 12-3.15228189E-01-4.21333478E-02 0.00000000E+00 0.00000000E+00
25  1 0.00000000E+00 0.00000000E+00 0.00000000E+00 0.00000000E+00 0.00000000E+00
25  2-5.33374636E-02 0.00000000E+00 0.00000000E+00 9.65411695E-01 0.00000000E+00
25  3 0.00000000E+00 0.00000000E+00 0.00000000E+00 0.00000000E+00 0.00000000E+00
25  4-2.77149602E-02 0.00000000E+00 0.00000000E+00-1.03506820E-01 0.00000000E+00
25  5 0.00000000E+00-4.00801580E-01 0.00000000E+00 0.00000000E+00 0.00000000E+00
25  6 0.00000000E+00-5.87140631E-03 1.87036838E-02 0.00000000E+00 0.00000000E+00
25  7 0.00000000E+00 0.00000000E+00 4.81484582E-01-9.08543445E-01 0.00000000E+00
25  8 0.00000000E+00 0.00000000E+00 0.00000000E+00 0.00000000E+00 0.00000000E+00
25  9-4.47892753E-02 0.00000000E+00 0.00000000E+00-1.37266074E-01 0.00000000E+00
25 10 0.00000000E+00 6.70866872E-02 0.00000000E+00 0.00000000E+00 0.00000000E+00
25 11 0.00000000E+00-7.56982517E-03 1.81223882E-03 0.00000000E+00 0.00000000E+00
25 12 0.00000000E+00 0.00000000E+00-9.04643576E-02-3.87909333E-01
26  1-1.25718948E-01-3.91028798E-02-2.79268005E-01 6.89257499E-02 6.76560957E-03
26  2 0.00000000E+00-1.02182208E+00-2.23806973E-01 0.00000000E+00-1.89199216E-02
26  3 3.32504596E-03-1.93574971E-01 2.35867018E+00 4.66212644E-02-5.30642254E-03
26  4 0.00000000E+00 1.74783898E-01-5.31750800E-02 0.00000000E+00 1.37232075E+00
26  5 4.23061039E-01 0.00000000E+00-3.09210649E-02-4.05343200E-02-1.94555283E-02
26  6 5.28040580E-03 0.00000000E+00 0.00000000E+00-6.16397963E-02 8.19977038E-02
26  7-8.04058969E-01 9.33235775E-01 0.00000000E+00 0.00000000E+00 2.57466800E-02
26  8 4.93716956E-02 9.85198971E-02-2.02107712E+00 4.21081670E-02-1.15870104E-01
26  9 0.00000000E+00 2.20367418E-01-3.19966686E-01 0.00000000E+00 4.50564545E-01
26 10 6.06138529E-02 0.00000000E+00 1.29066345E-02 1.01414692E-02 7.04745503E-03
26 11-2.05990928E-02 0.00000000E+00 0.00000000E+00 6.68567166E-02 1.76288128E-01
26 12 5.52213568E-02-2.32251914E-01 0.00000000E+00 0.00000000E+00
27  1-2.04164412E-01-2.40185475E+00-1.03144916E+00 1.16762467E-02-6.73316455E-02
27  2 0.00000000E+00-5.07842785E-01 1.70039116E+00 0.00000000E+00 1.91673192E-01
27  3 6.22401160E-01-1.08363529E-01 4.45356401E+00 5.71210556E-02 1.95008425E-01
27  4 0.00000000E+00-1.74439206E-01 8.16743539E-01 0.00000000E+00 4.28391983E-01
27  5 1.41167370E+00 0.00000000E+00-8.01973370E-02-8.67676042E-02-4.78380058E-02
27  6 1.46557295E-02 0.00000000E+00 0.00000000E+00 1.64999093E-01-6.15211417E-02
27  7-1.17739885E+00-5.39259575E-01 0.00000000E+00 0.00000000E+00-1.06425748E-02
27  8-4.62224388E-02-8.30004869E-02-1.16543233E+00 7.43582864E-02 2.80565459E-02
27  9 0.00000000E+00 3.63386541E-01 7.58962404E-02 0.00000000E+00 2.56228447E-01
27 10-1.37874578E-01 0.00000000E+00-9.70884541E-03-1.70621308E-02-9.81127232E-03
27 11 5.63157678E-03 0.00000000E+00 0.00000000E+00-4.40498961E-02 2.89215344E-01
27 12-5.80680213E-01 1.48013862E-01 0.00000000E+00 0.00000000E+00
28  1-3.77032513E-02 2.62091027E+00 3.28693360E-02-1.37556712E-02-2.36172530E-02