!  N3F molecule...G.Chaban, D.R.Yarkoney, M.S.Gordon  
!                 J.Chem.Phys. 103, 7983-7989(1995)
!  test the QUAD converger, with a direct transformation.
!  6-31G*, 6 in 6 type FORS, 60 AOs, 92 configurations
!
!      FINAL E=-262.6989270562 in 7 iterations: dipole is 0.880436 Debye
!
!  This run takes 9 seconds on 2.66 GHz Cloverton (26 Apr 2015)
!  This run hasn't changed results since at least 2005.
!
 $CONTRL SCFTYP=mcscf RUNTYP=energy $END
 $SYSTEM mwords=2 memddi=0 $END
 $BASIS  GBASIS=N31 NGAUSS=6 NDFUNC=1 $END
 $GUESS  GUESS=MOREAD NORB=60 $END
 $trans  dirtrf=.true. $end
 $DRT    mxnint=10000 GROUP=CS FORS=.T. NMCC=12 NDOC=3 NVAL=3 $END
 $mcscf  cistep=guga quad=.true. maxit=10 $end
 $DATA
N3F 6-31G* MCSCF(6,6) cyclic isomer 
CS

N           7.0   -.9227963315   -.0359729873    .5987848076
N           7.0    .2947852576    .6672728528    .0000000000
F           9.0   1.2601661009   -.2870696599    .0000000000
 $END   

--- RHF ORBITALS --- GENERATED AT 19:48:58 CST 16-MAR-1996
N3F 6-31G* MCSCF(6,6) cyclic isomer
E(RHF)=     -262.5650233558, E(NUC)=  109.4207195594,   12 ITERS
 $VEC
 1  1 5.99968834E-06 6.42246432E-05-4.45861147E-05-9.33141706E-06-2.05991135E-05
 1  2-2.97249614E-04-2.03870364E-04-2.81092587E-05-2.66645983E-05-9.45896140E-05
 1  3 2.29061994E-05 1.69015333E-05-8.22738683E-06-1.97377467E-05-4.20532632E-06
 1  4 5.99968834E-06 6.42246432E-05-4.45861147E-05-9.33141706E-06 2.05991135E-05
 1  5-2.97249614E-04-2.03870364E-04-2.81092587E-05 2.66645983E-05-9.45896140E-05
 1  6 2.29061994E-05 1.69015333E-05-8.22738683E-06 1.97377467E-05 4.20532632E-06
 1  7-3.97990741E-05 2.63397652E-05 3.59142442E-04-3.40497793E-04 0.00000000E+00
 1  8 8.58513067E-04-7.67818538E-05-5.41447610E-04 0.00000000E+00 1.36505985E-04
 1  9 1.50655034E-04-1.42469185E-04-1.95708994E-04 0.00000000E+00 0.00000000E+00
 1 10 9.94487430E-01 1.79650604E-02-7.17743060E-04 6.51346403E-04 0.00000000E+00
 1 11 7.18980340E-03 6.33736309E-04-5.57562028E-04 0.00000000E+00-4.65390007E-03
 1 12-4.59919992E-03-4.34124840E-03 3.46633639E-04 0.00000000E+00 0.00000000E+00
 2  1 1.32409406E-02 5.35970994E-04 2.52235502E-04 1.40841552E-04 1.16192370E-04
 2  2 1.23295399E-03 5.64983563E-04 1.70367944E-04-1.00500730E-05-1.42376030E-04
 2  3-1.50443645E-04-2.24957256E-04-9.42607221E-05-1.04678574E-04-5.74530643E-05
 2  4 1.32409406E-02 5.35970994E-04 2.52235502E-04 1.40841552E-04-1.16192370E-04
 2  5 1.23295399E-03 5.64983563E-04 1.70367944E-04 1.00500730E-05-1.42376030E-04
 2  6-1.50443645E-04-2.24957256E-04-9.42607221E-05 1.04678574E-04 5.74530643E-05
 2  7 9.95327674E-01 2.33375313E-02-3.87812419E-04-2.89326306E-03 0.00000000E+00
 2  8-3.29862691E-03 1.18980114E-03 2.11942171E-03 0.00000000E+00-2.64927984E-03
 2  9-2.51188582E-03-2.51933549E-03-2.61883161E-04 0.00000000E+00 0.00000000E+00
 2 10-9.65412671E-05 9.99218705E-05-1.85852599E-04 2.39654931E-04 0.00000000E+00
 2 11 9.64244355E-04 4.58382601E-05-4.41509352E-04 0.00000000E+00-4.05233421E-04
 2 12-4.33918512E-04 1.01341727E-04 5.43443837E-04 0.00000000E+00 0.00000000E+00
 3  1 7.03531030E-01 1.69524399E-02 6.76288232E-04 3.56815341E-04 1.59135885E-03
 3  2-5.65051043E-04-5.38085641E-04-3.07343278E-04-8.29495357E-04-2.24755538E-03
 3  3-2.24054213E-03-2.16149268E-03-1.29031060E-05 1.45430242E-05 5.75578158E-06
 3  4 7.03531030E-01 1.69524399E-02 6.76288232E-04 3.56815341E-04-1.59135885E-03
 3  5-5.65051043E-04-5.38085641E-04-3.07343278E-04 8.29495357E-04-2.24755538E-03
 3  6-2.24054213E-03-2.16149268E-03-1.29031060E-05-1.45430242E-05-5.75578158E-06
 3  7-1.88621508E-02-2.65927416E-05-2.51580725E-04-7.40796028E-05 0.00000000E+00
 3  8 5.13978468E-04-4.61851983E-04 2.04697116E-04 0.00000000E+00-2.28144692E-04
 3  9-1.02098532E-04 6.60027029E-05-1.50324022E-04 0.00000000E+00 0.00000000E+00
 3 10-9.48946588E-05-5.79527151E-04 1.43829997E-04-2.65840564E-05 0.00000000E+00
 3 11 1.75976866E-03-4.52545956E-04 1.63040412E-04 0.00000000E+00-2.76568306E-04
 3 12-4.25485171E-04-4.89634433E-04-3.07440706E-05 0.00000000E+00 0.00000000E+00
 4  1 7.03909930E-01 1.67567368E-02 6.74870615E-04 3.83787076E-04 2.16304407E-03
 4  2-1.88806265E-03-4.68067683E-04-2.61393507E-04-7.22371769E-04-2.34001117E-03
 4  3-2.39555880E-03-6.45828147E-04 7.12724377E-05 1.33083055E-04 7.97561788E-05
 4  4-7.03909930E-01-1.67567368E-02-6.74870615E-04-3.83787076E-04 2.16304407E-03
 4  5 1.88806265E-03 4.68067683E-04 2.61393507E-04-7.22371769E-04 2.34001117E-03
 4  6 2.39555880E-03 6.45828147E-04-7.12724377E-05 1.33083055E-04 7.97561788E-05
 4  7 0.00000000E+00 0.00000000E+00 0.00000000E+00 0.00000000E+00-1.60194819E-04
 4  8 0.00000000E+00 0.00000000E+00 0.00000000E+00-4.09183745E-04 0.00000000E+00
 4  9 0.00000000E+00 0.00000000E+00 0.00000000E+00-5.21079583E-05-2.79893293E-05
 4 10 0.00000000E+00 0.00000000E+00 0.00000000E+00 0.00000000E+00 2.66317456E-05
 4 11 0.00000000E+00 0.00000000E+00 0.00000000E+00-4.14835235E-06 0.00000000E+00
 4 12 0.00000000E+00 0.00000000E+00 0.00000000E+00 4.03849837E-05 3.91122317E-05
 5  1-4.73593110E-02 1.00646459E-01 3.07110782E-02 1.11381276E-02 5.81055733E-02
 5  2 5.05961610E-02 9.25633769E-03 2.73377919E-03 1.15412287E-02 4.43933011E-03
 5  3-3.35052809E-03 8.33912952E-03 4.30826719E-03 6.36920798E-03 2.47872132E-03
 5  4-4.73593110E-02 1.00646459E-01 3.07110782E-02 1.11381276E-02-5.81055733E-02
 5  5 5.05961610E-02 9.25633769E-03 2.73377919E-03-1.15412287E-02 4.43933011E-03
 5  6-3.35052809E-03 8.33912952E-03 4.30826719E-03-6.36920798E-03-2.47872132E-03
 5  7-8.20458230E-02 1.76602029E-01 2.73408743E-02-8.73707367E-02 0.00000000E+00
 5  8 8.42708624E-02-8.42902192E-04-1.51890745E-02 0.00000000E+00 9.87158878E-03
 5  9 1.26805093E-02-7.58890880E-03-8.94255830E-03 0.00000000E+00 0.00000000E+00
 5 10-1.92169706E-01 4.56249711E-01-5.79328943E-02 4.56628142E-02 0.00000000E+00
 5 11 3.55320491E-01-3.72895192E-02 3.05701626E-02 0.00000000E+00 3.39823572E-02
 5 12 3.01216838E-02 1.90965611E-02-1.36448701E-02 0.00000000E+00 0.00000000E+00
 6  1-1.29587820E-01 2.82189956E-01 3.09033797E-02 2.08260242E-02 1.70804374E-01
 6  2 1.56467971E-01 1.06690585E-02 8.12799788E-03 3.67450255E-02-5.33844752E-03
 6  3-9.16006869E-03 2.60607194E-02 5.31876917E-03 8.48755811E-03 5.32713149E-03
 6  4-1.29587820E-01 2.82189956E-01 3.09033797E-02 2.08260242E-02-1.70804374E-01
 6  5 1.56467971E-01 1.06690585E-02 8.12799788E-03-3.67450255E-02-5.33844752E-03
 6  6-9.16006869E-03 2.60607194E-02 5.31876917E-03-8.48755811E-03-5.32713149E-03
 6  7-4.21628350E-02 9.15634827E-02-1.17472245E-01-1.99451929E-02 0.00000000E+00
 6  8 5.98315105E-02-2.13649585E-02-1.86654762E-02 0.00000000E+00 1.24833660E-02
 6  9-1.00891902E-03-7.04539230E-04 2.52453986E-02 0.00000000E+00 0.00000000E+00
 6 10 1.02405780E-01-2.28756192E-01-7.24679533E-03-8.33949584E-03 0.00000000E+00
 6 11-2.44345268E-01 1.28117732E-02-8.47715532E-03 0.00000000E+00-7.03296967E-03
 6 12-6.22608610E-03-4.10822816E-03 1.67764402E-03 0.00000000E+00 0.00000000E+00
 7  1 5.69258192E-02-1.26280886E-01 1.37973765E-01 7.99471865E-02-1.04697886E-01
 7  2-1.46639397E-01 2.67549178E-02 1.82537851E-02-3.40422526E-02 2.02553283E-02
 7  3 8.58933069E-03-1.72157868E-02 1.23786905E-02 1.50399001E-02 8.64906520E-03
 7  4 5.69258192E-02-1.26280886E-01 1.37973765E-01 7.99471865E-02 1.04697886E-01
 7  5-1.46639397E-01 2.67549178E-02 1.82537851E-02 3.40422526E-02 2.02553283E-02
 7  6 8.58933069E-03-1.72157868E-02 1.23786905E-02-1.50399001E-02-8.64906520E-03
 7  7-1.70615867E-01 3.89075320E-01-7.88320636E-03-1.97415239E-02 0.00000000E+00
 7  8 4.38167843E-01-4.84701375E-02-3.09113127E-02 0.00000000E+00 3.18711051E-03
 7  9 9.31278430E-04-3.22182703E-03 1.45689642E-03 0.00000000E+00 0.00000000E+00
 7 10 7.77265871E-02-1.70919454E-01-1.53199355E-01 1.47459279E-01 0.00000000E+00
 7 11-2.62602956E-01-8.19652958E-02 8.56154178E-02 0.00000000E+00 9.85021133E-03
 7 12 8.61938120E-03-7.40315490E-03-1.81524164E-02 0.00000000E+00 0.00000000E+00
 8  1-1.36863965E-01 3.12548723E-01 4.66012969E-02 2.46372436E-02-1.59066220E-01
 8  2 4.66985986E-01 3.33645342E-02 1.52282980E-02-1.57589022E-02 1.22860591E-02
 8  3 1.29450794E-03-2.22476864E-02 9.05329971E-03 1.89160672E-03 1.07887863E-03
 8  4 1.36863965E-01-3.12548723E-01-4.66012969E-02-2.46372436E-02-1.59066220E-01
 8  5-4.66985986E-01-3.33645342E-02-1.52282980E-02-1.57589022E-02-1.22860591E-02
 8  6-1.29450794E-03 2.22476864E-02-9.05329971E-03 1.89160672E-03 1.07887863E-03
 8  7 0.00000000E+00 0.00000000E+00 0.00000000E+00 0.00000000E+00-2.17375043E-01
 8  8 0.00000000E+00 0.00000000E+00 0.00000000E+00-8.41996584E-02 0.00000000E+00
 8  9 0.00000000E+00 0.00000000E+00 0.00000000E+00 2.11322591E-02 2.25769171E-02
 8 10 0.00000000E+00 0.00000000E+00 0.00000000E+00 0.00000000E+00-1.20387072E-01
 8 11 0.00000000E+00 0.00000000E+00 0.00000000E+00-7.22417357E-02 0.00000000E+00
 8 12 0.00000000E+00 0.00000000E+00 0.00000000E+00 6.29000382E-03-5.37296906E-03
 9  1-2.12462585E-02 5.25481360E-02-1.71725774E-01-1.54320638E-01 2.30795524E-02
 9  2 7.33023397E-02-7.45788741E-02-6.73135949E-02 5.05124306E-03-7.31424550E-03
 9  3-4.09744573E-03 8.47915624E-03-1.08512704E-02-1.97051024E-02-1.87712389E-02
 9  4-2.12462585E-02 5.25481360E-02-1.71725774E-01-1.54320638E-01-2.30795524E-02
 9  5 7.33023397E-02-7.45788741E-02-6.73135949E-02-5.05124306E-03-7.31424550E-03
 9  6-4.09744573E-03 8.47915624E-03-1.08512704E-02 1.97051024E-02 1.87712389E-02
 9  7-7.61509579E-03 2.62635378E-02 3.11826756E-01-2.95394094E-02 0.00000000E+00
 9  8-2.72183263E-02 1.30020091E-01 2.24806945E-02 0.00000000E+00-2.70404142E-03
 9  9 7.78253598E-03-3.78207976E-03-3.56401854E-02 0.00000000E+00 0.00000000E+00
 9 10 3.32280185E-02-7.35167865E-02-7.23056851E-02 4.33881388E-01 0.00000000E+00
 9 11-1.19950464E-01-6.18816909E-02 2.97016444E-01 0.00000000E+00 2.01112871E-03
 9 12 2.03674925E-02-6.60567988E-03-2.29532332E-02 0.00000000E+00 0.00000000E+00
10  1-2.41491970E-03 7.93038659E-03-9.72803704E-02 1.68174323E-01-2.11719533E-03
10  2 8.16777617E-04-5.78913582E-02 9.38226226E-02-2.94818590E-03-8.55405574E-03
10  3 8.71465875E-03 6.14905972E-04 7.48906488E-03-1.36331939E-02 2.15217309E-02
10  4-2.41491970E-03 7.93038659E-03-9.72803704E-02 1.68174323E-01 2.11719533E-03
10  5 8.16777617E-04-5.78913582E-02 9.38226226E-02 2.94818590E-03-8.55405574E-03
10  6 8.71465875E-03 6.14905972E-04 7.48906488E-03 1.36331939E-02-2.15217309E-02
10  7-4.17179672E-02 9.92385240E-02-4.55978067E-02 2.52992022E-01 0.00000000E+00
10  8 1.70016760E-01-4.80347016E-03 1.17642014E-01 0.00000000E+00 2.03626910E-02
10  9-3.86377474E-02 5.98397654E-03 1.28426106E-03 0.00000000E+00 0.00000000E+00
10 10-1.97551469E-02 4.87145288E-02 4.40626238E-01 1.71344517E-01 0.00000000E+00
10 11 6.30633900E-02 3.10024965E-01 1.09708827E-01 0.00000000E+00-2.32421569E-02
10 12 1.17168065E-02 7.83284877E-03 9.86743345E-03 0.00000000E+00 0.00000000E+00
11  1-4.97202603E-02 1.19852084E-01-4.37043602E-02-1.70781909E-02-7.42220066E-02
11  2 1.78274927E-01-3.39308748E-02-1.48052868E-03-2.55331527E-02-3.71757545E-03
11  3 1.73456954E-03-3.31593375E-03-1.59336742E-03 1.51495735E-04 1.43759369E-04
11  4 4.97202603E-02-1.19852084E-01 4.37043602E-02 1.70781909E-02-7.42220066E-02
11  5-1.78274927E-01 3.39308748E-02 1.48052868E-03-2.55331527E-02 3.71757545E-03
11  6-1.73456954E-03 3.31593375E-03 1.59336742E-03 1.51495735E-04 1.43759369E-04
11  7 0.00000000E+00 0.00000000E+00 0.00000000E+00 0.00000000E+00 1.43744838E-01
11  8 0.00000000E+00 0.00000000E+00 0.00000000E+00 8.99432873E-02 0.00000000E+00
11  9 0.00000000E+00 0.00000000E+00 0.00000000E+00 1.23482923E-02-1.74816680E-02
11 10 0.00000000E+00 0.00000000E+00 0.00000000E+00 0.00000000E+00 6.03269486E-01
11 11 0.00000000E+00 0.00000000E+00 0.00000000E+00 4.17042550E-01 0.00000000E+00
11 12 0.00000000E+00 0.00000000E+00 0.00000000E+00-1.83453355E-02 1.48309701E-02
12  1 5.78686216E-02-1.14963032E-01 8.50826189E-02 9.85547571E-03 4.33318155E-01
12  2-2.95967230E-01 4.74936105E-02 7.50298257E-03 1.99067759E-01-4.51057551E-03
12  3-9.02522398E-03 3.39916469E-02 1.90329564E-03 1.55431936E-02 3.56872557E-03
12  4 5.78686216E-02-1.14963032E-01 8.50826189E-02 9.85547571E-03-4.33318155E-01
12  5-2.95967230E-01 4.74936105E-02 7.50298257E-03-1.99067759E-01-4.51057551E-03
12  6-9.02522398E-03 3.39916469E-02 1.90329564E-03-1.55431936E-02-3.56872557E-03
12  7 1.01669601E-02-1.15616196E-02-1.87111954E-02-7.52527431E-02 0.00000000E+00
12  8-7.19474917E-02 8.02270000E-03-3.37351033E-02 0.00000000E+00 1.39508402E-02
12  9 7.78220895E-03-1.25388451E-02 6.77076251E-03 0.00000000E+00 0.00000000E+00
12 10 3.48548080E-04 7.78221348E-03 5.81833971E-02 1.15516301E-01 0.00000000E+00
12 11-1.90900708E-02 4.55940282E-02 8.40499283E-02 0.00000000E+00 1.87927178E-03
12 12 7.17277591E-03 2.47488710E-03-2.46244697E-03 0.00000000E+00 0.00000000E+00
13  1-1.20122160E-02 3.22393314E-02 2.70446728E-01-2.23034035E-01-1.03181419E-01
13  2 4.42449889E-02 1.47212260E-01-1.40375709E-01-5.18621553E-02 1.23126552E-02
13  3-1.68527925E-03-6.92392840E-03 2.28645084E-03 3.06285992E-02-2.79442481E-02
13  4-1.20122160E-02 3.22393314E-02 2.70446728E-01-2.23034035E-01 1.03181419E-01
13  5 4.42449889E-02 1.47212260E-01-1.40375709E-01 5.18621553E-02 1.23126552E-02
13  6-1.68527925E-03-6.92392840E-03 2.28645084E-03-3.06285992E-02 2.79442481E-02
13  7 1.48190404E-02-4.60607955E-02-8.80951805E-02-6.21067051E-02 0.00000000E+00
13  8-1.64264344E-02-2.70619625E-02-5.87651805E-02 0.00000000E+00-1.51291867E-03
13  9 5.74756689E-04 2.07852314E-03 2.56878212E-02 0.00000000E+00 0.00000000E+00
13 10 1.85124040E-03 1.62395911E-03 3.58066362E-01 1.71052970E-01 0.00000000E+00
13 11-3.06844018E-02 2.78390259E-01 1.17993701E-01 0.00000000E+00-1.28179441E-02
13 12 7.09728587E-03 4.52531455E-03 7.98506118E-03 0.00000000E+00 0.00000000E+00
14  1 1.47612625E-02-4.00972610E-02-6.22404552E-02-2.57255521E-01 9.31306445E-02
14  2-6.40512995E-02-2.34208563E-02-1.70089589E-01 4.77966093E-02-1.00227901E-02
14  3-1.16418401E-03 5.04083680E-03-2.86234356E-03-7.02551928E-03-2.91281866E-02
14  4 1.47612625E-02-4.00972610E-02-6.22404552E-02-2.57255521E-01-9.31306445E-02
14  5-6.40512995E-02-2.34208563E-02-1.70089589E-01-4.77966093E-02-1.00227901E-02
14  6-1.16418401E-03 5.04083680E-03-2.86234356E-03 7.02551928E-03 2.91281866E-02
14  7-9.46053135E-02 2.24804336E-01 7.65398395E-02 3.85678756E-01 0.00000000E+00
14  8 4.30886684E-01 3.40304682E-02 2.33390720E-01 0.00000000E+00-2.42718227E-02
14  9-1.47419290E-02 5.81024967E-03 1.20190843E-03 0.00000000E+00 0.00000000E+00
14 10 3.71354343E-03-2.40982005E-02 1.18040567E-02-2.92756611E-01 0.00000000E+00
14 11 9.91106857E-03 7.25043892E-03-2.29341261E-01 0.00000000E+00-1.21865065E-02
14 12-8.33994058E-03-4.36054440E-03 8.58611182E-03 0.00000000E+00 0.00000000E+00
15  1-3.95936494E-02 9.96128087E-02-2.21794128E-01-1.39218713E-01-9.91618738E-02
15  2 1.24490041E-01-1.65152745E-01-1.15604226E-01-9.67235327E-02-1.84939984E-02
15  3-1.43656248E-03 3.05270266E-03-1.95583041E-02-8.51669489E-05-1.80463182E-04
15  4 3.95936494E-02-9.96128087E-02 2.21794128E-01 1.39218713E-01-9.91618738E-02
15  5-1.24490041E-01 1.65152745E-01 1.15604226E-01-9.67235327E-02 1.84939984E-02
15  6 1.43656248E-03-3.05270266E-03 1.95583041E-02-8.51669489E-05-1.80463182E-04
15  7 0.00000000E+00 0.00000000E+00 0.00000000E+00 0.00000000E+00 4.82160285E-01
15  8 0.00000000E+00 0.00000000E+00 0.00000000E+00 3.03763542E-01 0.00000000E+00
15  9 0.00000000E+00 0.00000000E+00 0.00000000E+00-3.26326976E-02-2.23996405E-02
15 10 0.00000000E+00 0.00000000E+00 0.00000000E+00 0.00000000E+00-2.70012830E-01
15 11 0.00000000E+00 0.00000000E+00 0.00000000E+00-2.22570582E-01 0.00000000E+00
15 12 0.00000000E+00 0.00000000E+00 0.00000000E+00-2.23768274E-03 3.00962035E-03
16  1 6.47642763E-04 9.25049680E-04-2.40026876E-01 3.82534779E-01-1.64306753E-03
16  2-2.82451040E-02-3.21577802E-01 4.99079090E-01-1.45357287E-02-9.36005259E-03
16  3 8.73935995E-03 4.37901658E-04 4.68233629E-03 3.44236161E-03-6.57635367E-03
16  4-6.47642763E-04-9.25049680E-04 2.40026876E-01-3.82534779E-01-1.64306753E-03
16  5 2.82451040E-02 3.21577802E-01-4.99079090E-01-1.45357287E-02 9.36005259E-03
16  6-8.73935995E-03-4.37901658E-04-4.68233629E-03 3.44236161E-03-6.57635367E-03
16  7 0.00000000E+00 0.00000000E+00 0.00000000E+00 0.00000000E+00 2.93749760E-03
16  8 0.00000000E+00 0.00000000E+00 0.00000000E+00-1.88175442E-02 0.00000000E+00
16  9 0.00000000E+00 0.00000000E+00 0.00000000E+00 5.88133048E-03-1.54429428E-02
16 10 0.00000000E+00 0.00000000E+00 0.00000000E+00 0.00000000E+00-5.36892236E-02
16 11 0.00000000E+00 0.00000000E+00 0.00000000E+00-3.39008342E-02 0.00000000E+00
16 12 0.00000000E+00 0.00000000E+00 0.00000000E+00-5.52003807E-03-2.18737402E-03
17  1-2.43435407E-02 5.08516513E-02 3.48469884E-01 2.24242561E-01-4.98574052E-02
17  2 3.21006350E-01 5.58535555E-01 3.36184444E-01 4.10674278E-02 7.56882258E-04
17  3-2.20006067E-03 3.09246340E-03-4.34327757E-04-2.70107994E-03-2.88728609E-03
17  4 2.43435407E-02-5.08516513E-02-3.48469884E-01-2.24242561E-01-4.98574052E-02
17  5-3.21006350E-01-5.58535555E-01-3.36184444E-01 4.10674278E-02-7.56882258E-04
17  6 2.20006067E-03-3.09246340E-03 4.34327757E-04-2.70107994E-03-2.88728609E-03
17  7 0.00000000E+00 0.00000000E+00 0.00000000E+00 0.00000000E+00 4.22446052E-01
17  8 0.00000000E+00 0.00000000E+00 0.00000000E+00 6.22468999E-01 0.00000000E+00
17  9 0.00000000E+00 0.00000000E+00 0.00000000E+00 2.93694872E-02 7.56721021E-03
17 10 0.00000000E+00 0.00000000E+00 0.00000000E+00 0.00000000E+00-8.90276820E-02
17 11 0.00000000E+00 0.00000000E+00 0.00000000E+00-1.08487188E-01 0.00000000E+00
17 12 0.00000000E+00 0.00000000E+00 0.00000000E+00-5.41802961E-03 1.33407460E-02
18  1 5.36532795E-02-1.08466173E-01-2.06844783E-01-1.14609309E-01-4.77044469E-02
18  2-5.41818095E-01-5.32767641E-01-2.69486160E-01-5.24469177E-02 2.73533824E-02
18  3 5.65703416E-03-1.76313754E-02 2.09700312E-02-7.64966669E-03-4.03052881E-03
18  4 5.36532795E-02-1.08466173E-01-2.06844783E-01-1.14609309E-01 4.77044469E-02
18  5-5.41818095E-01-5.32767641E-01-2.69486160E-01 5.24469177E-02 2.73533824E-02
18  6 5.65703416E-03-1.76313754E-02 2.09700312E-02 7.64966669E-03 4.03052881E-03
18  7-1.06565971E-01 2.19199236E-01-3.69697118E-01-3.30673646E-01 0.00000000E+00
18  8 1.14027352E+00-7.37899606E-01-6.65949945E-01 0.00000000E+00-3.93764274E-03
18  9 1.20454566E-02-9.36632338E-03 1.68558516E-02 0.00000000E+00 0.00000000E+00
18 10 1.41111332E-02 1.07240543E-02 1.42695833E-01-8.78904346E-03 0.00000000E+00
18 11-2.06778160E-01 2.16126511E-01-1.43948657E-02 0.00000000E+00 2.71695860E-02
18 12 8.91898591E-03 1.37392804E-02-8.12310992E-03 0.00000000E+00 0.00000000E+00
19  1-1.72000711E-03 4.58621838E-02-2.44409710E-02 8.35084055E-02 2.06204012E-02
19  2-1.38465839E-03-5.16757409E-02 1.31202295E-01-1.39588081E-02 2.73866053E-02
19  3-1.62985460E-02 1.28846081E-02-8.14974261E-03-6.67227360E-03 2.43056670E-03
19  4-1.72000711E-03 4.58621838E-02-2.44409710E-02 8.35084055E-02-2.06204012E-02
19  5-1.38465839E-03-5.16757409E-02 1.31202295E-01 1.39588081E-02 2.73866053E-02
19  6-1.62985460E-02 1.28846081E-02-8.14974261E-03 6.67227360E-03-2.43056670E-03
19  7-6.29884551E-02 1.44694891E-01 4.11720356E-01-3.19188162E-01 0.00000000E+00
19  8 5.36153422E-01 7.62044952E-01-6.34386764E-01 0.00000000E+00-1.89191263E-02
19  9 1.53546969E-02 1.29629911E-02 2.07081407E-02 0.00000000E+00 0.00000000E+00
19 10 7.48064743E-02-1.35383368E-01 2.49211829E-01-2.96076450E-01 0.00000000E+00
19 11-7.34220252E-01 4.23978760E-01-4.61543409E-01 0.00000000E+00-9.33948319E-04
19 12 1.05477796E-02 2.77619393E-03-4.90372256E-03 0.00000000E+00 0.00000000E+00
20  1-1.02642759E-01 1.66868289E-01-2.05599483E-02-3.37733065E-03 1.99967506E-01
20  2 3.09968972E+00 7.72177675E-02 4.40227839E-02 2.18290380E+00 7.07018029E-03
20  3-7.70185428E-03 3.34917639E-02 1.19528400E-02 1.75255767E-02 9.04252490E-03
20  4 1.02642759E-01-1.66868289E-01 2.05599483E-02 3.37733065E-03 1.99967506E-01
20  5-3.09968972E+00-7.72177675E-02-4.40227839E-02 2.18290380E+00-7.07018029E-03
20  6 7.70185428E-03-3.34917639E-02-1.19528400E-02 1.75255767E-02 9.04252490E-03
20  7 0.00000000E+00 0.00000000E+00 0.00000000E+00 0.00000000E+00-9.80796955E-02
20  8 0.00000000E+00 0.00000000E+00 0.00000000E+00 3.64961354E-01 0.00000000E+00
20  9 0.00000000E+00 0.00000000E+00 0.00000000E+00 6.57584960E-03 8.06240218E-03
20 10 0.00000000E+00 0.00000000E+00 0.00000000E+00 0.00000000E+00-3.34527141E-02
20 11 0.00000000E+00 0.00000000E+00 0.00000000E+00-3.09276355E-02 0.00000000E+00
20 12 0.00000000E+00 0.00000000E+00 0.00000000E+00 5.54220703E-03-2.56211484E-03
21  1 3.28230661E-02 3.43917187E-02 4.04045848E-01 1.87257069E-01 2.67767437E-01
21  2-5.08447103E-01-8.49980112E-01-3.99190106E-01-5.84277725E-01-6.98060442E-02
21  3-1.71221389E-02 1.80746853E-02-1.87821781E-02 1.82311365E-02 1.30340900E-02
21  4 3.28230661E-02 3.43917187E-02 4.04045848E-01 1.87257069E-01-2.67767437E-01
21  5-5.08447103E-01-8.49980112E-01-3.99190106E-01 5.84277725E-01-6.98060442E-02
21  6-1.71221389E-02 1.80746853E-02-1.87821781E-02-1.82311365E-02-1.30340900E-02
21  7-2.19781156E-02-1.18357651E-01 2.50795757E-01 3.83193066E-01 0.00000000E+00
21  8 1.57608753E+00-8.87724884E-01-1.02436372E+00 0.00000000E+00 1.23397748E-01
21  9-9.68442170E-03-3.14045325E-02 6.37694467E-02 0.00000000E+00 0.00000000E+00
21 10 9.40434700E-03 2.14664220E-01-6.90999541E-02-3.88741000E-03 0.00000000E+00
21 11-5.86645215E-01 1.83710366E-01-2.44833772E-02 0.00000000E+00 2.48819101E-02
21 12 1.28127005E-01 1.06128732E-01 6.80937262E-03 0.00000000E+00 0.00000000E+00
22  1 7.60742865E-03-5.09831516E-01-8.58834861E-02 6.29954433E-02 3.14736317E-01
22  2 8.66427567E-01 1.52797978E-01-8.40420426E-03-3.18626107E-01-9.14860828E-02
22  3-1.15869569E-01-1.05462527E-01-6.29008657E-03-9.17836707E-03 6.86393867E-03
22  4 7.60742865E-03-5.09831516E-01-8.58834861E-02 6.29954433E-02-3.14736317E-01
22  5 8.66427567E-01 1.52797978E-01-8.40420426E-03 3.18626107E-01-9.14860828E-02
22  6-1.15869569E-01-1.05462527E-01-6.29008657E-03 9.17836707E-03-6.86393867E-03
22  7 4.27866901E-03-4.85408366E-01-2.83188383E-01-2.71722814E-01 0.00000000E+00
22  8 4.41220180E-01 5.01461496E-01 3.44237410E-01 0.00000000E+00-1.51938176E-01
22  9-1.00221111E-01-9.55962959E-02-3.31676025E-02 0.00000000E+00 0.00000000E+00
22 10-9.95247253E-03-3.41206106E-01 1.43482015E-02 7.66828526E-02 0.00000000E+00
22 11 4.84343558E-01-1.26618249E-02-1.13511742E-01 0.00000000E+00-1.40099535E-01
22 12-2.17267734E-01-1.33788955E-01 5.31771963E-02 0.00000000E+00 0.00000000E+00
23  1-2.58851897E-02-2.22794528E-01 1.38780595E-01 4.13857604E-01-3.14005560E-01
23  2 2.48636092E-01-4.98555308E-02-3.11109564E-01 6.39916221E-01-2.09208441E-02
23  3-1.79536048E-03-1.08461230E-01-9.78639453E-03 1.39087380E-02 6.29100428E-02
23  4-2.58851897E-02-2.22794528E-01 1.38780595E-01 4.13857604E-01 3.14005560E-01
23  5 2.48636092E-01-4.98555308E-02-3.11109564E-01-6.39916221E-01-2.09208441E-02
23  6-1.79536048E-03-1.08461230E-01-9.78639453E-03-1.39087380E-02-6.29100428E-02
23  7 1.37955610E-02-1.98201246E-01-1.28208256E-01 1.33198441E-01 0.00000000E+00
23  8 1.13257074E-01 5.26548702E-01 1.98319352E-02 0.00000000E+00 3.23463151E-02
23  9-2.59279200E-02-5.50967804E-02-7.33910856E-03 0.00000000E+00 0.00000000E+00
23 10-2.88670048E-03-1.74370604E-01-3.18967267E-02 7.43954385E-02 0.00000000E+00
23 11 1.26420722E-01 4.55063648E-02-1.25888624E-01 0.00000000E+00-9.26867312E-02
23 12-1.00678737E-01-8.22995921E-02 7.83748707E-02 0.00000000E+00 0.00000000E+00
24  1-2.28560948E-02-3.05052514E-01 3.49490179E-01-2.33300254E-01-1.21863011E-01
24  2 3.71976887E-01-1.93171698E-01 2.03175247E-01 3.30704539E-01-5.16137319E-02
24  3-5.12162489E-02-1.08549560E-01-5.78076192E-02 4.33346868E-02-6.01579777E-02
24  4-2.28560948E-02-3.05052514E-01 3.49490179E-01-2.33300254E-01 1.21863011E-01
24  5 3.71976887E-01-1.93171698E-01 2.03175247E-01-3.30704539E-01-5.16137319E-02
24  6-5.12162489E-02-1.08549560E-01-5.78076192E-02-4.33346868E-02 6.01579777E-02
24  7 8.71371104E-03-1.39830915E-01 3.95895104E-01-3.96181020E-01 0.00000000E+00
24  8-2.15614178E-01-4.11552031E-01 7.01565953E-01 0.00000000E+00-1.19053471E-01
24  9-2.72308909E-02-4.72133579E-02 6.46735555E-02 0.00000000E+00 0.00000000E+00
24 10-1.09485312E-02-5.12705376E-02 1.10953033E-01-1.05141781E-01 0.00000000E+00
24 11 4.91125190E-01-2.26918943E-01 1.62557608E-01 0.00000000E+00 4.33320587E-02
24 12 2.24539805E-02-7.06547658E-02-9.34598300E-02 0.00000000E+00 0.00000000E+00
25  1 3.87477272E-03 6.29123579E-02 2.27541012E-01-3.49225414E-01-6.21636607E-02
25  2-6.35666913E-02-3.33297468E-01 4.96695670E-01 1.05647147E-01 6.63901563E-02
25  3-1.75657336E-02 1.26537686E-02 2.39262432E-02 4.15179903E-02-3.97009418E-02
25  4 3.87477272E-03 6.29123579E-02 2.27541012E-01-3.49225414E-01 6.21636607E-02
25  5-6.35666913E-02-3.33297468E-01 4.96695670E-01-1.05647147E-01 6.63901563E-02
25  6-1.75657336E-02 1.26537686E-02 2.39262432E-02-4.15179903E-02 3.97009418E-02
25  7-5.84993901E-03-2.70832173E-01-5.25822245E-01 2.62751745E-01 0.00000000E+00
25  8 7.69781022E-01 1.16281788E+00-8.60736899E-01 0.00000000E+00-1.34813006E-02
25  9 1.36652178E-02-5.53384589E-02-4.19764395E-02 0.00000000E+00 0.00000000E+00
25 10 1.49396358E-02 1.05252698E-01-2.31043648E-01 1.73770377E-02 0.00000000E+00
25 11-8.91639425E-01 3.02879626E-01-2.96213889E-01 0.00000000E+00-3.78255155E-02
25 12-2.12274893E-02 9.35958641E-02 1.18787239E-01 0.00000000E+00 0.00000000E+00
26  1 3.12129146E-02 5.75235892E-02-3.35127498E-01-1.83083640E-01-5.75625083E-01
26  2 3.17865286E-01 6.94712415E-01 3.88403373E-01 6.43030188E-01-3.08832173E-03
26  3-4.50350128E-03 2.45193587E-01 1.14122217E-03 2.08631013E-02 1.16894689E-02
26  4-3.12129146E-02-5.75235892E-02 3.35127498E-01 1.83083640E-01-5.75625083E-01
26  5-3.17865286E-01-6.94712415E-01-3.88403373E-01 6.43030188E-01 3.08832173E-03
26  6 4.50350128E-03-2.45193587E-01-1.14122217E-03 2.08631013E-02 1.16894689E-02
26  7 0.00000000E+00 0.00000000E+00 0.00000000E+00 0.00000000E+00-1.30769364E-01
26  8 0.00000000E+00 0.00000000E+00 0.00000000E+00 2.85706994E-01 0.00000000E+00
26  9 0.00000000E+00 0.00000000E+00 0.00000000E+00-1.09405194E-01-5.60900530E-02
26 10 0.00000000E+00 0.00000000E+00 0.00000000E+00 0.00000000E+00 2.87454375E-03
26 11 0.00000000E+00 0.00000000E+00 0.00000000E+00 1.51395511E-03 0.00000000E+00
26 12 0.00000000E+00 0.00000000E+00 0.00000000E+00 7.76999943E-03-1.57865386E-02
27  1 1.38879365E-02-1.49440130E-01-1.11634412E-01 4.57982596E-01-8.96647047E-02
27  2 1.89626103E-01 3.46661314E-01-5.83637638E-01-2.04634781E-01 8.99756876E-03
27  3-3.80190179E-02-1.01274696E-02 3.14245574E-02 2.83373429E-02-1.26713981E-02
27  4-1.38879365E-02 1.49440130E-01 1.11634412E-01-4.57982596E-01-8.96647047E-02
27  5-1.89626103E-01-3.46661314E-01 5.83637638E-01-2.04634781E-01-8.99756876E-03
27  6 3.80190179E-02 1.01274696E-02-3.14245574E-02 2.83373429E-02-1.26713981E-02
27  7 0.00000000E+00 0.00000000E+00 0.00000000E+00 0.00000000E+00-6.89968539E-01
27  8 0.00000000E+00 0.00000000E+00 0.00000000E+00 9.87417552E-01 0.00000000E+00
27  9 0.00000000E+00 0.00000000E+00 0.00000000E+00 2.31770664E-02 5.97867759E-02
27 10 0.00000000E+00 0.00000000E+00 0.00000000E+00 0.00000000E+00-3.06728604E-03
27 11 0.00000000E+00 0.00000000E+00 0.00000000E+00-1.23775368E-01 0.00000000E+00
27 12 0.00000000E+00 0.00000000E+00 0.00000000E+00 6.08850046E-02-8.15470401E-03
28  1 1.77617342E-02-8.95848758E-02 4.42314419E-01-3.58765924E-01-1.58558708E-01
28  2 8.58111140E-02-6.07815447E-01 6.09523716E-01-6.05962334E-02 4.19474839E-03
28  3-2.79240759E-02 3.41445340E-02 2.90025325E-02-6.68992607E-03 2.56078196E-02
28  4-1.77617342E-02 8.95848758E-02-4.42314419E-01 3.58765924E-01-1.58558708E-01
28  5-8.58111140E-02 6.07815447E-01-6.09523716E-01-6.05962334E-02-4.19474839E-03
28  6 2.79240759E-02-3.41445340E-02-2.90025325E-02-6.68992607E-03 2.56078196E-02
28  7 0.00000000E+00 0.00000000E+00 0.00000000E+00 0.00000000E+00-5.27646128E-01
28  8 0.00000000E+00 0.00000000E+00 0.00000000E+00 6.08846027E-01 0.00000000E+00
28  9 0.00000000E+00 0.00000000E+00 0.00000000E+00 3.43478855E-02 2.91889366E-02
28 10 0.00000000E+00 0.00000000E+00 0.00000000E+00 0.00000000E+00-1.87969095E-01
28 11 0.00000000E+00 0.00000000E+00 0.00000000E+00 1.20147968E-04 0.00000000E+00
28 12 0.00000000E+00 0.00000000E+00 0.00000000E+00-1.54445355E-02-2.03669693E-02
29  1 2.89311608E-02 4.30669286E-01 1.43973992E-01 1.50691579E-01 3.86096189E-02
29  2-4.25484648E-01-1.89111927E-01-2.83719460E-01-2.22247573E-01 1.09643919E-01
29  3 4.53712857E-02 1.35257411E-01 1.15775104E-01 9.24743801E-02 5.64554281E-02
29  4 2.89311608E-02 4.30669286E-01 1.43973992E-01 1.50691579E-01-3.86096189E-02
29  5-4.25484648E-01-1.89111927E-01-2.83719460E-01 2.22247573E-01 1.09643919E-01
29  6 4.53712857E-02 1.35257411E-01 1.15775104E-01-9.24743801E-02-5.64554281E-02
29  7 2.52400690E-02 1.66681864E-04-3.05901209E-01-5.70209150E-01 0.00000000E+00
29  8 2.53233534E-01 2.35003110E-01 8.24571255E-01 0.00000000E+00 7.31960966E-02
29  9-2.64193670E-03-6.10292158E-02 1.19067569E-01 0.00000000E+00 0.00000000E+00
29 10 9.01608097E-03 3.62739489E-01-1.07913142E-01-1.63266085E-01 0.00000000E+00
29 11-4.88015923E-01-1.17398111E-01 7.81701119E-02 0.00000000E+00 1.83346990E-01
29 12 1.92624221E-01 1.41505194E-01-4.44205944E-02 0.00000000E+00 0.00000000E+00
30  1-3.20464992E-02-5.46884281E-02-3.77565873E-01-3.46220504E-01 4.19270568E-01
30  2 2.11163603E-02 1.02358159E+00 8.17155496E-01-6.72194197E-01 2.02273555E-02
30  3 1.10621352E-02-1.80274551E-01-9.19657951E-03 3.84699586E-02 2.48899677E-02
30  4 3.20464992E-02 5.46884281E-02 3.77565873E-01 3.46220504E-01 4.19270568E-01
30  5-2.11163603E-02-1.02358159E+00-8.17155496E-01-6.72194197E-01-2.02273555E-02
30  6-1.10621352E-02 1.80274551E-01 9.19657951E-03 3.84699586E-02 2.48899677E-02
30  7 0.00000000E+00 0.00000000E+00 0.00000000E+00 0.00000000E+00-2.99807996E-01
30  8 0.00000000E+00 0.00000000E+00 0.00000000E+00 1.13200734E+00 0.00000000E+00