!   H3CN...1-E state averaged full valence MCSCF gradient...April 2014
!   Because we average degenerate states, we can skip CP-MCSCF equations!
!
!   determinants: FINAL E= -94.0358620495, 15 iters, RMS= 0.012454125
!           GUGA: F.NAL E= -94.0358620496, 15 iters, R.S= 0.012454388
!
!   This run takes 362 seconds on 2.66 GHz Cloverton (24 Apr 2015)
!   requires 362 and 493 s.conds for determinants and CSFs, respectively.
!
!   --------------------------------------------------------------------
!   the states arising from the (e)2 configuration are 3-A2, 1-E, 1-A1:
!     STATE 1  ENERGY= -94.1010726038  S=  1.00  SZ=  0.00
!     STATE 2  ENERGY= -94.0358620501  S=  0.00  SZ=  0.00
!     STATE 3  ENERGY= -94.0358620479  S=  0.00  SZ=  0.00
!     STATE 4  ENERGY= -94.0044731142  S=  0.00  SZ=  0.00
!   determinant-based geometry optimization (skipping CPMCHF):
!     NSERCH: 0  E= -94.0358620495  R.M.S.=  0.0124546
!     NSERCH: 1  E= -94.0379172903  R.M.S.=  0.0029602
!     NSERCH: 2  E= -94.0381540400  R.M.S.=  0.0013955
!     NSERCH: 3  E= -94.0382547882  R.M.S.=  0.0000442
!     NSERCH: 4  E= -94.0382548256  R.M.S.=  0.0000212
!     NSERCH: 5  E= -94.0382548351  R.M.S.=  0.0000046
!     NSERCH: 6  E= -94.0382548357  R.M.S.=  0.0000037
!     NSERCH: 7  E= -94.0382548303  R.M.S.=  0.0000161
!     NSERCH: 8  E= -94.0382548355  R.M.S.=  0.0000036
!     NSERCH: 9  E= -94.0382548363  R.M.S.=  0.0000010
!
 $contrl scftyp=mcscf mult=1 runtyp=gradient ispher=1 $end
 $system parall=.t. mwords=5 $end
 $basis  gbasis=accd $end
 $scf    dirscf=.t. $end
 $trans  dirtrf=.t. $end
 $guess  guess=moread norb=73 purify=.true. $end
!
!           213,444 determinants
!           this program detects automatically that the CP-MCHF is avoidable
 $mcscf  cistep=aldet soscf=.true. $end
 $det    group=c1 ncore=2 nact=11 nels=12 nstate=4 wstate(1)=1,1 iroot=2 $end
!
!            60,984 CSFs
!           this program must be assisted in realizing no responses needed.
x$mcscf  cistep=guga soscf=.true. $end
x$drt    group=c1 nmcc=2 ndoc=6 nval=5 fors=.true. $end
x$gugdia nstate=3 $end
x$gugdm2 wstate(1)=1,1,0 wtsok=.true. $end
!
!            needed to re-purify the C3v symmetry every geometry during opt.
x$contrl runtyp=optimize $end
x$statpt opttol=1d-5 $end
x$trans  ipurfy=1 $end

 $data
H3CN...geometry is from 3-A-2 ROHF/6-31G(d,p)
Cnv  3

CARBON      6.0    .0000000000    .0000000000    .0859766812
NITROGEN    7.0    .0000000000    .0000000000   1.5214006190
HYDROGEN    1.0   1.0204763376    .0000000000   -.2885202335
 $end

x$contrl scftyp=rohf mult=3 runtyp=energy $end
x$guess  guess=huckel $end
x$scf    vvos=.true. $end
--- OPEN SHELL ORBITALS --- GENERATED AT Mon Apr 14 14:04:39 2014
E(ROHF)=  -94.0091151649 with VVOs included.
 $VEC
 1  1 5.67131601E-05-4.45345538E-05 1.06336052E-02 0.00000000E+00 0.00000000E+00
 1  2 1.05245398E-04 0.00000000E+00 0.00000000E+00 1.06819425E-02 1.50813419E-04
 1  3 1.50813419E-04-3.01626838E-04 0.00000000E+00 0.00000000E+00 0.00000000E+00
 1  4 7.19369378E-04 0.00000000E+00 0.00000000E+00 1.01833815E-03-1.52886318E-03
 1  5-1.52886318E-03 3.05772636E-03 0.00000000E+00 0.00000000E+00 0.00000000E+00
 1  6 1.00231891E+00 1.64683250E-03-1.95872730E-02 0.00000000E+00 0.00000000E+00
 1  7-2.35912269E-03 0.00000000E+00 0.00000000E+00 7.68860823E-03-1.31974008E-04
 1  8-1.31974008E-04 2.63948015E-04 0.00000000E+00 0.00000000E+00 0.00000000E+00
 1  9-4.07574907E-03 0.00000000E+00 0.00000000E+00 8.08888286E-04 8.60957442E-04
 1 10 8.60957442E-04-1.72191488E-03 0.00000000E+00 0.00000000E+00 0.00000000E+00
 1 11-2.49062343E-04 1.53611147E-03-4.94271027E-05 8.56102532E-05-1.82136534E-04
 1 12 1.83021773E-04 5.45583468E-05-9.44978287E-05-4.33565877E-04-2.49062343E-04
 1 13 1.53611147E-03-4.94271027E-05-8.56102532E-05-1.82136534E-04 1.83021773E-04
 1 14 5.45583468E-05 9.44978287E-05-4.33565877E-04-2.49062343E-04 1.53611147E-03
 1 15 9.88542054E-05 0.00000000E+00-1.82136534E-04 1.83021773E-04-1.09116694E-04
 1 16 0.00000000E+00-4.33565877E-04
 2  1 1.00348681E+00 6.86882074E-03-2.67414687E-02 0.00000000E+00 0.00000000E+00
 2  2 3.83328038E-04 0.00000000E+00 0.00000000E+00 3.29165258E-03-1.13487567E-05
 2  3-1.13487567E-05 2.26975135E-05 0.00000000E+00 0.00000000E+00 0.00000000E+00
 2  4-8.27514153E-03 0.00000000E+00 0.00000000E+00 2.70065748E-04-3.41195474E-04
 2  5-3.41195474E-04 6.82390949E-04 0.00000000E+00 0.00000000E+00 0.00000000E+00
 2  6 1.03898264E-04 5.12631399E-04-3.71291542E-04 0.00000000E+00 0.00000000E+00
 2  7-3.15242577E-04 0.00000000E+00 0.00000000E+00 6.92199500E-04 7.74227324E-05
 2  8 7.74227324E-05-1.54845465E-04 0.00000000E+00 0.00000000E+00 0.00000000E+00
 2  9 6.14455204E-04 0.00000000E+00 0.00000000E+00 2.09761752E-04 2.72764452E-04
 2 10 2.72764452E-04-5.45528903E-04 0.00000000E+00 0.00000000E+00 0.00000000E+00
 2 11 4.29490424E-04 8.90464107E-03-1.24283437E-04 2.15265227E-04-1.22292610E-04
 2 12 9.50196555E-04 1.24535236E-03-2.15701357E-03 1.21068409E-03 4.29490424E-04
 2 13 8.90464107E-03-1.24283437E-04-2.15265227E-04-1.22292610E-04 9.50196555E-04
 2 14 1.24535236E-03 2.15701357E-03 1.21068409E-03 4.29490424E-04 8.90464107E-03
 2 15 2.48566874E-04 0.00000000E+00-1.22292610E-04 9.50196555E-04-2.49070473E-03
 2 16 0.00000000E+00 1.21068409E-03
 3  1-2.01290955E-02 3.49461767E-01 6.20739939E-02 0.00000000E+00 0.00000000E+00
 3  2 5.20921242E-02 0.00000000E+00 0.00000000E+00-4.10695359E-02-7.97067308E-03
 3  3-7.97067308E-03 1.59413462E-02 0.00000000E+00 0.00000000E+00 0.00000000E+00
 3  4-4.39258986E-03 0.00000000E+00 0.00000000E+00-4.13869039E-03 7.97319099E-03
 3  5 7.97319099E-03-1.59463820E-02 0.00000000E+00 0.00000000E+00 0.00000000E+00
 3  6-1.08938803E-02 1.99975570E-01 2.56258136E-01 0.00000000E+00 0.00000000E+00
 3  7-1.55301929E-01 0.00000000E+00 0.00000000E+00-1.26818496E-01-9.87398437E-03
 3  8-9.87398437E-03 1.97479687E-02 0.00000000E+00 0.00000000E+00 0.00000000E+00
 3  9 2.29437834E-02 0.00000000E+00 0.00000000E+00-6.10091294E-03-1.18674454E-02
 3 10-1.18674454E-02 2.37348907E-02 0.00000000E+00 0.00000000E+00 0.00000000E+00
 3 11 1.56980891E-01 2.55320418E-02 1.06427328E-02-1.84337540E-02 8.19878355E-03
 3 12-3.02734684E-04 5.23732868E-03-9.07131938E-03 2.35376461E-03 1.56980891E-01
 3 13 2.55320418E-02 1.06427328E-02 1.84337540E-02 8.19878355E-03-3.02734684E-04
 3 14 5.23732868E-03 9.07131938E-03 2.35376461E-03 1.56980891E-01 2.55320418E-02
 3 15-2.12854657E-02 0.00000000E+00 8.19878355E-03-3.02734684E-04-1.04746574E-02
 3 16 0.00000000E+00 2.35376461E-03
 4  1 5.61117271E-03-1.40725788E-01-6.25642108E-02 0.00000000E+00 0.00000000E+00
 4  2 2.92591553E-01 0.00000000E+00 0.00000000E+00 5.21720386E-02-1.82546560E-02
 4  3-1.82546560E-02 3.65093119E-02 0.00000000E+00 0.00000000E+00 0.00000000E+00
 4  4 2.36585513E-02 0.00000000E+00 0.00000000E+00-1.45397844E-03 1.08727563E-02
 4  5 1.08727563E-02-2.17455126E-02 0.00000000E+00 0.00000000E+00 0.00000000E+00
 4  6-5.41614789E-04 3.53938601E-01 4.11585964E-01 0.00000000E+00 0.00000000E+00
 4  7-1.01684417E-01 0.00000000E+00 0.00000000E+00-7.04318642E-02-4.05093071E-03
 4  8-4.05093071E-03 8.10186143E-03 0.00000000E+00 0.00000000E+00 0.00000000E+00
 4  9 5.69416724E-03 0.00000000E+00 0.00000000E+00 1.03606613E-03-1.24654766E-03
 4 10-1.24654766E-03 2.49309531E-03 0.00000000E+00 0.00000000E+00 0.00000000E+00
 4 11-1.58807981E-01-7.23120826E-02-8.30160558E-03 1.43788026E-02 1.26013185E-03
 4 12-4.58276638E-03-6.54363727E-03 1.13339122E-02-8.26059212E-03-1.58807981E-01
 4 13-7.23120826E-02-8.30160558E-03-1.43788026E-02 1.26013185E-03-4.58276638E-03
 4 14-6.54363727E-03-1.13339122E-02-8.26059212E-03-1.58807981E-01-7.23120826E-02
 4 15 1.66032112E-02 0.00000000E+00 1.26013185E-03-4.58276638E-03 1.30872745E-02
 4 16 0.00000000E+00-8.26059212E-03
 5  1 0.00000000E+00 0.00000000E+00 0.00000000E+00 0.00000000E+00 4.34011234E-01
 5  2 0.00000000E+00 0.00000000E+00 1.25009264E-01 0.00000000E+00 0.00000000E+00
 5  3 0.00000000E+00 0.00000000E+00-2.31470630E-02 0.00000000E+00-9.80864007E-03
 5  4 0.00000000E+00 0.00000000E+00 2.17555386E-03 0.00000000E+00 0.00000000E+00
 5  5 0.00000000E+00 0.00000000E+00 3.58955851E-02 0.00000000E+00-2.28946785E-02
 5  6 0.00000000E+00 0.00000000E+00 0.00000000E+00 0.00000000E+00 7.16099051E-02
 5  7 0.00000000E+00 0.00000000E+00 4.91374474E-02 0.00000000E+00 0.00000000E+00
 5  8 0.00000000E+00 0.00000000E+00-4.60279028E-04 0.00000000E+00-1.34960996E-02
 5  9 0.00000000E+00 0.00000000E+00-1.00921342E-02 0.00000000E+00 0.00000000E+00
 5 10 0.00000000E+00 0.00000000E+00-6.67208339E-03 0.00000000E+00-1.94435355E-02
 5 11 3.18891729E-01 1.95917002E-01 1.34519865E-02-1.04177130E-02 1.05916434E-02
 5 12 1.09604066E-02 2.40547105E-03-2.17283746E-02 2.03497445E-02-3.18891729E-01
 5 13-1.95917002E-01-1.34519865E-02-1.04177130E-02-1.05916434E-02-1.09604066E-02
 5 14-2.40547105E-03-2.17283746E-02-2.03497445E-02 0.00000000E+00 0.00000000E+00
 5 15 0.00000000E+00 1.28818111E-02 0.00000000E+00 0.00000000E+00 0.00000000E+00
 5 16-1.75619766E-02 0.00000000E+00
 6  1 0.00000000E+00 0.00000000E+00 0.00000000E+00 4.34011234E-01 0.00000000E+00
 6  2 0.00000000E+00 1.25009264E-01 0.00000000E+00 0.00000000E+00 2.00459446E-02
 6  3-2.00459446E-02 0.00000000E+00 0.00000000E+00-9.80864007E-03 0.00000000E+00
 6  4 0.00000000E+00 2.17555386E-03 0.00000000E+00 0.00000000E+00-3.10864886E-02
 6  5 3.10864886E-02 0.00000000E+00 0.00000000E+00-2.28946785E-02 0.00000000E+00
 6  6 0.00000000E+00 0.00000000E+00 0.00000000E+00 7.16099051E-02 0.00000000E+00
 6  7 0.00000000E+00 4.91374474E-02 0.00000000E+00 0.00000000E+00 3.98613331E-04
 6  8-3.98613331E-04 0.00000000E+00 0.00000000E+00-1.34960996E-02 0.00000000E+00
 6  9 0.00000000E+00-1.00921342E-02 0.00000000E+00 0.00000000E+00 5.77819371E-03
 6 10-5.77819371E-03 0.00000000E+00 0.00000000E+00-1.94435355E-02 0.00000000E+00
 6 11-1.84112225E-01-1.13112734E-01 5.11530310E-03 1.34519865E-02-6.11508819E-03
 6 12-6.32799371E-03-1.89507759E-02 2.40547105E-03-1.17489304E-02-1.84112225E-01
 6 13-1.13112734E-01 5.11530310E-03-1.34519865E-02-6.11508819E-03-6.32799371E-03
 6 14-1.89507759E-02-2.40547105E-03-1.17489304E-02 3.68224451E-01 2.26225468E-01
 6 15-1.81842210E-02 0.00000000E+00 1.22301764E-02 1.26559874E-02-2.31171740E-02
 6 16 0.00000000E+00 2.34978609E-02
 7  1-1.75156236E-04-7.03575465E-02-8.45095336E-02 0.00000000E+00 0.00000000E+00
 7  2-2.88514191E-01 0.00000000E+00 0.00000000E+00-1.46582756E-01 1.19666335E-02
 7  3 1.19666335E-02-2.39332669E-02 0.00000000E+00 0.00000000E+00 0.00000000E+00
 7  4-1.80393307E-02 0.00000000E+00 0.00000000E+00-1.87452541E-02 3.69002395E-06
 7  5 3.69002395E-06-7.38004790E-06 0.00000000E+00 0.00000000E+00 0.00000000E+00
 7  6 2.31804839E-03 2.42295198E-01 3.78993143E-01 0.00000000E+00 0.00000000E+00
 7  7 4.63363911E-01 0.00000000E+00 0.00000000E+00 2.90442942E-01 1.21719122E-02
 7  8 1.21719122E-02-2.43438245E-02 0.00000000E+00 0.00000000E+00 0.00000000E+00
 7  9 1.08031996E-01 0.00000000E+00 0.00000000E+00 1.90945032E-02 9.75281925E-03
 7 10 9.75281925E-03-1.95056385E-02 0.00000000E+00 0.00000000E+00 0.00000000E+00
 7 11 5.63301417E-02 3.36697354E-02 2.05104632E-03-3.55251643E-03-4.78569079E-03
 7 12 7.60330468E-05 1.68744689E-03-2.92274376E-03 6.20863857E-03 5.63301417E-02
 7 13 3.36697354E-02 2.05104632E-03 3.55251643E-03-4.78569079E-03 7.60330468E-05
 7 14 1.68744689E-03 2.92274376E-03 6.20863857E-03 5.63301417E-02 3.36697354E-02
 7 15-4.10209264E-03 0.00000000E+00-4.78569079E-03 7.60330468E-05-3.37489379E-03
 7 16 0.00000000E+00 6.20863857E-03
 8  1 0.00000000E+00 0.00000000E+00 0.00000000E+00 0.00000000E+00-5.96649645E-02
 8  2 0.00000000E+00 0.00000000E+00-8.98835399E-02 0.00000000E+00 0.00000000E+00
 8  3 0.00000000E+00 0.00000000E+00 7.00815318E-03 0.00000000E+00 3.31470135E-02
 8  4 0.00000000E+00 0.00000000E+00-7.41005556E-03 0.00000000E+00 0.00000000E+00
 8  5 0.00000000E+00 0.00000000E+00 1.20159342E-02 0.00000000E+00-3.07322116E-02
 8  6 0.00000000E+00 0.00000000E+00 0.00000000E+00 0.00000000E+00 6.56220864E-01
 8  7 0.00000000E+00 0.00000000E+00 4.92399128E-01 0.00000000E+00 0.00000000E+00
 8  8 0.00000000E+00 0.00000000E+00 7.85762060E-04 0.00000000E+00-1.34164128E-02
 8  9 0.00000000E+00 0.00000000E+00 6.08251862E-02 0.00000000E+00 0.00000000E+00
 8 10 0.00000000E+00 0.00000000E+00 2.26450384E-03 0.00000000E+00-3.23254106E-02
 8 11-9.79923724E-02-8.06055386E-02-2.70344997E-03 2.37752718E-03-2.80082840E-03
 8 12-1.83978841E-02-7.34701248E-03 8.71116521E-03 1.85247048E-02 9.79923724E-02
 8 13 8.06055386E-02 2.70344997E-03 2.37752718E-03 2.80082840E-03 1.83978841E-02
 8 14 7.34701248E-03 8.71116521E-03-1.85247048E-02 0.00000000E+00 0.00000000E+00
 8 15 0.00000000E+00-2.30498552E-03 0.00000000E+00 0.00000000E+00 0.00000000E+00
 8 16-4.01423369E-03 0.00000000E+00
 9  1 0.00000000E+00 0.00000000E+00 0.00000000E+00-5.96649645E-02 0.00000000E+00
 9  2 0.00000000E+00-8.98835399E-02 0.00000000E+00 0.00000000E+00-6.06923869E-03
 9  3 6.06923869E-03 0.00000000E+00 0.00000000E+00 3.31470135E-02 0.00000000E+00
 9  4 0.00000000E+00-7.41005556E-03 0.00000000E+00 0.00000000E+00-1.04061042E-02
 9  5 1.04061042E-02 0.00000000E+00 0.00000000E+00-3.07322116E-02 0.00000000E+00
 9  6 0.00000000E+00 0.00000000E+00 0.00000000E+00 6.56220864E-01 0.00000000E+00
 9  7 0.00000000E+00 4.92399128E-01 0.00000000E+00 0.00000000E+00-6.80489905E-04
 9  8 6.80489905E-04 0.00000000E+00 0.00000000E+00-1.34164128E-02 0.00000000E+00
 9  9 0.00000000E+00 6.08251862E-02 0.00000000E+00 0.00000000E+00-1.96111785E-03
 9 10 1.96111785E-03 0.00000000E+00 0.00000000E+00-3.23254106E-02 0.00000000E+00
 9 11 5.65759226E-02 4.65376294E-02-7.44147954E-04-2.70344997E-03 1.61705903E-03
 9 12 1.06220233E-02 2.27565942E-04-7.34701248E-03-1.06952433E-02 5.65759226E-02
 9 13 4.65376294E-02-7.44147954E-04 2.70344997E-03 1.61705903E-03 1.06220233E-02
 9 14 2.27565942E-04 7.34701248E-03-1.06952433E-02-1.13151845E-01-9.30752588E-02
 9 15 3.93836474E-03 0.00000000E+00-3.23411806E-03-2.12440467E-02 1.29529648E-02
 9 16 0.00000000E+00 2.13904866E-02
10  1-1.21468604E-01-4.39378567E-01-5.85666759E-01 0.00000000E+00 0.00000000E+00
10  2 7.11859999E-01 0.00000000E+00 0.00000000E+00 4.79423779E-01 1.13394037E-03
10  3 1.13394037E-03-2.26788074E-03 0.00000000E+00 0.00000000E+00 0.00000000E+00
10  4-2.19334962E-01 0.00000000E+00 0.00000000E+00 1.58216095E-02 3.83066298E-03
10  5 3.83066298E-03-7.66132595E-03 0.00000000E+00 0.00000000E+00 0.00000000E+00
10  6-5.95737295E-02-2.47171798E-01-2.71728799E-01 0.00000000E+00 0.00000000E+00
10  7 2.83304079E-01 0.00000000E+00 0.00000000E+00 1.54767055E-01 1.49302511E-03
10  8 1.49302511E-03-2.98605023E-03 0.00000000E+00 0.00000000E+00 0.00000000E+00
10  9 1.50240727E-01 0.00000000E+00 0.00000000E+00-3.37879458E-02-8.38268389E-03
10 10-8.38268389E-03 1.67653678E-02 0.00000000E+00 0.00000000E+00 0.00000000E+00
10 11 4.01551376E-01 3.63086004E-01 7.37518388E-04-1.27741932E-03 3.36609971E-03
10 12 2.77523946E-02 2.09495774E-03-3.62857324E-03-1.08992037E-02 4.01551376E-01
10 13 3.63086004E-01 7.37518388E-04 1.27741932E-03 3.36609971E-03 2.77523946E-02
10 14 2.09495774E-03 3.62857324E-03-1.08992037E-02 4.01551376E-01 3.63086004E-01
10 15-1.47503678E-03 0.00000000E+00 3.36609971E-03 2.77523946E-02-4.18991548E-03
10 16 0.00000000E+00-1.08992037E-02
11  1 1.74415853E-01 7.36260559E-01 9.40240810E-01 0.00000000E+00 0.00000000E+00
11  2 3.71838555E-01 0.00000000E+00 0.00000000E+00 3.06801886E-01 2.27181643E-03
11  3 2.27181643E-03-4.54363286E-03 0.00000000E+00 0.00000000E+00 0.00000000E+00
11  4 4.98748302E-02 0.00000000E+00 0.00000000E+00 2.10532330E-02-6.15285446E-03
11  5-6.15285446E-03 1.23057089E-02 0.00000000E+00 0.00000000E+00 0.00000000E+00
11  6-6.78727754E-02-3.22500991E-01-4.29579741E-01 0.00000000E+00 0.00000000E+00
11  7 5.57086078E-01 0.00000000E+00 0.00000000E+00 3.72148312E-01 1.06926553E-03
11  8 1.06926553E-03-2.13853106E-03 0.00000000E+00 0.00000000E+00 0.00000000E+00
11  9 5.25925160E-03 0.00000000E+00 0.00000000E+00 1.22828539E-02-4.82339237E-03
11 10-4.82339237E-03 9.64678473E-03 0.00000000E+00 0.00000000E+00 0.00000000E+00
11 11-2.59193706E-01-2.48144811E-01 9.78679016E-04-1.69512178E-03 3.33801129E-03
11 12-9.89476652E-03-3.97855433E-03 6.89105824E-03-1.80450112E-02-2.59193706E-01
11 13-2.48144811E-01 9.78679016E-04 1.69512178E-03 3.33801129E-03-9.89476652E-03
11 14-3.97855433E-03-6.89105824E-03-1.80450112E-02-2.59193706E-01-2.48144811E-01
11 15-1.95735803E-03 0.00000000E+00 3.33801129E-03-9.89476652E-03 7.95710866E-03
11 16 0.00000000E+00-1.80450112E-02
12  1 0.00000000E+00 0.00000000E+00 0.00000000E+00 8.56830040E-01 0.00000000E+00
12  2 0.00000000E+00 5.31817187E-01 0.00000000E+00 0.00000000E+00 1.72214057E-03
12  3-1.72214057E-03 0.00000000E+00 0.00000000E+00-1.71127482E-03 0.00000000E+00
12  4 0.00000000E+00 8.36564379E-02 0.00000000E+00 0.00000000E+00-2.76049931E-02
12  5 2.76049931E-02 0.00000000E+00 0.00000000E+00 2.10469384E-04 0.00000000E+00
12  6 0.00000000E+00 0.00000000E+00 0.00000000E+00-1.51242721E-01 0.00000000E+00
12  7 0.00000000E+00-9.06132724E-02 0.00000000E+00 0.00000000E+00-1.54694702E-03
12  8 1.54694702E-03 0.00000000E+00 0.00000000E+00-1.67937030E-04 0.00000000E+00
12  9 0.00000000E+00-1.62088846E-02 0.00000000E+00 0.00000000E+00 5.45770749E-03
12 10-5.45770749E-03 0.00000000E+00 0.00000000E+00-4.95546437E-03 0.00000000E+00
12 11 3.60193178E-01 2.79601516E-01 1.32005445E-03 9.78335578E-04-1.31865734E-03
12 12 4.05270523E-02-1.62693697E-02-5.17955445E-03-2.58525506E-03 3.60193178E-01
12 13 2.79601516E-01 1.32005445E-03-9.78335578E-04-1.31865734E-03 4.05270523E-02
12 14-1.62693697E-02 5.17955445E-03-2.58525506E-03-7.20386357E-01-5.59203031E-01
12 15-3.74472476E-04 0.00000000E+00 2.63731468E-03-8.10541047E-02-7.29811821E-03
12 16 0.00000000E+00 5.17051011E-03
13  1 0.00000000E+00 0.00000000E+00 0.00000000E+00 0.00000000E+00 8.56830040E-01
13  2 0.00000000E+00 0.00000000E+00 5.31817187E-01 0.00000000E+00 0.00000000E+00
13  3 0.00000000E+00 0.00000000E+00-1.98855664E-03 0.00000000E+00-1.71127482E-03
13  4 0.00000000E+00 0.00000000E+00 8.36564379E-02 0.00000000E+00 0.00000000E+00
13  5 0.00000000E+00 0.00000000E+00 3.18755003E-02 0.00000000E+00 2.10469384E-04
13  6 0.00000000E+00 0.00000000E+00 0.00000000E+00 0.00000000E+00-1.51242721E-01
13  7 0.00000000E+00 0.00000000E+00-9.06132724E-02 0.00000000E+00 0.00000000E+00
13  8 0.00000000E+00 0.00000000E+00 1.78626056E-03 0.00000000E+00-1.67937030E-04
13  9 0.00000000E+00 0.00000000E+00-1.62088846E-02 0.00000000E+00 0.00000000E+00
13 10 0.00000000E+00 0.00000000E+00-6.30201778E-03 0.00000000E+00-4.95546437E-03
13 11-6.23872885E-01-4.84284031E-01 9.78335578E-04 1.90369833E-04 2.28398151E-03
13 12-7.01949137E-02-5.17955445E-03-1.02885354E-02 4.47779311E-03 6.23872885E-01
13 13 4.84284031E-01-9.78335578E-04 1.90369833E-04-2.28398151E-03 7.01949137E-02
13 14 5.17955445E-03-1.02885354E-02-4.47779311E-03 0.00000000E+00 0.00000000E+00
13 15 0.00000000E+00 1.88489676E-03 0.00000000E+00 0.00000000E+00 0.00000000E+00
13 16-1.92597868E-02 0.00000000E+00
14  1-4.53291703E-02-1.13678525E-01 1.13350437E+00 0.00000000E+00 0.00000000E+00
14  2 7.67258889E-03 0.00000000E+00 0.00000000E+00-3.45598352E-01 6.08406503E-03
14  3 6.08406503E-03-1.21681301E-02 0.00000000E+00 0.00000000E+00 0.00000000E+00
14  4 6.77832998E+00 0.00000000E+00 0.00000000E+00 1.50467780E-01 3.89010369E-02
14  5 3.89010369E-02-7.78020738E-02 0.00000000E+00 0.00000000E+00 0.00000000E+00
14  6-4.26854827E-03 5.69981227E-03 1.55304201E-01 0.00000000E+00 0.00000000E+00
14  7 6.51660669E-03 0.00000000E+00 0.00000000E+00-1.00436658E-02 1.18297427E-03
14  8 1.18297427E-03-2.36594854E-03 0.00000000E+00 0.00000000E+00 0.00000000E+00
14  9-1.74958615E+00 0.00000000E+00 0.00000000E+00 5.27832643E-01 8.44073822E-03
14 10 8.44073822E-03-1.68814764E-02 0.00000000E+00 0.00000000E+00 0.00000000E+00
14 11 4.50553236E-02-8.84520268E-01-6.05077791E-03 1.04802548E-02-2.55353744E-03
14 12-1.56279926E+00-1.19219008E-01 2.06493379E-01-4.17086467E-02 4.50553236E-02
14 13-8.84520268E-01-6.05077791E-03-1.04802548E-02-2.55353744E-03-1.56279926E+00
14 14-1.19219008E-01-2.06493379E-01-4.17086467E-02 4.50553236E-02-8.84520268E-01
14 15 1.21015558E-02 0.00000000E+00-2.55353744E-03-1.56279926E+00 2.38438016E-01
14 16 0.00000000E+00-4.17086467E-02
15  1 0.00000000E+00 0.00000000E+00 0.00000000E+00 0.00000000E+00-1.17475120E-02
15  2 0.00000000E+00 0.00000000E+00 7.15404168E-02 0.00000000E+00 0.00000000E+00
15  3 0.00000000E+00 0.00000000E+00-1.37352025E-02 0.00000000E+00-2.65714881E-03
15  4 0.00000000E+00 0.00000000E+00 1.88617047E+00 0.00000000E+00 0.00000000E+00
15  5 0.00000000E+00 0.00000000E+00 8.75376895E-02 0.00000000E+00-9.55541536E-02
15  6 0.00000000E+00 0.00000000E+00 0.00000000E+00 0.00000000E+00 3.41851147E-02
15  7 0.00000000E+00 0.00000000E+00 6.59813963E-02 0.00000000E+00 0.00000000E+00
15  8 0.00000000E+00 0.00000000E+00 2.33123320E-03 0.00000000E+00-8.87272953E-04
15  9 0.00000000E+00 0.00000000E+00-2.22872740E-01 0.00000000E+00 0.00000000E+00
15 10 0.00000000E+00 0.00000000E+00-2.03410681E-02 0.00000000E+00-8.46893289E-03
15 11 5.89697935E-02 2.28902807E-02 7.11604169E-04 2.66754554E-05 2.52148374E-03
15 12-4.50044751E+00-1.24308672E-01 2.66875377E-02 2.73976260E-03-5.89697935E-02
15 13-2.28902807E-02-7.11604169E-04 2.66754554E-05-2.52148374E-03 4.50044751E+00
15 14 1.24308672E-01 2.66875377E-02-2.73976260E-03 0.00000000E+00 0.00000000E+00
15 15 0.00000000E+00 1.25921003E-03 0.00000000E+00 0.00000000E+00 0.00000000E+00
15 16-1.88621398E-01 0.00000000E+00
16  1 0.00000000E+00 0.00000000E+00 0.00000000E+00 1.17475120E-02 0.00000000E+00
16  2 0.00000000E+00-7.15404168E-02 0.00000000E+00 0.00000000E+00-1.18950343E-02
16  3 1.18950343E-02 0.00000000E+00 0.00000000E+00 2.65714881E-03 0.00000000E+00
16  4 0.00000000E+00-1.88617047E+00 0.00000000E+00 0.00000000E+00 7.58098629E-02
16  5-7.58098629E-02 0.00000000E+00 0.00000000E+00 9.55541536E-02 0.00000000E+00
16  6 0.00000000E+00 0.00000000E+00 0.00000000E+00-3.41851147E-02 0.00000000E+00
16  7 0.00000000E+00-6.59813963E-02 0.00000000E+00 0.00000000E+00 2.01890717E-03
16  8-2.01890717E-03 0.00000000E+00 0.00000000E+00 8.87272953E-04 0.00000000E+00
16  9 0.00000000E+00 2.22872740E-01 0.00000000E+00 0.00000000E+00-1.76158817E-02
16 10 1.76158817E-02 0.00000000E+00 0.00000000E+00 8.46893289E-03 0.00000000E+00
16 11 3.40462262E-02 1.32157097E-02-8.48365172E-04-7.11604169E-04 1.45577932E-03
16 12-2.59833458E+00 1.16851753E-01 1.24308672E-01 1.58180267E-03 3.40462262E-02
16 13 1.32157097E-02-8.48365172E-04 7.11604169E-04 1.45577932E-03-2.59833458E+00
16 14 1.16851753E-01-1.24308672E-01 1.58180267E-03-6.80924523E-02-2.64314194E-02
16 15 3.84169403E-04 0.00000000E+00-2.91155863E-03 5.19666917E+00-9.84571829E-02
16 16 0.00000000E+00-3.16360535E-03
17  1 6.23871032E-03 1.81005193E-02-4.56842278E-02 0.00000000E+00 0.00000000E+00
17  2 8.55151005E-02 0.00000000E+00 0.00000000E+00-9.38003522E-01 1.45293763E-02
17  3 1.45293763E-02-2.90587525E-02 0.00000000E+00 0.00000000E+00 0.00000000E+00
17  4-3.59930191E+00 0.00000000E+00 0.00000000E+00-2.67155401E+00 1.38951148E-01
17  5 1.38951148E-01-2.77902296E-01 0.00000000E+00 0.00000000E+00 0.00000000E+00
17  6-1.96221597E-02-1.03005445E-02 4.55289753E-01 0.00000000E+00 0.00000000E+00
17  7 1.06411372E-01 0.00000000E+00 0.00000000E+00-3.70534414E-01-2.36781408E-03
17  8-2.36781408E-03 4.73562815E-03 0.00000000E+00 0.00000000E+00 0.00000000E+00
17  9 5.07099324E+00 0.00000000E+00 0.00000000E+00-1.18737412E+00-6.55168376E-02
17 10-6.55168376E-02 1.31033675E-01 0.00000000E+00 0.00000000E+00 0.00000000E+00
17 11-5.33719685E-03-4.26478580E-01-1.12834048E-04 1.95434305E-04 3.54002266E-03
17 12-1.62726173E-01-7.36317606E-02 1.27533950E-01 4.05992229E-02-5.33719685E-03
17 13-4.26478580E-01-1.12834048E-04-1.95434305E-04 3.54002266E-03-1.62726173E-01
17 14-7.36317606E-02-1.27533950E-01 4.05992229E-02-5.33719685E-03-4.26478580E-01
17 15 2.25668097E-04 0.00000000E+00 3.54002266E-03-1.62726173E-01 1.47263521E-01
17 16 0.00000000E+00 4.05992229E-02
18  1 0.00000000E+00 0.00000000E+00 0.00000000E+00 0.00000000E+00-1.02560621E-01
18  2 0.00000000E+00 0.00000000E+00 1.48130589E+00 0.00000000E+00 0.00000000E+00
18  3 0.00000000E+00 0.00000000E+00 8.10233324E-03 0.00000000E+00-3.95398133E-03
18  4 0.00000000E+00 0.00000000E+00 4.86505312E+00 0.00000000E+00 0.00000000E+00
18  5 0.00000000E+00 0.00000000E+00-2.68946055E-01 0.00000000E+00-2.56855267E-01
18  6 0.00000000E+00 0.00000000E+00 0.00000000E+00 0.00000000E+00-6.94595442E-02
18  7 0.00000000E+00 0.00000000E+00-5.54596856E-02 0.00000000E+00 0.00000000E+00
18  8 0.00000000E+00 0.00000000E+00 5.70980058E-03 0.00000000E+00 6.62130784E-03
18  9 0.00000000E+00 0.00000000E+00-6.46341412E-01 0.00000000E+00 0.00000000E+00
18 10 0.00000000E+00 0.00000000E+00 1.15365341E-02 0.00000000E+00 1.09502893E-02
18 11-8.19743974E-02-2.84070160E+00-6.36280387E-03 1.66703515E-02-5.64709680E-03
18 12-5.41988658E+00-3.34787031E-01 4.41572056E-01-2.33644712E-01 8.19743974E-02
18 13 2.84070160E+00 6.36280387E-03 1.66703515E-02 5.64709680E-03 5.41988658E+00
18 14 3.34787031E-01 4.41572056E-01 2.33644712E-01 0.00000000E+00 0.00000000E+00
18 15 0.00000000E+00 5.64965189E-03 0.00000000E+00 0.00000000E+00 0.00000000E+00
18 16-1.38296091E-01 0.00000000E+00
19  1 0.00000000E+00 0.00000000E+00 0.00000000E+00 1.02560621E-01 0.00000000E+00
19  2 0.00000000E+00-1.48130589E+00 0.00000000E+00 0.00000000E+00 7.01682641E-03
19  3-7.01682641E-03 0.00000000E+00 0.00000000E+00 3.95398133E-03 0.00000000E+00
19  4 0.00000000E+00-4.86505312E+00 0.00000000E+00 0.00000000E+00-2.32914116E-01
19  5 2.32914116E-01 0.00000000E+00 0.00000000E+00 2.56855267E-01 0.00000000E+00
19  6 0.00000000E+00 0.00000000E+00 0.00000000E+00 6.94595442E-02 0.00000000E+00
19  7 0.00000000E+00 5.54596856E-02 0.00000000E+00 0.00000000E+00 4.94483236E-03
19  8-4.94483236E-03 0.00000000E+00 0.00000000E+00-6.62130784E-03 0.00000000E+00
19  9 0.00000000E+00 6.46341412E-01 0.00000000E+00 0.00000000E+00 9.99093161E-03
19 10-9.99093161E-03 0.00000000E+00 0.00000000E+00-1.09502893E-02 0.00000000E+00
19 11-4.73279404E-02-1.64007984E+00-9.32321841E-03 6.36280387E-03-3.26035286E-03
19 12-3.12917298E+00-5.49932909E-02 3.34787031E-01-1.34894837E-01-4.73279404E-02
19 13-1.64007984E+00-9.32321841E-03-6.36280387E-03-3.26035286E-03-3.12917298E+00
19 14-5.49932909E-02-3.34787031E-01-1.34894837E-01 9.46558808E-02 3.28015967E+00
19 15-2.03439180E-02 0.00000000E+00 6.52070572E-03 6.25834596E+00-6.34861438E-01
19 16 0.00000000E+00 2.69789675E-01
20  1 1.87946022E-03 1.20560060E-02 2.60050192E-01 0.00000000E+00 0.00000000E+00
20  2 8.10994810E-02 0.00000000E+00 0.00000000E+00 7.12990078E-02-5.03714157E-03
20  3-5.03714157E-03 1.00742831E-02 0.00000000E+00 0.00000000E+00 0.00000000E+00
20  4 6.29244471E+00 0.00000000E+00 0.00000000E+00-7.19567643E-01-3.64075586E-02
20  5-3.64075586E-02 7.28151172E-02 0.00000000E+00 0.00000000E+00 0.00000000E+00
20  6 4.24560468E-04-4.01726222E-02-6.05931389E-02 0.00000000E+00 0.00000000E+00
20  7-9.31493114E-02 0.00000000E+00 0.00000000E+00-3.44018367E-02-1.60179352E-02
20  8-1.60179352E-02 3.20358705E-02 0.00000000E+00 0.00000000E+00 0.00000000E+00
20  9-2.95427843E+00 0.00000000E+00 0.00000000E+00 2.73687889E+00 6.73133620E-02
20 10 6.73133620E-02-1.34626724E-01 0.00000000E+00 0.00000000E+00 0.00000000E+00
20 11-2.70170972E-02-1.56163483E-01-2.85229218E-03 4.94031497E-03-1.22749281E-02
20 12-8.75832730E-01 1.36505604E-02-2.36434642E-02 2.40281455E-01-2.70170972E-02
20 13-1.56163483E-01-2.85229218E-03-4.94031497E-03-1.22749281E-02-8.75832730E-01
20 14 1.36505604E-02 2.36434642E-02 2.40281455E-01-2.70170972E-02-1.56163483E-01
20 15 5.70458436E-03 0.00000000E+00-1.22749281E-02-8.75832730E-01-2.73011208E-02
20 16 0.00000000E+00 2.40281455E-01
21  1 0.00000000E+00 0.00000000E+00 0.00000000E+00 0.00000000E+00 2.90500275E-03
21  2 0.00000000E+00 0.00000000E+00 1.71918935E-01 0.00000000E+00 0.00000000E+00
21  3 0.00000000E+00 0.00000000E+00-8.05760617E-03 0.00000000E+00 5.39694336E-03
21  4 0.00000000E+00 0.00000000E+00-2.07657406E+00 0.00000000E+00 0.00000000E+00
21  5 0.00000000E+00 0.00000000E+00 7.32096011E-02 0.00000000E+00-4.19932234E-01
21  6 0.00000000E+00 0.00000000E+00 0.00000000E+00 0.00000000E+00-1.67876149E-01
21  7 0.00000000E+00 0.00000000E+00-1.02884997E-01 0.00000000E+00 0.00000000E+00
21  8 0.00000000E+00 0.00000000E+00-7.29573746E-04 0.00000000E+00 2.91045505E-02
21  9 0.00000000E+00 0.00000000E+00 2.14283574E+00 0.00000000E+00 0.00000000E+00
21 10 0.00000000E+00 0.00000000E+00-2.40731037E-02 0.00000000E+00-1.70100864E-01
21 11 2.77954481E-02-5.91469873E-01-2.13800930E-03-4.88547527E-03 1.53153767E-02
21 12 1.06283350E+00-2.26458139E-01 2.98642665E-01 6.28803891E-02-2.77954481E-02
21 13 5.91469873E-01 2.13800930E-03-4.88547527E-03-1.53153767E-02-1.06283350E+00
21 14 2.26458139E-01 2.98642665E-01-6.28803891E-02 0.00000000E+00 0.00000000E+00
21 15 0.00000000E+00-8.58861601E-03 0.00000000E+00 0.00000000E+00 0.00000000E+00
21 16-9.35943377E-02 0.00000000E+00
22  1 0.00000000E+00 0.00000000E+00 0.00000000E+00 2.90500275E-03 0.00000000E+00
22  2 0.00000000E+00 1.71918935E-01 0.00000000E+00 0.00000000E+00 6.97809164E-03
22  3-6.97809164E-03 0.00000000E+00 0.00000000E+00 5.39694336E-03 0.00000000E+00
22  4 0.00000000E+00-2.07657406E+00 0.00000000E+00 0.00000000E+00-6.34013744E-02
22  5 6.34013744E-02 0.00000000E+00 0.00000000E+00-4.19932234E-01 0.00000000E+00
22  6 0.00000000E+00 0.00000000E+00 0.00000000E+00-1.67876149E-01 0.00000000E+00
22  7 0.00000000E+00-1.02884997E-01 0.00000000E+00 0.00000000E+00 6.31829398E-04
22  8-6.31829398E-04 0.00000000E+00 0.00000000E+00 2.91045505E-02 0.00000000E+00
22  9 0.00000000E+00 2.14283574E+00 0.00000000E+00 0.00000000E+00 2.08479193E-02
22 10-2.08479193E-02 0.00000000E+00 0.00000000E+00-1.70100864E-01 0.00000000E+00
22 11-1.60477094E-02 3.41485290E-01-7.35423576E-03-2.13800930E-03-8.84233689E-03