!   CN...X-double-sigma-plus state
!   The aug-cc-pTVZ basis set has 110 AOs, and 92 MOs.
!   The 8 singly excited space products end up being
!   16 determinants after spin complementation.
!
!   Starting from canonical orbitals with "aug" basis set is tough,
!   but done intentionally to stress the convergers.  Then, we use a
!   GCI list that is only single excitations, which is also difficult.
!
!   the standard test uses Jacobi converger,
!       FINAL E= -92.3081442327, 34 iters
!
!   This test takes 238 seconds on 2.66 GHz Cloverton (26 Apr 2015)
!   the test has been working about the same since 2002
!
!   --------------------------------------------------------------------
!   The ROHF energy is -92.2184299754 in 14 iterations
!
!   If one uses the singly excited GCI list:
!   FULLNR: E= -92.3081442436 in 37 iters,  325 s.conds (IBM m270, 2002)
!   JACOBI: E= -92.3081442327 in 34 iters, 1464 s.conds (Mac G4,   2005)
!
!   If one uses a full active space,
!    SOSCF: E= divergent, one should use MVOQ to prepare starting MOs.
!   FULLNR: E= -92.3700814920 in 14 iters,  160 s.conds
!   JACOBI: E= -92.3700814986 in 13 iters, 1177 s.conds
!   timings are from 1.2 GHz Athlons (6 May 2002)
!
 $contrl scftyp=mcscf mult=2 runtyp=energy ispher=1 $end
 $system mwords=10 memddi=0 $end
 $guess  guess=moread norb=92 $end
 $mcscf  maxit=50 cistep=genci soscf=.f. fullnr=.f. jacobi=.t. $end
 $gen    glist=input group=c2v stsym=A1 ncore=2 nact=8 nels=9 nstate=1 $end
 $basis  gbasis=acct $end
!   There are a total of 20 single excitations, but only 8 of them
!   are of A1 symmetry in the C2v subgroup, e.g. sigma-plus.
!   Orbitals are in order sigma,sigma,pi-y,pi-x,sigma,sigma,pi-y,pi-x
!   so prune out sigma->pi and pi->sig and x->y and y->x excitations.
!   the arrows below direct input processing to the following line.
 $gcilst
8
   2 2 2 2 1 0 0 0 
   2 2 2 2 0 1 0 0 
>  2 2 2 2 0 0 1 0 
>  2 2 2 2 0 0 0 1 
   1 2 2 2 2 0 0 0 
   2 1 2 2 2 0 0 0 
>  2 2 1 2 2 0 0 0 
>  2 2 2 1 2 0 0 0 
   1 2 2 2 1 1 0 0 
>  1 2 2 2 1 0 1 0 
>  1 2 2 2 1 0 0 1 
   2 1 2 2 1 1 0 0 
>  2 1 2 2 1 0 1 0 
>  2 1 2 2 1 0 0 1 
>  2 2 1 2 1 1 0 0 
   2 2 1 2 1 0 1 0 
>  2 2 1 2 1 0 0 1 
>  2 2 2 1 1 1 0 0 
>  2 2 2 1 1 0 1 0 
   2 2 2 1 1 0 0 1 
 $end
 $data
CN dimer...110 AOs, 92 MOs...aug-cc-pVTZ basis
Cnv 2

Carbon   6.0  0.0 0.0 0.0
Nitrogen 7.0  0.0 0.0 1.17182
 $end

--- OPEN SHELL ORBITALS --- GENERATED AT Mon May  6 18:46:24 2002
CN dimer...110 AOs, 92 MOs...aug-cc-pVTZ basis                                  
E(ROHF)=      -92.2184299754, E(NUC)=   18.9666027787,   14 ITERS
 $VEC
 1  1 4.00880454E-04 8.32052467E-04 6.06979934E-04-4.27142294E-03 0.00000000E+00
 1  2 0.00000000E+00 4.01464505E-04 0.00000000E+00 0.00000000E+00 1.15960048E-04
 1  3 0.00000000E+00 0.00000000E+00-2.52445536E-03 7.88455501E-05 7.88455501E-05
 1  4-1.57691100E-04 0.00000000E+00 0.00000000E+00 0.00000000E+00 4.27178219E-05
 1  5 4.27178219E-05-8.54356438E-05 0.00000000E+00 0.00000000E+00 0.00000000E+00
 1  6 0.00000000E+00 0.00000000E+00-5.01982415E-04 0.00000000E+00 3.36740041E-04
 1  7 0.00000000E+00 3.36740041E-04 0.00000000E+00 0.00000000E+00 0.00000000E+00
 1  8-3.29586153E-04 0.00000000E+00 0.00000000E+00 7.97371866E-06 2.60000865E-04
 1  9 2.60000865E-04-5.20001731E-04 0.00000000E+00 0.00000000E+00 0.00000000E+00
 1 10 0.00000000E+00 0.00000000E+00 2.18802889E-04 0.00000000E+00-1.46777440E-04
 1 11 0.00000000E+00-1.46777440E-04 0.00000000E+00 0.00000000E+00 0.00000000E+00
 1 12 9.76662872E-01-1.43833348E-03 4.18921755E-02 7.39004945E-03 0.00000000E+00
 1 13 0.00000000E+00-2.23578848E-03 0.00000000E+00 0.00000000E+00 1.01838299E-03
 1 14 0.00000000E+00 0.00000000E+00-1.48934756E-03-2.98205229E-04-2.98205229E-04
 1 15 5.96410459E-04 0.00000000E+00 0.00000000E+00 0.00000000E+00 1.92607417E-04
 1 16 1.92607417E-04-3.85214835E-04 0.00000000E+00 0.00000000E+00 0.00000000E+00
 1 17 0.00000000E+00 0.00000000E+00-1.32459759E-04 0.00000000E+00 8.88567075E-05
 1 18 0.00000000E+00 8.88567075E-05 0.00000000E+00 0.00000000E+00 0.00000000E+00
 1 19 3.68774038E-04 0.00000000E+00 0.00000000E+00 2.18342788E-06 1.02579306E-05
 1 20 1.02579306E-05-2.05158612E-05 0.00000000E+00 0.00000000E+00 0.00000000E+00
 1 21 0.00000000E+00 0.00000000E+00 3.25848347E-04 0.00000000E+00-2.18585716E-04
 1 22 0.00000000E+00-2.18585716E-04 0.00000000E+00 0.00000000E+00 0.00000000E+00
 2  1 9.77762944E-01-1.09096164E-03 4.03923884E-02 1.30796922E-02 0.00000000E+00
 2  2 0.00000000E+00-1.68466156E-03 0.00000000E+00 0.00000000E+00 3.75025331E-03
 2  3 0.00000000E+00 0.00000000E+00 6.04764567E-03-2.48395704E-04-2.48395704E-04
 2  4 4.96791407E-04 0.00000000E+00 0.00000000E+00 0.00000000E+00-1.04586669E-03
 2  5-1.04586669E-03 2.09173338E-03 0.00000000E+00 0.00000000E+00 0.00000000E+00
 2  6 0.00000000E+00 0.00000000E+00 5.10877026E-04 0.00000000E+00-3.42706727E-04
 2  7 0.00000000E+00-3.42706727E-04 0.00000000E+00 0.00000000E+00 0.00000000E+00
 2  8 3.15601608E-03 0.00000000E+00 0.00000000E+00 9.08386321E-04-7.67417143E-04
 2  9-7.67417143E-04 1.53483429E-03 0.00000000E+00 0.00000000E+00 0.00000000E+00
 2 10 0.00000000E+00 0.00000000E+00 5.08853813E-04 0.00000000E+00-3.41349515E-04
 2 11 0.00000000E+00-3.41349515E-04 0.00000000E+00 0.00000000E+00 0.00000000E+00
 2 12-1.18051437E-03-1.01532833E-03-2.63807710E-04-9.47819426E-03 0.00000000E+00
 2 13 0.00000000E+00-6.97399893E-06 0.00000000E+00 0.00000000E+00 1.14459148E-03
 2 14 0.00000000E+00 0.00000000E+00 1.87188207E-03 1.24603768E-05 1.24603768E-05
 2 15-2.49207537E-05 0.00000000E+00 0.00000000E+00 0.00000000E+00 1.78201591E-05
 2 16 1.78201591E-05-3.56403183E-05 0.00000000E+00 0.00000000E+00 0.00000000E+00
 2 17 0.00000000E+00 0.00000000E+00-4.10070983E-04 0.00000000E+00 2.75083978E-04
 2 18 0.00000000E+00 2.75083978E-04 0.00000000E+00 0.00000000E+00 0.00000000E+00
 2 19-5.53496583E-03 0.00000000E+00 0.00000000E+00 7.33957915E-04-2.80366748E-04
 2 20-2.80366748E-04 5.60733495E-04 0.00000000E+00 0.00000000E+00 0.00000000E+00
 2 21 0.00000000E+00 0.00000000E+00 1.16717930E-05 0.00000000E+00-7.82967676E-06
 2 22 0.00000000E+00-7.82967676E-06 0.00000000E+00 0.00000000E+00 0.00000000E+00
 3  1-1.70828758E-02 3.07267819E-01 7.12191954E-02 1.28957575E-01 0.00000000E+00
 3  2 0.00000000E+00 1.25862003E-01 0.00000000E+00 0.00000000E+00 1.24482424E-01
 3  3 0.00000000E+00 0.00000000E+00 1.28670644E-02-1.08635665E-02-1.08635665E-02
 3  4 2.17271331E-02 0.00000000E+00 0.00000000E+00 0.00000000E+00-2.85013621E-03
 3  5-2.85013621E-03 5.70027242E-03 0.00000000E+00 0.00000000E+00 0.00000000E+00
 3  6 0.00000000E+00 0.00000000E+00 7.85697448E-03 0.00000000E+00-5.27061871E-03
 3  7 0.00000000E+00-5.27061871E-03 0.00000000E+00 0.00000000E+00 0.00000000E+00
 3  8 3.21536018E-02 0.00000000E+00 0.00000000E+00 1.82425523E-05 5.76291858E-03
 3  9 5.76291858E-03-1.15258372E-02 0.00000000E+00 0.00000000E+00 0.00000000E+00
 3 10 0.00000000E+00 0.00000000E+00-9.03033307E-03 0.00000000E+00 6.05773158E-03
 3 11 0.00000000E+00 6.05773158E-03 0.00000000E+00 0.00000000E+00 0.00000000E+00
 3 12-1.19658430E-02 4.40954156E-01 1.11028492E-01 1.24552220E-01 0.00000000E+00
 3 13 0.00000000E+00-9.46471618E-02 0.00000000E+00 0.00000000E+00-1.03944203E-01
 3 14 0.00000000E+00 0.00000000E+00 5.02412880E-02-7.09164777E-03-7.09164777E-03
 3 15 1.41832955E-02 0.00000000E+00 0.00000000E+00 0.00000000E+00-5.89837892E-03
 3 16-5.89837892E-03 1.17967578E-02 0.00000000E+00 0.00000000E+00 0.00000000E+00
 3 17 0.00000000E+00 0.00000000E+00-4.34453303E-03 0.00000000E+00 2.91440135E-03
 3 18 0.00000000E+00 2.91440135E-03 0.00000000E+00 0.00000000E+00 0.00000000E+00
 3 19-6.56011423E-02 0.00000000E+00 0.00000000E+00 2.51882336E-02 1.19472605E-02
 3 20 1.19472605E-02-2.38945209E-02 0.00000000E+00 0.00000000E+00 0.00000000E+00
 3 21 0.00000000E+00 0.00000000E+00 1.51950957E-03 0.00000000E+00-1.01931801E-03
 3 22 0.00000000E+00-1.01931801E-03 0.00000000E+00 0.00000000E+00 0.00000000E+00
 4  1-2.90717935E-04-3.12214533E-01-7.48692902E-02-1.85692305E-01 0.00000000E+00
 4  2 0.00000000E+00-6.40896354E-02 0.00000000E+00 0.00000000E+00-6.43137413E-02
 4  3 0.00000000E+00 0.00000000E+00-2.62529086E-02 5.75953219E-03 5.75953219E-03
 4  4-1.15190644E-02 0.00000000E+00 0.00000000E+00 0.00000000E+00 5.09847106E-04
 4  5 5.09847106E-04-1.01969421E-03 0.00000000E+00 0.00000000E+00 0.00000000E+00
 4  6 0.00000000E+00 0.00000000E+00-5.91830023E-03 0.00000000E+00 3.97011649E-03
 4  7 0.00000000E+00 3.97011649E-03 0.00000000E+00 0.00000000E+00 0.00000000E+00
 4  8-2.41614030E-02 0.00000000E+00 0.00000000E+00-3.05354187E-03 5.10111869E-04
 4  9 5.10111869E-04-1.02022374E-03 0.00000000E+00 0.00000000E+00 0.00000000E+00
 4 10 0.00000000E+00 0.00000000E+00 5.82381738E-03 0.00000000E+00-3.90673546E-03
 4 11 0.00000000E+00-3.90673546E-03 0.00000000E+00 0.00000000E+00 0.00000000E+00
 4 12 6.43774605E-03 3.17280013E-01 8.53910997E-02 4.03430335E-01 0.00000000E+00
 4 13 0.00000000E+00 2.55292621E-01 0.00000000E+00 0.00000000E+00 3.06221654E-01
 4 14 0.00000000E+00 0.00000000E+00 1.35449199E-01 6.53771896E-03 6.53771896E-03
 4 15-1.30754379E-02 0.00000000E+00 0.00000000E+00 0.00000000E+00 5.79660680E-03
 4 16 5.79660680E-03-1.15932136E-02 0.00000000E+00 0.00000000E+00 0.00000000E+00
 4 17 0.00000000E+00 0.00000000E+00 2.11608191E-03 0.00000000E+00-1.41951090E-03
 4 18 0.00000000E+00-1.41951090E-03 0.00000000E+00 0.00000000E+00 0.00000000E+00
 4 19 7.76371956E-02 0.00000000E+00 0.00000000E+00-2.37617976E-03-1.48239481E-03
 4 20-1.48239481E-03 2.96478962E-03 0.00000000E+00 0.00000000E+00 0.00000000E+00
 4 21 0.00000000E+00 0.00000000E+00 7.78435773E-05 0.00000000E+00-5.22190591E-05
 4 22 0.00000000E+00-5.22190591E-05 0.00000000E+00 0.00000000E+00 0.00000000E+00
 5  1 0.00000000E+00 0.00000000E+00 0.00000000E+00 0.00000000E+00 0.00000000E+00
 5  2 2.17176487E-01 0.00000000E+00 0.00000000E+00 2.83851674E-01 0.00000000E+00
 5  3 0.00000000E+00 1.22407693E-01 0.00000000E+00 0.00000000E+00 0.00000000E+00
 5  4 0.00000000E+00 0.00000000E+00 0.00000000E+00 2.15386653E-02 0.00000000E+00
 5  5 0.00000000E+00 0.00000000E+00 0.00000000E+00 0.00000000E+00 2.42407377E-02
 5  6 0.00000000E+00-5.36710028E-03 0.00000000E+00-2.40024021E-03 0.00000000E+00
 5  7 0.00000000E+00 0.00000000E+00 0.00000000E+00 9.60096085E-03 0.00000000E+00
 5  8 0.00000000E+00 0.00000000E+00-1.76299336E-03 0.00000000E+00 0.00000000E+00
 5  9 0.00000000E+00 0.00000000E+00 0.00000000E+00 0.00000000E+00-7.05785341E-03
 5 10 0.00000000E+00 5.20302691E-04 0.00000000E+00 2.32686437E-04 0.00000000E+00
 5 11 0.00000000E+00 0.00000000E+00 0.00000000E+00-9.30745749E-04 0.00000000E+00
 5 12 0.00000000E+00 0.00000000E+00 0.00000000E+00 0.00000000E+00 0.00000000E+00
 5 13 2.39620214E-01 0.00000000E+00 0.00000000E+00 3.16577866E-01 0.00000000E+00
 5 14 0.00000000E+00 2.25664370E-01 0.00000000E+00 0.00000000E+00 0.00000000E+00
 5 15 0.00000000E+00 0.00000000E+00 0.00000000E+00-1.70205409E-02 0.00000000E+00
 5 16 0.00000000E+00 0.00000000E+00 0.00000000E+00 0.00000000E+00-3.50079596E-02
 5 17 0.00000000E+00-4.34469817E-03 0.00000000E+00-1.94300809E-03 0.00000000E+00
 5 18 0.00000000E+00 0.00000000E+00 0.00000000E+00 7.77203236E-03 0.00000000E+00
 5 19 0.00000000E+00 0.00000000E+00 2.27562666E-02 0.00000000E+00 0.00000000E+00
 5 20 0.00000000E+00 0.00000000E+00 0.00000000E+00 0.00000000E+00-1.97756672E-02
 5 21 0.00000000E+00-1.94715601E-03 0.00000000E+00-8.70794642E-04 0.00000000E+00
 5 22 0.00000000E+00 0.00000000E+00 0.00000000E+00 3.48317857E-03 0.00000000E+00
 6  1 0.00000000E+00 0.00000000E+00 0.00000000E+00 0.00000000E+00 2.17176487E-01
 6  2 0.00000000E+00 0.00000000E+00 2.83851674E-01 0.00000000E+00 0.00000000E+00
 6  3 1.22407693E-01 0.00000000E+00 0.00000000E+00 0.00000000E+00 0.00000000E+00
 6  4 0.00000000E+00 0.00000000E+00 2.15386653E-02 0.00000000E+00 0.00000000E+00
 6  5 0.00000000E+00 0.00000000E+00 0.00000000E+00 2.42407377E-02 0.00000000E+00
 6  6-5.36710028E-03 0.00000000E+00 0.00000000E+00 0.00000000E+00 0.00000000E+00
 6  7-2.40024021E-03 0.00000000E+00 9.60096085E-03 0.00000000E+00 0.00000000E+00
 6  8 0.00000000E+00-1.76299336E-03 0.00000000E+00 0.00000000E+00 0.00000000E+00
 6  9 0.00000000E+00 0.00000000E+00 0.00000000E+00-7.05785341E-03 0.00000000E+00
 6 10 5.20302691E-04 0.00000000E+00 0.00000000E+00 0.00000000E+00 0.00000000E+00
 6 11 2.32686437E-04 0.00000000E+00-9.30745749E-04 0.00000000E+00 0.00000000E+00
 6 12 0.00000000E+00 0.00000000E+00 0.00000000E+00 0.00000000E+00 2.39620214E-01
 6 13 0.00000000E+00 0.00000000E+00 3.16577866E-01 0.00000000E+00 0.00000000E+00
 6 14 2.25664370E-01 0.00000000E+00 0.00000000E+00 0.00000000E+00 0.00000000E+00
 6 15 0.00000000E+00 0.00000000E+00-1.70205409E-02 0.00000000E+00 0.00000000E+00
 6 16 0.00000000E+00 0.00000000E+00 0.00000000E+00-3.50079596E-02 0.00000000E+00
 6 17-4.34469817E-03 0.00000000E+00 0.00000000E+00 0.00000000E+00 0.00000000E+00
 6 18-1.94300809E-03 0.00000000E+00 7.77203236E-03 0.00000000E+00 0.00000000E+00
 6 19 0.00000000E+00 2.27562666E-02 0.00000000E+00 0.00000000E+00 0.00000000E+00
 6 20 0.00000000E+00 0.00000000E+00 0.00000000E+00-1.97756672E-02 0.00000000E+00
 6 21-1.94715601E-03 0.00000000E+00 0.00000000E+00 0.00000000E+00 0.00000000E+00
 6 22-8.70794642E-04 0.00000000E+00 3.48317857E-03 0.00000000E+00 0.00000000E+00
 7  1-1.02261849E-02-3.46134052E-01-8.49303861E-02-2.58057789E-01 0.00000000E+00
 7  2 0.00000000E+00 2.86929238E-01 0.00000000E+00 0.00000000E+00 3.90862264E-01
 7  3 0.00000000E+00 0.00000000E+00 1.25373604E-01-3.21535092E-04-3.21535092E-04
 7  4 6.43070183E-04 0.00000000E+00 0.00000000E+00 0.00000000E+00 1.00776882E-02
 7  5 1.00776882E-02-2.01553763E-02 0.00000000E+00 0.00000000E+00 0.00000000E+00
 7  6 0.00000000E+00 0.00000000E+00 1.01820760E-02 0.00000000E+00-6.83034420E-03
 7  7 0.00000000E+00-6.83034420E-03 0.00000000E+00 0.00000000E+00 0.00000000E+00
 7  8 2.72402399E-02 0.00000000E+00 0.00000000E+00-1.44212812E-03 8.16130093E-03
 7  9 8.16130093E-03-1.63226019E-02 0.00000000E+00 0.00000000E+00 0.00000000E+00
 7 10 0.00000000E+00 0.00000000E+00-4.87011375E-03 0.00000000E+00 3.26697162E-03
 7 11 0.00000000E+00 3.26697162E-03 0.00000000E+00 0.00000000E+00 0.00000000E+00
 7 12-2.79695922E-03 4.56528843E-02 1.27566610E-02-7.53254929E-02 0.00000000E+00
 7 13 0.00000000E+00-1.36400197E-01 0.00000000E+00 0.00000000E+00-1.52764747E-01
 7 14 0.00000000E+00 0.00000000E+00-3.40730312E-02-5.16804662E-03-5.16804662E-03
 7 15 1.03360932E-02 0.00000000E+00 0.00000000E+00 0.00000000E+00-2.98246992E-03
 7 16-2.98246992E-03 5.96493984E-03 0.00000000E+00 0.00000000E+00 0.00000000E+00
 7 17 0.00000000E+00 0.00000000E+00-3.91921484E-03 0.00000000E+00 2.62908924E-03
 7 18 0.00000000E+00 2.62908924E-03 0.00000000E+00 0.00000000E+00 0.00000000E+00
 7 19-7.70061093E-02 0.00000000E+00 0.00000000E+00 1.63885142E-02 8.67336568E-03
 7 20 8.67336568E-03-1.73467314E-02 0.00000000E+00 0.00000000E+00 0.00000000E+00
 7 21 0.00000000E+00 0.00000000E+00-8.42675056E-05 0.00000000E+00 5.65283612E-05
 7 22 0.00000000E+00 5.65283612E-05 0.00000000E+00 0.00000000E+00 0.00000000E+00
 8  1 3.82127597E-03-1.01864573E-01-4.97876392E-02 8.14556946E-01 0.00000000E+00
 8  2 0.00000000E+00 6.14735982E-02 0.00000000E+00 0.00000000E+00 1.30870149E-01
 8  3 0.00000000E+00 0.00000000E+00 9.59820661E-01 5.35064382E-03 5.35064382E-03
 8  4-1.07012876E-02 0.00000000E+00 0.00000000E+00 0.00000000E+00-4.42933476E-02
 8  5-4.42933476E-02 8.85866952E-02 0.00000000E+00 0.00000000E+00 0.00000000E+00
 8  6 0.00000000E+00 0.00000000E+00 4.60584769E-03 0.00000000E+00-3.08969656E-03
 8  7 0.00000000E+00-3.08969656E-03 0.00000000E+00 0.00000000E+00 0.00000000E+00
 8  8 3.37454583E+00 0.00000000E+00 0.00000000E+00-4.48847885E-01-5.68280312E-02
 8  9-5.68280312E-02 1.13656062E-01 0.00000000E+00 0.00000000E+00 0.00000000E+00
 8 10 0.00000000E+00 0.00000000E+00 2.33030517E-02 0.00000000E+00-1.56321623E-02
 8 11 0.00000000E+00-1.56321623E-02 0.00000000E+00 0.00000000E+00 0.00000000E+00
 8 12-4.23813506E-03-2.77639564E-02-1.16500345E-02-9.10620657E-01 0.00000000E+00
 8 13 0.00000000E+00-1.87095590E-02 0.00000000E+00 0.00000000E+00 1.19034523E-02
 8 14 0.00000000E+00 0.00000000E+00 3.11476423E-01 5.85803373E-04 5.85803373E-04
 8 15-1.17160675E-03 0.00000000E+00 0.00000000E+00 0.00000000E+00 1.74640812E-03
 8 16 1.74640812E-03-3.49281624E-03 0.00000000E+00 0.00000000E+00 0.00000000E+00
 8 17 0.00000000E+00 0.00000000E+00-8.66822007E-05 0.00000000E+00 5.81481879E-05
 8 18 0.00000000E+00 5.81481879E-05 0.00000000E+00 0.00000000E+00 0.00000000E+00
 8 19-2.62259019E+00 0.00000000E+00 0.00000000E+00 1.09964163E+00 2.39834576E-02
 8 20 2.39834576E-02-4.79669153E-02 0.00000000E+00 0.00000000E+00 0.00000000E+00
 8 21 0.00000000E+00 0.00000000E+00-6.55462650E-03 0.00000000E+00 4.39697712E-03
 8 22 0.00000000E+00 4.39697712E-03 0.00000000E+00 0.00000000E+00 0.00000000E+00
 9  1 0.00000000E+00 0.00000000E+00 0.00000000E+00 0.00000000E+00 0.00000000E+00
 9  2 5.92285564E-02 0.00000000E+00 0.00000000E+00 1.16870915E-01 0.00000000E+00
 9  3 0.00000000E+00 1.10512364E-01 0.00000000E+00 0.00000000E+00 0.00000000E+00
 9  4 0.00000000E+00 0.00000000E+00 0.00000000E+00-1.65967917E-02 0.00000000E+00
 9  5 0.00000000E+00 0.00000000E+00 0.00000000E+00 0.00000000E+00-7.27462208E-02
 9  6 0.00000000E+00 2.59832799E-03 0.00000000E+00 1.16200760E-03 0.00000000E+00
 9  7 0.00000000E+00 0.00000000E+00 0.00000000E+00-4.64803042E-03 0.00000000E+00
 9  8 0.00000000E+00 0.00000000E+00 1.64243774E+00 0.00000000E+00 0.00000000E+00
 9  9 0.00000000E+00 0.00000000E+00 0.00000000E+00 0.00000000E+00 5.03738380E-02
 9 10 0.00000000E+00 2.95809815E-04 0.00000000E+00 1.32290171E-04 0.00000000E+00
 9 11 0.00000000E+00 0.00000000E+00 0.00000000E+00-5.29160683E-04 0.00000000E+00
 9 12 0.00000000E+00 0.00000000E+00 0.00000000E+00 0.00000000E+00 0.00000000E+00
 9 13-1.13934756E-01 0.00000000E+00 0.00000000E+00-1.45509156E-01 0.00000000E+00
 9 14 0.00000000E+00-1.51950455E-01 0.00000000E+00 0.00000000E+00 0.00000000E+00
 9 15 0.00000000E+00 0.00000000E+00 0.00000000E+00 1.89476576E-03 0.00000000E+00
 9 16 0.00000000E+00 0.00000000E+00 0.00000000E+00 0.00000000E+00-2.21626502E-02
 9 17 0.00000000E+00-4.14552175E-04 0.00000000E+00-1.85393369E-04 0.00000000E+00
 9 18 0.00000000E+00 0.00000000E+00 0.00000000E+00 7.41573474E-04 0.00000000E+00
 9 19 0.00000000E+00 0.00000000E+00-9.98726796E-01 0.00000000E+00 0.00000000E+00
 9 20 0.00000000E+00 0.00000000E+00 0.00000000E+00 0.00000000E+00 4.23596114E-02
 9 21 0.00000000E+00-1.00837365E-03 0.00000000E+00-4.50958407E-04 0.00000000E+00
 9 22 0.00000000E+00 0.00000000E+00 0.00000000E+00 1.80383363E-03 0.00000000E+00
10  1 0.00000000E+00 0.00000000E+00 0.00000000E+00 0.00000000E+00 5.92285564E-02
10  2 0.00000000E+00 0.00000000E+00 1.16870915E-01 0.00000000E+00 0.00000000E+00
10  3 1.10512364E-01 0.00000000E+00 0.00000000E+00 0.00000000E+00 0.00000000E+00
10  4 0.00000000E+00 0.00000000E+00-1.65967917E-02 0.00000000E+00 0.00000000E+00
10  5 0.00000000E+00 0.00000000E+00 0.00000000E+00-7.27462208E-02 0.00000000E+00
10  6 2.59832799E-03 0.00000000E+00 0.00000000E+00 0.00000000E+00 0.00000000E+00
10  7 1.16200760E-03 0.00000000E+00-4.64803042E-03 0.00000000E+00 0.00000000E+00
10  8 0.00000000E+00 1.64243774E+00 0.00000000E+00 0.00000000E+00 0.00000000E+00
10  9 0.00000000E+00 0.00000000E+00 0.00000000E+00 5.03738380E-02 0.00000000E+00
10 10 2.95809815E-04 0.00000000E+00 0.00000000E+00 0.00000000E+00 0.00000000E+00
10 11 1.32290171E-04 0.00000000E+00-5.29160684E-04 0.00000000E+00 0.00000000E+00
10 12 0.00000000E+00 0.00000000E+00 0.00000000E+00 0.00000000E+00-1.13934756E-01
10 13 0.00000000E+00 0.00000000E+00-1.45509156E-01 0.00000000E+00 0.00000000E+00
10 14-1.51950455E-01 0.00000000E+00 0.00000000E+00 0.00000000E+00 0.00000000E+00
10 15 0.00000000E+00 0.00000000E+00 1.89476576E-03 0.00000000E+00 0.00000000E+00
10 16 0.00000000E+00 0.00000000E+00 0.00000000E+00-2.21626502E-02 0.00000000E+00
10 17-4.14552175E-04 0.00000000E+00 0.00000000E+00 0.00000000E+00 0.00000000E+00
10 18-1.85393369E-04 0.00000000E+00 7.41573474E-04 0.00000000E+00 0.00000000E+00
10 19 0.00000000E+00-9.98726796E-01 0.00000000E+00 0.00000000E+00 0.00000000E+00
10 20 0.00000000E+00 0.00000000E+00 0.00000000E+00 4.23596114E-02 0.00000000E+00
10 21-1.00837365E-03 0.00000000E+00 0.00000000E+00 0.00000000E+00 0.00000000E+00
10 22-4.50958408E-04 0.00000000E+00 1.80383363E-03 0.00000000E+00 0.00000000E+00
11  1-2.09736733E-02-5.10955114E-02-1.53209666E-02-2.49001125E+00 0.00000000E+00
11  2 0.00000000E+00 2.58451468E-03 0.00000000E+00 0.00000000E+00-1.90065115E-01
11  3 0.00000000E+00 0.00000000E+00-1.44479918E+00 6.84214794E-05 6.84214794E-05
11  4-1.36842959E-04 0.00000000E+00 0.00000000E+00 0.00000000E+00 4.24496402E-02
11  5 4.24496402E-02-8.48992803E-02 0.00000000E+00 0.00000000E+00 0.00000000E+00
11  6 0.00000000E+00 0.00000000E+00-3.58479561E-03 0.00000000E+00 2.40475400E-03
11  7 0.00000000E+00 2.40475400E-03 0.00000000E+00 0.00000000E+00 0.00000000E+00
11  8-5.87508648E+00 0.00000000E+00 0.00000000E+00-2.41611464E+00 1.81502751E-01
11  9 1.81502751E-01-3.63005501E-01 0.00000000E+00 0.00000000E+00 0.00000000E+00
11 10 0.00000000E+00 0.00000000E+00-2.28573865E-02 0.00000000E+00 1.53332010E-02
11 11 0.00000000E+00 1.53332010E-02 0.00000000E+00 0.00000000E+00 0.00000000E+00
11 12 4.18917123E-04 6.52804350E-02 1.34339741E-02 1.68260047E+00 0.00000000E+00
11 13 0.00000000E+00 1.79930577E-02 0.00000000E+00 0.00000000E+00-2.79861061E-02
11 14 0.00000000E+00 0.00000000E+00-8.54998900E-01 7.80376284E-04 7.80376284E-04
11 15-1.56075257E-03 0.00000000E+00 0.00000000E+00 0.00000000E+00-2.95407308E-02
11 16-2.95407308E-02 5.90814617E-02 0.00000000E+00 0.00000000E+00 0.00000000E+00
11 17 0.00000000E+00 0.00000000E+00-4.61402161E-03 0.00000000E+00 3.09517979E-03
11 18 0.00000000E+00 3.09517979E-03 0.00000000E+00 0.00000000E+00 0.00000000E+00
11 19 6.88711951E+00 0.00000000E+00 0.00000000E+00-1.09419266E+00-5.46785384E-02
11 20-5.46785384E-02 1.09357077E-01 0.00000000E+00 0.00000000E+00 0.00000000E+00
11 21 0.00000000E+00 0.00000000E+00-8.22019912E-03 0.00000000E+00 5.51427720E-03
11 22 0.00000000E+00 5.51427720E-03 0.00000000E+00 0.00000000E+00 0.00000000E+00
12  1 0.00000000E+00 0.00000000E+00 0.00000000E+00 0.00000000E+00 0.00000000E+00
12  2 1.97102928E-01 0.00000000E+00 0.00000000E+00 3.39924842E-01 0.00000000E+00
12  3 0.00000000E+00 1.11368712E+00 0.00000000E+00 0.00000000E+00 0.00000000E+00
12  4 0.00000000E+00 0.00000000E+00 0.00000000E+00-2.77289305E-02 0.00000000E+00
12  5 0.00000000E+00 0.00000000E+00 0.00000000E+00 0.00000000E+00 6.30615044E-02
12  6 0.00000000E+00-6.84242449E-03 0.00000000E+00-3.06002526E-03 0.00000000E+00
12  7 0.00000000E+00 0.00000000E+00 0.00000000E+00 1.22401010E-02 0.00000000E+00
12  8 0.00000000E+00 0.00000000E+00-3.15737135E-01 0.00000000E+00 0.00000000E+00
12  9 0.00000000E+00 0.00000000E+00 0.00000000E+00 0.00000000E+00 5.47580391E-02
12 10 0.00000000E+00-2.74202970E-02 0.00000000E+00-1.22627296E-02 0.00000000E+00
12 11 0.00000000E+00 0.00000000E+00 0.00000000E+00 4.90509185E-02 0.00000000E+00
12 12 0.00000000E+00 0.00000000E+00 0.00000000E+00 0.00000000E+00 0.00000000E+00
12 13-1.20298564E-01 0.00000000E+00 0.00000000E+00-1.96423256E-01 0.00000000E+00
12 14 0.00000000E+00-5.78018695E-01 0.00000000E+00 0.00000000E+00 0.00000000E+00
12 15 0.00000000E+00 0.00000000E+00 0.00000000E+00-9.69688501E-03 0.00000000E+00
12 16 0.00000000E+00 0.00000000E+00 0.00000000E+00 0.00000000E+00 2.99579016E-02
12 17 0.00000000E+00-2.05778328E-03 0.00000000E+00-9.20268660E-04 0.00000000E+00
12 18 0.00000000E+00 0.00000000E+00 0.00000000E+00 3.68107464E-03 0.00000000E+00
12 19 0.00000000E+00 0.00000000E+00-7.43352349E-01 0.00000000E+00 0.00000000E+00
12 20 0.00000000E+00 0.00000000E+00 0.00000000E+00 0.00000000E+00 2.18929535E-01
12 21 0.00000000E+00 2.44109875E-02 0.00000000E+00 1.09169255E-02 0.00000000E+00
12 22 0.00000000E+00 0.00000000E+00 0.00000000E+00-4.36677019E-02 0.00000000E+00
13  1 0.00000000E+00 0.00000000E+00 0.00000000E+00 0.00000000E+00 1.97102928E-01
13  2 0.00000000E+00 0.00000000E+00 3.39924842E-01 0.00000000E+00 0.00000000E+00
13  3 1.11368712E+00 0.00000000E+00 0.00000000E+00 0.00000000E+00 0.00000000E+00
13  4 0.00000000E+00 0.00000000E+00-2.77289305E-02 0.00000000E+00 0.00000000E+00
13  5 0.00000000E+00 0.00000000E+00 0.00000000E+00 6.30615044E-02 0.00000000E+00
13  6-6.84242449E-03 0.00000000E+00 0.00000000E+00 0.00000000E+00 0.00000000E+00
13  7-3.06002526E-03 0.00000000E+00 1.22401010E-02 0.00000000E+00 0.00000000E+00
13  8 0.00000000E+00-3.15737135E-01 0.00000000E+00 0.00000000E+00 0.00000000E+00
13  9 0.00000000E+00 0.00000000E+00 0.00000000E+00 5.47580391E-02 0.00000000E+00
13 10-2.74202970E-02 0.00000000E+00 0.00000000E+00 0.00000000E+00 0.00000000E+00
13 11-1.22627296E-02 0.00000000E+00 4.90509185E-02 0.00000000E+00 0.00000000E+00
13 12 0.00000000E+00 0.00000000E+00 0.00000000E+00 0.00000000E+00-1.20298564E-01
13 13 0.00000000E+00 0.00000000E+00-1.96423256E-01 0.00000000E+00 0.00000000E+00
13 14-5.78018695E-01 0.00000000E+00 0.00000000E+00 0.00000000E+00 0.00000000E+00
13 15 0.00000000E+00 0.00000000E+00-9.69688501E-03 0.00000000E+00 0.00000000E+00
13 16 0.00000000E+00 0.00000000E+00 0.00000000E+00 2.99579016E-02 0.00000000E+00
13 17-2.05778328E-03 0.00000000E+00 0.00000000E+00 0.00000000E+00 0.00000000E+00
13 18-9.20268660E-04 0.00000000E+00 3.68107464E-03 0.00000000E+00 0.00000000E+00
13 19 0.00000000E+00-7.43352349E-01 0.00000000E+00 0.00000000E+00 0.00000000E+00
13 20 0.00000000E+00 0.00000000E+00 0.00000000E+00 2.18929535E-01 0.00000000E+00
13 21 2.44109875E-02 0.00000000E+00 0.00000000E+00 0.00000000E+00 0.00000000E+00
13 22 1.09169255E-02 0.00000000E+00-4.36677019E-02 0.00000000E+00 0.00000000E+00
14  1 4.02332151E-02 1.66862093E-01 7.78474853E-02 1.83180718E+00 0.00000000E+00
14  2 0.00000000E+00-1.35593159E-02 0.00000000E+00 0.00000000E+00 4.85282567E-02
14  3 0.00000000E+00 0.00000000E+00-4.59206584E-01-5.07081955E-03-5.07081955E-03
14  4 1.01416391E-02 0.00000000E+00 0.00000000E+00 0.00000000E+00 1.55425080E-02
14  5 1.55425080E-02-3.10850160E-02 0.00000000E+00 0.00000000E+00 0.00000000E+00
14  6 0.00000000E+00 0.00000000E+00 1.35820199E-03 0.00000000E+00-9.11109594E-04
14  7 0.00000000E+00-9.11109594E-04 0.00000000E+00 0.00000000E+00 0.00000000E+00
14  8 4.26351971E-01 0.00000000E+00 0.00000000E+00-1.25479262E+00 2.36274311E-01
14  9 2.36274311E-01-4.72548621E-01 0.00000000E+00 0.00000000E+00 0.00000000E+00
14 10 0.00000000E+00 0.00000000E+00-5.17891994E-02 0.00000000E+00 3.47412511E-02
14 11 0.00000000E+00 3.47412511E-02 0.00000000E+00 0.00000000E+00 0.00000000E+00
14 12 2.49597957E-02 4.67447898E-02 1.52950384E-02 3.31851700E-01 0.00000000E+00
14 13 0.00000000E+00-2.86669002E-02 0.00000000E+00 0.00000000E+00-6.96993445E-02
14 14 0.00000000E+00 0.00000000E+00 4.50510408E-01-1.17779984E-03-1.17779984E-03
14 15 2.35559967E-03 0.00000000E+00 0.00000000E+00 0.00000000E+00-9.62491067E-03
14 16-9.62491067E-03 1.92498213E-02 0.00000000E+00 0.00000000E+00 0.00000000E+00
14 17 0.00000000E+00 0.00000000E+00-3.95277725E-03 0.00000000E+00 2.65160359E-03
14 18 0.00000000E+00 2.65160359E-03 0.00000000E+00 0.00000000E+00 0.00000000E+00
14 19-1.37592473E+00 0.00000000E+00 0.00000000E+00 2.76487010E+00 2.41984403E-01
14 20 2.41984403E-01-4.83968806E-01 0.00000000E+00 0.00000000E+00 0.00000000E+00
14 21 0.00000000E+00 0.00000000E+00 4.16408351E-02 0.00000000E+00-2.79335214E-02
14 22 0.00000000E+00-2.79335214E-02 0.00000000E+00 0.00000000E+00 0.00000000E+00
15  1 0.00000000E+00 0.00000000E+00 0.00000000E+00 0.00000000E+00 0.00000000E+00
15  2 9.23062835E-02 0.00000000E+00 0.00000000E+00-1.52455741E-02 0.00000000E+00
15  3 0.00000000E+00-1.23240887E+00 0.00000000E+00 0.00000000E+00 0.00000000E+00
15  4 0.00000000E+00 0.00000000E+00 0.00000000E+00-1.75624750E-02 0.00000000E+00
15  5 0.00000000E+00 0.00000000E+00 0.00000000E+00 0.00000000E+00-2.35177672E-01
15  6 0.00000000E+00-4.05304854E-04 0.00000000E+00-1.81257841E-04 0.00000000E+00
15  7 0.00000000E+00 0.00000000E+00 0.00000000E+00 7.25031364E-04 0.00000000E+00
15  8 0.00000000E+00 0.00000000E+00-2.14080293E+00 0.00000000E+00 0.00000000E+00
15  9 0.00000000E+00 0.00000000E+00 0.00000000E+00 0.00000000E+00-1.00262447E+00
15 10 0.00000000E+00 6.11420558E-02 0.00000000E+00 2.73435586E-02 0.00000000E+00
15 11 0.00000000E+00 0.00000000E+00 0.00000000E+00-1.09374234E-01 0.00000000E+00
15 12 0.00000000E+00 0.00000000E+00 0.00000000E+00 0.00000000E+00 0.00000000E+00
15 13-1.42712417E-01 0.00000000E+00 0.00000000E+00-1.63208165E-01 0.00000000E+00
15 14 0.00000000E+00 6.98217598E-01 0.00000000E+00 0.00000000E+00 0.00000000E+00
15 15 0.00000000E+00 0.00000000E+00 0.00000000E+00 2.35024578E-03 0.00000000E+00
15 16 0.00000000E+00 0.00000000E+00 0.00000000E+00 0.00000000E+00-4.84167699E-02
15 17 0.00000000E+00 3.58483504E-03 0.00000000E+00 1.60318697E-03 0.00000000E+00
15 18 0.00000000E+00 0.00000000E+00 0.00000000E+00-6.41274787E-03 0.00000000E+00
15 19 0.00000000E+00 0.00000000E+00 3.15175823E+00 0.00000000E+00 0.00000000E+00
15 20 0.00000000E+00 0.00000000E+00 0.00000000E+00 0.00000000E+00-6.85330971E-01
15 21 0.00000000E+00-4.93180617E-02 0.00000000E+00-2.20557077E-02 0.00000000E+00
15 22 0.00000000E+00 0.00000000E+00 0.00000000E+00 8.82228307E-02 0.00000000E+00
16  1 0.00000000E+00 0.00000000E+00 0.00000000E+00 0.00000000E+00 9.23062835E-02
16  2 0.00000000E+00 0.00000000E+00-1.52455741E-02 0.00000000E+00 0.00000000E+00
16  3-1.23240887E+00 0.00000000E+00 0.00000000E+00 0.00000000E+00 0.00000000E+00
16  4 0.00000000E+00 0.00000000E+00-1.75624750E-02 0.00000000E+00 0.00000000E+00
16  5 0.00000000E+00 0.00000000E+00 0.00000000E+00-2.35177672E-01 0.00000000E+00
16  6-4.05304854E-04 0.00000000E+00 0.00000000E+00 0.00000000E+00 0.00000000E+00
16  7-1.81257841E-04 0.00000000E+00 7.25031364E-04 0.00000000E+00 0.00000000E+00
16  8 0.00000000E+00-2.14080293E+00 0.00000000E+00 0.00000000E+00 0.00000000E+00