!   C2...MR-CI after full valence SA-MCSCF...generating MPQC's PT2 R-12 data
!   ACCD has 50 MOs, 46 MOs
!   The MCSCF has 1,252 determinants
!   the MR-CI is the same, instead of a genuine CI, to keep the test short.
!
!   The "surface scan" is set to do exactly two (2) points on the PES:
!      R=1.000: FINAL MCSCF ENERGY IS -75.2765098788 AFTER 9 ITERATIONS
!      R=1.125: FINAL MCSCF ENERGY IS -75.4635767952 AFTER 6 ITERATIONS
!   the values above are averages of energies for four physical states.
!
!   The real point of this test is the trio of files created
!   for each geometry:
!      one should look like coordinates/basis set/MO coefficients,
!      the others contain 1- and 2-particle density matrix values.
!   At the first geometry, the 3,3     DM1= 1.990406998
!   At the first geometry, the 3,1,3,1 DM2= 3.859687199
!
!   This run takes 102 seconds on 2.66 GHz Cloverton (7 Mar 2012)
!
 $contrl mult=1 scftyp=mcscf RUNTYP=surface ispher=1 $END
 $system parall=.t. memddi=10 mwords=25 $END

 $excorr pt2r12=.t. ncorr=8 $end

 $basis gbasis=accd $end
 $guess guess=moread norb=46 $end
!===============================================
! Carbon(d2h) x=0.00 y=0.00 z=0.6335369127
!  1-2          s,s'           2.000
!  3            sig            1.974
!  4-5          pi-px,pi-py    1.893
!  6            sig*           1.671               
!  7            sig-pz         0.325
!  8-9          pi*-px,pi*-py  1.893
!  10           sig*-pz        0.325
!
!  11-15        pi-dxy,        0.007
!               pi-dxz,        0.007
!               sig-dz2,       0.007
!               delta-dx2+dy2, 0.007
!               delta-dxy      0.007
!
!===============================================


!cisd
!$contrl cityp=ormas $end
!$cidet ncore=2 nact=44 nels=8 nstate=3 $end
!$ormas nspace=2 mstart(1)=3 11 mine(1)=6 0 maxe(1)=8 2 $end

!mcscf
 $mcscf cistep=aldet fullnr=.t. $end
 $det ncore=2 nact=8 nels=8 nstate=10
      stsym=ag nhgss=2500
      wstate(1)=1 1 1 1 $end

!mrci
 $contrl cityp=ormas $end
 $cidet  ncore=2 nact=8 nels=8 nstate=1 $end
!$ormas nspace=2 mstart(1)=3 11 mine(1)=6 0 maxe(1)=8 2 $end
 $cidet itermx=1000 mxxpan=20 nstgss=8 stsym=ag nhgss=1000 $end

!surface
 $surf scftp1=mcscf cityp1=ormas 
   ivec1(1)=1,2 igrp1=2 orig1=0.00 disp1=0.125 ndisp1=2 $end

 $data
c2_sing_d2h-ag.accd.mc_8-8.mrci_surf.inp
cnh 2

C           6.0   0.0000000000   0.0000000000   1.0000000000/2
 $end
!cisd natural orbtials: Carbon(d2h) x=0.00 y=0.00 z=0.6335369127
 $VEC   
 1  1 7.07971558E-01 1.58668386E-03-2.25127421E-03 0.00000000E+00 0.00000000E+00
 1  2 4.48271144E-04 0.00000000E+00 0.00000000E+00-1.21572794E-03-6.83522668E-05
 1  3-6.83522668E-05 1.36704534E-04 0.00000000E+00 0.00000000E+00 0.00000000E+00
 1  4 3.48269734E-04 0.00000000E+00 0.00000000E+00-3.87332109E-04 6.49454301E-04
 1  5 6.49454301E-04-1.29890860E-03 0.00000000E+00 0.00000000E+00 0.00000000E+00
 1  6 7.07971558E-01 1.58668386E-03-2.25127421E-03 0.00000000E+00 0.00000000E+00
 1  7-4.48271144E-04 0.00000000E+00 0.00000000E+00 1.21572794E-03-6.83522668E-05
 1  8-6.83522668E-05 1.36704534E-04 0.00000000E+00 0.00000000E+00 0.00000000E+00
 1  9 3.48269735E-04 0.00000000E+00 0.00000000E+00 3.87332109E-04 6.49454301E-04
 1 10 6.49454301E-04-1.29890860E-03 0.00000000E+00 0.00000000E+00 0.00000000E+00
 2  1 7.09541902E-01 3.49118909E-03-3.97987436E-02 0.00000000E+00 0.00000000E+00
 2  2 4.24124119E-04 0.00000000E+00 0.00000000E+00-1.89615040E-02-2.37805063E-05
 2  3-2.37805063E-05 4.75610125E-05 0.00000000E+00 0.00000000E+00 0.00000000E+00
 2  4-1.29886779E-02 0.00000000E+00 0.00000000E+00-2.48735220E-03 2.00650760E-03
 2  5 2.00650760E-03-4.01301519E-03 0.00000000E+00 0.00000000E+00 0.00000000E+00
 2  6-7.09541902E-01-3.49118909E-03 3.97987436E-02 0.00000000E+00 0.00000000E+00
 2  7 4.24124119E-04 0.00000000E+00 0.00000000E+00-1.89615040E-02 2.37805063E-05
 2  8 2.37805062E-05-4.75610125E-05 0.00000000E+00 0.00000000E+00 0.00000000E+00
 2  9 1.29886779E-02 0.00000000E+00 0.00000000E+00-2.48735220E-03-2.00650760E-03
 2 10-2.00650760E-03 4.01301519E-03 0.00000000E+00 0.00000000E+00 0.00000000E+00
 3  1-1.06087331E-02 3.36850054E-01 2.12138362E-01 0.00000000E+00 0.00000000E+00
 3  2 2.02934499E-01 0.00000000E+00 0.00000000E+00 2.50604823E-02-1.02987698E-02
 3  3-1.02987699E-02 2.05975397E-02 0.00000000E+00 0.00000000E+00 0.00000000E+00
 3  4-1.04261837E-02 0.00000000E+00 0.00000000E+00-6.17234204E-03 3.99898906E-03
 3  5 3.99898905E-03-7.99797811E-03 0.00000000E+00 0.00000000E+00 0.00000000E+00
 3  6-1.06087331E-02 3.36850054E-01 2.12138362E-01 0.00000000E+00 0.00000000E+00
 3  7-2.02934499E-01 0.00000000E+00 0.00000000E+00-2.50604823E-02-1.02987698E-02
 3  8-1.02987699E-02 2.05975397E-02 0.00000000E+00 0.00000000E+00 0.00000000E+00
 3  9-1.04261837E-02 0.00000000E+00 0.00000000E+00 6.17234204E-03 3.99898906E-03
 3 10 3.99898905E-03-7.99797811E-03 0.00000000E+00 0.00000000E+00 0.00000000E+00
 4  1 0.00000000E+00 0.00000000E+00 0.00000000E+00 0.00000000E+00 4.37027668E-01
 4  2 0.00000000E+00 0.00000000E+00 2.36690710E-01 0.00000000E+00 0.00000000E+00
 4  3 0.00000000E+00 0.00000000E+00 0.00000000E+00 0.00000000E+00 2.82145736E-02
 4  4 0.00000000E+00 0.00000000E+00 1.32574048E-02 0.00000000E+00 0.00000000E+00
 4  5 0.00000000E+00 0.00000000E+00 0.00000000E+00 0.00000000E+00 1.81669376E-03
 4  6 0.00000000E+00 0.00000000E+00 0.00000000E+00 0.00000000E+00 4.37027668E-01
 4  7 0.00000000E+00 0.00000000E+00 2.36690710E-01 0.00000000E+00 0.00000000E+00
 4  8 0.00000000E+00 0.00000000E+00 0.00000000E+00 0.00000000E+00-2.82145736E-02
 4  9 0.00000000E+00 0.00000000E+00 1.32574048E-02 0.00000000E+00 0.00000000E+00
 4 10 0.00000000E+00 0.00000000E+00 0.00000000E+00 0.00000000E+00-1.81669376E-03
 5  1 0.00000000E+00 0.00000000E+00 0.00000000E+00 4.37027667E-01 0.00000000E+00
 5  2 0.00000000E+00 2.36690710E-01 0.00000000E+00 0.00000000E+00 0.00000000E+00
 5  3 0.00000000E+00 0.00000000E+00 0.00000000E+00 2.82145735E-02 0.00000000E+00
 5  4 0.00000000E+00 1.32574048E-02 0.00000000E+00 0.00000000E+00 0.00000000E+00
 5  5 0.00000000E+00 0.00000000E+00 0.00000000E+00 1.81669410E-03 0.00000000E+00
 5  6 0.00000000E+00 0.00000000E+00 0.00000000E+00 4.37027667E-01 0.00000000E+00
 5  7 0.00000000E+00 2.36690710E-01 0.00000000E+00 0.00000000E+00 0.00000000E+00
 5  8 0.00000000E+00 0.00000000E+00 0.00000000E+00-2.82145735E-02 0.00000000E+00
 5  9 0.00000000E+00 1.32574048E-02 0.00000000E+00 0.00000000E+00 0.00000000E+00
 5 10 0.00000000E+00 0.00000000E+00 0.00000000E+00-1.81669410E-03 0.00000000E+00
 6  1 2.22622783E-03 3.21118238E-01 6.23084527E-01 0.00000000E+00 0.00000000E+00
 6  2-2.17057671E-01 0.00000000E+00 0.00000000E+00 5.18374360E-03-1.65915575E-03
 6  3-1.65915577E-03 3.31831152E-03 0.00000000E+00 0.00000000E+00 0.00000000E+00
 6  4 1.13462216E-01 0.00000000E+00 0.00000000E+00 9.28310462E-03-1.35532230E-02
 6  5-1.35532231E-02 2.71064461E-02 0.00000000E+00 0.00000000E+00 0.00000000E+00
 6  6-2.22622783E-03-3.21118238E-01-6.23084527E-01 0.00000000E+00 0.00000000E+00
 6  7-2.17057671E-01 0.00000000E+00 0.00000000E+00 5.18374360E-03 1.65915575E-03
 6  8 1.65915577E-03-3.31831152E-03 0.00000000E+00 0.00000000E+00 0.00000000E+00
 6  9-1.13462216E-01 0.00000000E+00 0.00000000E+00 9.28310462E-03 1.35532230E-02
 6 10 1.35532231E-02-2.71064461E-02 0.00000000E+00 0.00000000E+00 0.00000000E+00
 7  1-2.39364040E-02-1.65008928E-01-2.26423794E-01 0.00000000E+00 0.00000000E+00
 7  2 4.80831665E-01 0.00000000E+00 0.00000000E+00 1.92785664E-01-1.72771414E-03
 7  3-1.72771407E-03 3.45542821E-03 0.00000000E+00 0.00000000E+00 0.00000000E+00
 7  4-3.04460372E-02 0.00000000E+00 0.00000000E+00 1.00010862E-02 3.59389438E-03
 7  5 3.59389435E-03-7.18778874E-03 0.00000000E+00 0.00000000E+00 0.00000000E+00
 7  6-2.39364040E-02-1.65008928E-01-2.26423794E-01 0.00000000E+00 0.00000000E+00
 7  7-4.80831665E-01 0.00000000E+00 0.00000000E+00-1.92785664E-01-1.72771414E-03
 7  8-1.72771407E-03 3.45542821E-03 0.00000000E+00 0.00000000E+00 0.00000000E+00
 7  9-3.04460372E-02 0.00000000E+00 0.00000000E+00-1.00010862E-02 3.59389438E-03
 7 10 3.59389435E-03-7.18778874E-03 0.00000000E+00 0.00000000E+00 0.00000000E+00
 8  1 0.00000000E+00 0.00000000E+00 0.00000000E+00 6.07861939E-01 0.00000000E+00
 8  2 0.00000000E+00 3.62629797E-01 0.00000000E+00 0.00000000E+00 0.00000000E+00
 8  3 0.00000000E+00 0.00000000E+00 0.00000000E+00-6.32786397E-02 0.00000000E+00
 8  4 0.00000000E+00 1.41423449E-01 0.00000000E+00 0.00000000E+00 0.00000000E+00
 8  5 0.00000000E+00 0.00000000E+00 0.00000000E+00 3.57672577E-02 0.00000000E+00
 8  6 0.00000000E+00 0.00000000E+00 0.00000000E+00-6.07861939E-01 0.00000000E+00
 8  7 0.00000000E+00-3.62629797E-01 0.00000000E+00 0.00000000E+00 0.00000000E+00
 8  8 0.00000000E+00 0.00000000E+00 0.00000000E+00-6.32786397E-02 0.00000000E+00
 8  9 0.00000000E+00-1.41423449E-01 0.00000000E+00 0.00000000E+00 0.00000000E+00
 8 10 0.00000000E+00 0.00000000E+00 0.00000000E+00 3.57672577E-02 0.00000000E+00
 9  1 0.00000000E+00 0.00000000E+00 0.00000000E+00 0.00000000E+00 6.07861938E-01
 9  2 0.00000000E+00 0.00000000E+00 3.62629790E-01 0.00000000E+00 0.00000000E+00
 9  3 0.00000000E+00 0.00000000E+00 0.00000000E+00 0.00000000E+00-6.32786413E-02
 9  4 0.00000000E+00 0.00000000E+00 1.41423458E-01 0.00000000E+00 0.00000000E+00
 9  5 0.00000000E+00 0.00000000E+00 0.00000000E+00 0.00000000E+00 3.57672549E-02
 9  6 0.00000000E+00 0.00000000E+00 0.00000000E+00 0.00000000E+00-6.07861938E-01
 9  7 0.00000000E+00 0.00000000E+00-3.62629790E-01 0.00000000E+00 0.00000000E+00
 9  8 0.00000000E+00 0.00000000E+00 0.00000000E+00 0.00000000E+00-6.32786413E-02
 9  9 0.00000000E+00 0.00000000E+00-1.41423458E-01 0.00000000E+00 0.00000000E+00
 9 10 0.00000000E+00 0.00000000E+00 0.00000000E+00 0.00000000E+00 3.57672549E-02
10  1 2.53581938E-01 7.82935898E-01 9.63115280E-03 0.00000000E+00 0.00000000E+00
10  2 6.36364336E-01 0.00000000E+00 0.00000000E+00 2.74208533E-01 6.32999838E-02
10  3 6.32999845E-02-1.26599968E-01 0.00000000E+00 0.00000000E+00 0.00000000E+00
10  4 2.01701289E-01 0.00000000E+00 0.00000000E+00 6.94816711E-02 3.56319897E-03
10  5 3.56319932E-03-7.12639830E-03 0.00000000E+00 0.00000000E+00 0.00000000E+00
10  6-2.53581938E-01-7.82935898E-01-9.63115280E-03 0.00000000E+00 0.00000000E+00
10  7 6.36364336E-01 0.00000000E+00 0.00000000E+00 2.74208533E-01-6.32999838E-02
10  8-6.32999845E-02 1.26599968E-01 0.00000000E+00 0.00000000E+00 0.00000000E+00
10  9-2.01701289E-01 0.00000000E+00 0.00000000E+00 6.94816711E-02-3.56319897E-03
10 10-3.56319932E-03 7.12639830E-03 0.00000000E+00 0.00000000E+00 0.00000000E+00
11  1 0.00000000E+00 0.00000000E+00 0.00000000E+00 0.00000000E+00-4.53776825E-01
11  2 0.00000000E+00 0.00000000E+00 4.92166951E-01 0.00000000E+00 0.00000000E+00
11  3 0.00000000E+00 0.00000000E+00 0.00000000E+00 0.00000000E+00-3.40237127E-01
11  4 0.00000000E+00 0.00000000E+00 4.07679886E-02 0.00000000E+00 0.00000000E+00
11  5 0.00000000E+00 0.00000000E+00 0.00000000E+00 0.00000000E+00 3.12490160E-02
11  6 0.00000000E+00 0.00000000E+00 0.00000000E+00 0.00000000E+00-4.53776825E-01
11  7 0.00000000E+00 0.00000000E+00 4.92166951E-01 0.00000000E+00 0.00000000E+00
11  8 0.00000000E+00 0.00000000E+00 0.00000000E+00 0.00000000E+00 3.40237127E-01
11  9 0.00000000E+00 0.00000000E+00 4.07679886E-02 0.00000000E+00 0.00000000E+00
11 10 0.00000000E+00 0.00000000E+00 0.00000000E+00 0.00000000E+00-3.12490160E-02
12  1 0.00000000E+00 0.00000000E+00 0.00000000E+00-4.53776818E-01 0.00000000E+00
12  2 0.00000000E+00 4.92166949E-01 0.00000000E+00 0.00000000E+00 0.00000000E+00
12  3 0.00000000E+00 0.00000000E+00 0.00000000E+00-3.40237132E-01 0.00000000E+00
12  4 0.00000000E+00 4.07679873E-02 0.00000000E+00 0.00000000E+00 0.00000000E+00
12  5 0.00000000E+00 0.00000000E+00 0.00000000E+00 3.12490097E-02 0.00000000E+00
12  6 0.00000000E+00 0.00000000E+00 0.00000000E+00-4.53776818E-01 0.00000000E+00
12  7 0.00000000E+00 4.92166949E-01 0.00000000E+00 0.00000000E+00 0.00000000E+00
12  8 0.00000000E+00 0.00000000E+00 0.00000000E+00 3.40237132E-01 0.00000000E+00
12  9 0.00000000E+00 4.07679873E-02 0.00000000E+00 0.00000000E+00 0.00000000E+00
12 10 0.00000000E+00 0.00000000E+00 0.00000000E+00-3.12490097E-02 0.00000000E+00
13  1 2.67994808E-01 6.78080549E-01-4.30377876E-01 0.00000000E+00 0.00000000E+00
13  2 4.65391202E-02 0.00000000E+00 0.00000000E+00-4.05238132E-01-1.76200825E-01
13  3-1.76201343E-01 3.52402167E-01 0.00000000E+00 0.00000000E+00 0.00000000E+00
13  4-9.00108420E-02 0.00000000E+00 0.00000000E+00-2.75844078E-02 3.61126764E-02
13  5 3.61124898E-02-7.22251662E-02 0.00000000E+00 0.00000000E+00 0.00000000E+00
13  6 2.67994808E-01 6.78080549E-01-4.30377876E-01 0.00000000E+00 0.00000000E+00
13  7-4.65391202E-02 0.00000000E+00 0.00000000E+00 4.05238132E-01-1.76200825E-01
13  8-1.76201343E-01 3.52402167E-01 0.00000000E+00 0.00000000E+00 0.00000000E+00
13  9-9.00108420E-02 0.00000000E+00 0.00000000E+00 2.75844078E-02 3.61126764E-02
13 10 3.61124898E-02-7.22251662E-02 0.00000000E+00 0.00000000E+00 0.00000000E+00
14  1-1.64793074E-07-4.15968038E-07 2.49447955E-07 0.00000000E+00 0.00000000E+00
14  2-2.08955874E-08 0.00000000E+00 0.00000000E+00 2.41371562E-07 4.41402186E-01
14  3-4.41401979E-01-2.06492998E-07 0.00000000E+00 0.00000000E+00 0.00000000E+00
14  4 6.93237170E-08 0.00000000E+00 0.00000000E+00 1.51871321E-08 1.51904310E-01
14  5-1.51904365E-01 5.49254602E-08 0.00000000E+00 0.00000000E+00 0.00000000E+00
14  6-1.64793074E-07-4.15968038E-07 2.49447955E-07 0.00000000E+00 0.00000000E+00
14  7 2.08955874E-08 0.00000000E+00 0.00000000E+00-2.41371562E-07 4.41402186E-01
14  8-4.41401979E-01-2.06492998E-07 0.00000000E+00 0.00000000E+00 0.00000000E+00
14  9 6.93237170E-08 0.00000000E+00 0.00000000E+00-1.51871321E-08 1.51904310E-01
14 10-1.51904365E-01 5.49254602E-08 0.00000000E+00 0.00000000E+00 0.00000000E+00
15  1 0.00000000E+00 0.00000000E+00 0.00000000E+00 0.00000000E+00 0.00000000E+00
15  2 0.00000000E+00 0.00000000E+00 0.00000000E+00 0.00000000E+00 0.00000000E+00
15  3 0.00000000E+00 0.00000000E+00 5.09687221E-01 0.00000000E+00 0.00000000E+00
15  4 0.00000000E+00 0.00000000E+00 0.00000000E+00 0.00000000E+00 0.00000000E+00
15  5 0.00000000E+00 0.00000000E+00 1.75404022E-01 0.00000000E+00 0.00000000E+00
15  6 0.00000000E+00 0.00000000E+00 0.00000000E+00 0.00000000E+00 0.00000000E+00
15  7 0.00000000E+00 0.00000000E+00 0.00000000E+00 0.00000000E+00 0.00000000E+00
15  8 0.00000000E+00 0.00000000E+00 5.09687221E-01 0.00000000E+00 0.00000000E+00
15  9 0.00000000E+00 0.00000000E+00 0.00000000E+00 0.00000000E+00 0.00000000E+00
15 10 0.00000000E+00 0.00000000E+00 1.75404022E-01 0.00000000E+00 0.00000000E+00
16  1 3.26155641E-01 7.57123007E-01-5.90795429E-01 0.00000000E+00 0.00000000E+00
16  2-2.96636896E-01 0.00000000E+00 0.00000000E+00 3.91895383E-01 1.61643313E-01
16  3 1.61643279E-01-3.23286592E-01 0.00000000E+00 0.00000000E+00 0.00000000E+00
16  4-1.86508132E-01 0.00000000E+00 0.00000000E+00 1.48360199E-01 1.86286788E-03
16  5 1.86287518E-03-3.72574305E-03 0.00000000E+00 0.00000000E+00 0.00000000E+00
16  6 3.26155641E-01 7.57123007E-01-5.90795429E-01 0.00000000E+00 0.00000000E+00
16  7 2.96636896E-01 0.00000000E+00 0.00000000E+00-3.91895383E-01 1.61643313E-01
16  8 1.61643279E-01-3.23286592E-01 0.00000000E+00 0.00000000E+00 0.00000000E+00
16  9-1.86508132E-01 0.00000000E+00 0.00000000E+00-1.48360199E-01 1.86286788E-03
16 10 1.86287518E-03-3.72574305E-03 0.00000000E+00 0.00000000E+00 0.00000000E+00
17  1-3.13485275E-01-7.18832741E-01 1.87968210E+00 0.00000000E+00 0.00000000E+00
17  2 6.52222715E-01 0.00000000E+00 0.00000000E+00 2.22537379E-01 1.29023704E-02
17  3 1.29023791E-02-2.58047495E-02 0.00000000E+00 0.00000000E+00 0.00000000E+00
17  4 2.94298418E-01 0.00000000E+00 0.00000000E+00-3.55848052E-02-3.57028713E-02
17  5-3.57028762E-02 7.14057475E-02 0.00000000E+00 0.00000000E+00 0.00000000E+00
17  6 3.13485275E-01 7.18832741E-01-1.87968210E+00 0.00000000E+00 0.00000000E+00
17  7 6.52222715E-01 0.00000000E+00 0.00000000E+00 2.22537379E-01-1.29023704E-02
17  8-1.29023791E-02 2.58047495E-02 0.00000000E+00 0.00000000E+00 0.00000000E+00
17  9-2.94298418E-01 0.00000000E+00 0.00000000E+00-3.55848052E-02 3.57028713E-02
17 10 3.57028762E-02-7.14057475E-02 0.00000000E+00 0.00000000E+00 0.00000000E+00
18  1 0.00000000E+00 0.00000000E+00 0.00000000E+00 0.00000000E+00 5.31182107E-01
18  2 0.00000000E+00 0.00000000E+00-3.07331445E-01 0.00000000E+00 0.00000000E+00
18  3 0.00000000E+00 0.00000000E+00 0.00000000E+00 0.00000000E+00-4.78267061E-01
18  4 0.00000000E+00 0.00000000E+00 7.53428121E-03 0.00000000E+00 0.00000000E+00
18  5 0.00000000E+00 0.00000000E+00 0.00000000E+00 0.00000000E+00-8.18036292E-02
18  6 0.00000000E+00 0.00000000E+00 0.00000000E+00 0.00000000E+00 5.31182107E-01
18  7 0.00000000E+00 0.00000000E+00-3.07331445E-01 0.00000000E+00 0.00000000E+00
18  8 0.00000000E+00 0.00000000E+00 0.00000000E+00 0.00000000E+00 4.78267061E-01
18  9 0.00000000E+00 0.00000000E+00 7.53428121E-03 0.00000000E+00 0.00000000E+00
18 10 0.00000000E+00 0.00000000E+00 0.00000000E+00 0.00000000E+00 8.18036292E-02
19  1 0.00000000E+00 0.00000000E+00 0.00000000E+00 5.31182115E-01 0.00000000E+00
19  2 0.00000000E+00-3.07331454E-01 0.00000000E+00 0.00000000E+00 0.00000000E+00
19  3 0.00000000E+00 0.00000000E+00 0.00000000E+00-4.78267057E-01 0.00000000E+00
19  4 0.00000000E+00 7.53428270E-03 0.00000000E+00 0.00000000E+00 0.00000000E+00
19  5 0.00000000E+00 0.00000000E+00 0.00000000E+00-8.18036270E-02 0.00000000E+00
19  6 0.00000000E+00 0.00000000E+00 0.00000000E+00 5.31182115E-01 0.00000000E+00
19  7 0.00000000E+00-3.07331454E-01 0.00000000E+00 0.00000000E+00 0.00000000E+00
19  8 0.00000000E+00 0.00000000E+00 0.00000000E+00 4.78267057E-01 0.00000000E+00
19  9 0.00000000E+00 7.53428270E-03 0.00000000E+00 0.00000000E+00 0.00000000E+00
19 10 0.00000000E+00 0.00000000E+00 0.00000000E+00 8.18036270E-02 0.00000000E+00
20  1 0.00000000E+00 0.00000000E+00 0.00000000E+00 0.00000000E+00-6.23017484E-01
20  2 0.00000000E+00 0.00000000E+00 8.26914247E-01 0.00000000E+00 0.00000000E+00
20  3 0.00000000E+00 0.00000000E+00 0.00000000E+00 0.00000000E+00-4.81281430E-01
20  4 0.00000000E+00 0.00000000E+00 8.59103273E-01 0.00000000E+00 0.00000000E+00
20  5 0.00000000E+00 0.00000000E+00 0.00000000E+00 0.00000000E+00 1.28929641E-01
20  6 0.00000000E+00 0.00000000E+00 0.00000000E+00 0.00000000E+00 6.23017484E-01
20  7 0.00000000E+00 0.00000000E+00-8.26914247E-01 0.00000000E+00 0.00000000E+00
20  8 0.00000000E+00 0.00000000E+00 0.00000000E+00 0.00000000E+00-4.81281430E-01
20  9 0.00000000E+00 0.00000000E+00-8.59103273E-01 0.00000000E+00 0.00000000E+00
20 10 0.00000000E+00 0.00000000E+00 0.00000000E+00 0.00000000E+00 1.28929641E-01
21  1 0.00000000E+00 0.00000000E+00 0.00000000E+00-6.23017475E-01 0.00000000E+00
21  2 0.00000000E+00 8.26914313E-01 0.00000000E+00 0.00000000E+00 0.00000000E+00
21  3 0.00000000E+00 0.00000000E+00 0.00000000E+00-4.81281404E-01 0.00000000E+00
21  4 0.00000000E+00 8.59103366E-01 0.00000000E+00 0.00000000E+00 0.00000000E+00
21  5 0.00000000E+00 0.00000000E+00 0.00000000E+00 1.28929687E-01 0.00000000E+00
21  6 0.00000000E+00 0.00000000E+00 0.00000000E+00 6.23017475E-01 0.00000000E+00
21  7 0.00000000E+00-8.26914313E-01 0.00000000E+00 0.00000000E+00 0.00000000E+00
21  8 0.00000000E+00 0.00000000E+00 0.00000000E+00-4.81281404E-01 0.00000000E+00
21  9 0.00000000E+00-8.59103366E-01 0.00000000E+00 0.00000000E+00 0.00000000E+00
21 10 0.00000000E+00 0.00000000E+00 0.00000000E+00 1.28929687E-01 0.00000000E+00
22  1-1.89843530E-09-4.29765475E-09 1.30285596E-09 0.00000000E+00 0.00000000E+00
22  2 2.90424383E-10 0.00000000E+00 0.00000000E+00 1.28570034E-09 6.70595980E-01
22  3-6.70595978E-01-1.96034541E-09 0.00000000E+00 0.00000000E+00 0.00000000E+00
22  4-7.64734254E-10 0.00000000E+00 0.00000000E+00-3.46096480E-09 5.18915023E-02
22  5-5.18914993E-02-2.97098355E-09 0.00000000E+00 0.00000000E+00 0.00000000E+00
22  6 1.89843530E-09 4.29765475E-09-1.30285596E-09 0.00000000E+00 0.00000000E+00
22  7 2.90424383E-10 0.00000000E+00 0.00000000E+00 1.28570034E-09-6.70595980E-01
22  8 6.70595978E-01 1.96034541E-09 0.00000000E+00 0.00000000E+00 0.00000000E+00
22  9 7.64734254E-10 0.00000000E+00 0.00000000E+00-3.46096480E-09-5.18915023E-02
22 10 5.18914993E-02 2.97098355E-09 0.00000000E+00 0.00000000E+00 0.00000000E+00
23  1 0.00000000E+00 0.00000000E+00 0.00000000E+00 0.00000000E+00 0.00000000E+00
23  2 0.00000000E+00 0.00000000E+00 0.00000000E+00 0.00000000E+00 0.00000000E+00
23  3 0.00000000E+00 0.00000000E+00 7.74337537E-01 0.00000000E+00 0.00000000E+00
23  4 0.00000000E+00 0.00000000E+00 0.00000000E+00 0.00000000E+00 0.00000000E+00
23  5 0.00000000E+00 0.00000000E+00 5.99191471E-02 0.00000000E+00 0.00000000E+00
23  6 0.00000000E+00 0.00000000E+00 0.00000000E+00 0.00000000E+00 0.00000000E+00
23  7 0.00000000E+00 0.00000000E+00 0.00000000E+00 0.00000000E+00 0.00000000E+00
23  8 0.00000000E+00 0.00000000E+00-7.74337537E-01 0.00000000E+00 0.00000000E+00
23  9 0.00000000E+00 0.00000000E+00 0.00000000E+00 0.00000000E+00 0.00000000E+00
23 10 0.00000000E+00 0.00000000E+00-5.99191471E-02 0.00000000E+00 0.00000000E+00
24  1 0.00000000E+00 0.00000000E+00 0.00000000E+00 2.86745410E-01 0.00000000E+00
24  2 0.00000000E+00-3.98191879E-01 0.00000000E+00 0.00000000E+00 0.00000000E+00
24  3 0.00000000E+00 0.00000000E+00 0.00000000E+00 6.38907184E-01 0.00000000E+00
24  4 0.00000000E+00 1.95306362E+00 0.00000000E+00 0.00000000E+00 0.00000000E+00
24  5 0.00000000E+00 0.00000000E+00 0.00000000E+00-2.11672937E-02 0.00000000E+00
24  6 0.00000000E+00 0.00000000E+00 0.00000000E+00-2.86745410E-01 0.00000000E+00
24  7 0.00000000E+00 3.98191879E-01 0.00000000E+00 0.00000000E+00 0.00000000E+00
24  8 0.00000000E+00 0.00000000E+00 0.00000000E+00 6.38907184E-01 0.00000000E+00
24  9 0.00000000E+00-1.95306362E+00 0.00000000E+00 0.00000000E+00 0.00000000E+00
24 10 0.00000000E+00 0.00000000E+00 0.00000000E+00-2.11672937E-02 0.00000000E+00
25  1 0.00000000E+00 0.00000000E+00 0.00000000E+00 0.00000000E+00 2.86745391E-01
25  2 0.00000000E+00 0.00000000E+00-3.98191966E-01 0.00000000E+00 0.00000000E+00
25  3 0.00000000E+00 0.00000000E+00 0.00000000E+00 0.00000000E+00 6.38907137E-01
25  4 0.00000000E+00 0.00000000E+00 1.95306369E+00 0.00000000E+00 0.00000000E+00
25  5 0.00000000E+00 0.00000000E+00 0.00000000E+00 0.00000000E+00-2.11673300E-02
25  6 0.00000000E+00 0.00000000E+00 0.00000000E+00 0.00000000E+00-2.86745391E-01
25  7 0.00000000E+00 0.00000000E+00 3.98191966E-01 0.00000000E+00 0.00000000E+00
25  8 0.00000000E+00 0.00000000E+00 0.00000000E+00 0.00000000E+00 6.38907137E-01
25  9 0.00000000E+00 0.00000000E+00-1.95306369E+00 0.00000000E+00 0.00000000E+00
25 10 0.00000000E+00 0.00000000E+00 0.00000000E+00 0.00000000E+00-2.11673300E-02
26  1 5.05334668E-01 1.07668802E+00-7.29180354E-01 0.00000000E+00 0.00000000E+00
26  2 9.70710225E-01 0.00000000E+00 0.00000000E+00-3.44736268E-01-4.65378409E-01
26  3-4.65378415E-01 9.30756824E-01 0.00000000E+00 0.00000000E+00 0.00000000E+00
26  4 1.41207296E-01 0.00000000E+00 0.00000000E+00 9.28353676E-03-4.34198452E-02
26  5-4.34198389E-02 8.68396841E-02 0.00000000E+00 0.00000000E+00 0.00000000E+00
26  6-5.05334668E-01-1.07668802E+00 7.29180354E-01 0.00000000E+00 0.00000000E+00
26  7 9.70710225E-01 0.00000000E+00 0.00000000E+00-3.44736268E-01 4.65378409E-01
26  8 4.65378415E-01-9.30756824E-01 0.00000000E+00 0.00000000E+00 0.00000000E+00
26  9-1.41207296E-01 0.00000000E+00 0.00000000E+00 9.28353676E-03 4.34198452E-02
26 10 4.34198389E-02-8.68396841E-02 0.00000000E+00 0.00000000E+00 0.00000000E+00
27  1 7.47010278E-01 1.40410711E+00-5.77894781E-01 0.00000000E+00 0.00000000E+00
27  2 5.06000360E-01 0.00000000E+00 0.00000000E+00-1.36571242E+00 3.17808587E-01
27  3 3.17808642E-01-6.35617228E-01 0.00000000E+00 0.00000000E+00 0.00000000E+00
27  4 2.45236838E-01 0.00000000E+00 0.00000000E+00-3.20794462E-01 3.38534238E-01
27  5 3.38534185E-01-6.77068423E-01 0.00000000E+00 0.00000000E+00 0.00000000E+00
27  6 7.47010278E-01 1.40410711E+00-5.77894781E-01 0.00000000E+00 0.00000000E+00
27  7-5.06000360E-01 0.00000000E+00 0.00000000E+00 1.36571242E+00 3.17808587E-01
27  8 3.17808642E-01-6.35617228E-01 0.00000000E+00 0.00000000E+00 0.00000000E+00
27  9 2.45236838E-01 0.00000000E+00 0.00000000E+00 3.20794462E-01 3.38534238E-01
27 10 3.38534185E-01-6.77068423E-01 0.00000000E+00 0.00000000E+00 0.00000000E+00
28  1 0.00000000E+00 0.00000000E+00 0.00000000E+00-2.66664924E-01 0.00000000E+00
28  2 0.00000000E+00 3.66760738E+00 0.00000000E+00 0.00000000E+00 0.00000000E+00
28  3 0.00000000E+00 0.00000000E+00 0.00000000E+00 7.40235932E-01 0.00000000E+00
28  4 0.00000000E+00-9.47159765E-01 0.00000000E+00 0.00000000E+00 0.00000000E+00
28  5 0.00000000E+00 0.00000000E+00 0.00000000E+00 1.33407018E+00 0.00000000E+00
28  6 0.00000000E+00 0.00000000E+00 0.00000000E+00 2.66664924E-01 0.00000000E+00
28  7 0.00000000E+00-3.66760738E+00 0.00000000E+00 0.00000000E+00 0.00000000E+00
28  8 0.00000000E+00 0.00000000E+00 0.00000000E+00 7.40235932E-01 0.00000000E+00
28  9 0.00000000E+00 9.47159765E-01 0.00000000E+00 0.00000000E+00 0.00000000E+00
28 10 0.00000000E+00 0.00000000E+00 0.00000000E+00 1.33407018E+00 0.00000000E+00
29  1 0.00000000E+00 0.00000000E+00 0.00000000E+00 0.00000000E+00-2.66664920E-01
29  2 0.00000000E+00 0.00000000E+00 3.66760742E+00 0.00000000E+00 0.00000000E+00
29  3 0.00000000E+00 0.00000000E+00 0.00000000E+00 0.00000000E+00 7.40235946E-01
29  4 0.00000000E+00 0.00000000E+00-9.47159675E-01 0.00000000E+00 0.00000000E+00
29  5 0.00000000E+00 0.00000000E+00 0.00000000E+00 0.00000000E+00 1.33407022E+00
29  6 0.00000000E+00 0.00000000E+00 0.00000000E+00 0.00000000E+00 2.66664920E-01
29  7 0.00000000E+00 0.00000000E+00-3.66760742E+00 0.00000000E+00 0.00000000E+00
29  8 0.00000000E+00 0.00000000E+00 0.00000000E+00 0.00000000E+00 7.40235946E-01
29  9 0.00000000E+00 0.00000000E+00 9.47159675E-01 0.00000000E+00 0.00000000E+00
29 10 0.00000000E+00 0.00000000E+00 0.00000000E+00 0.00000000E+00 1.33407022E+00
30  1 1.60203878E-07 2.67543138E-07 7.64011434E-07 0.00000000E+00 0.00000000E+00
30  2 2.23184955E-07 0.00000000E+00 0.00000000E+00-1.01521603E-06 4.92815926E-01
30  3-4.92815908E-01-1.84321395E-08 0.00000000E+00 0.00000000E+00 0.00000000E+00
30  4-5.34913572E-07 0.00000000E+00 0.00000000E+00-1.67186496E-08-5.45238442E-01
30  5 5.45239182E-01-7.39551482E-07 0.00000000E+00 0.00000000E+00 0.00000000E+00
30  6 1.60203878E-07 2.67543138E-07 7.64011434E-07 0.00000000E+00 0.00000000E+00
30  7-2.23184955E-07 0.00000000E+00 0.00000000E+00 1.01521603E-06 4.92815926E-01
30  8-4.92815908E-01-1.84321395E-08 0.00000000E+00 0.00000000E+00 0.00000000E+00
30  9-5.34913572E-07 0.00000000E+00 0.00000000E+00 1.67186496E-08-5.45238442E-01
30 10 5.45239182E-01-7.39551482E-07 0.00000000E+00 0.00000000E+00 0.00000000E+00
31  1 0.00000000E+00 0.00000000E+00 0.00000000E+00 0.00000000E+00 0.00000000E+00
31  2 0.00000000E+00 0.00000000E+00 0.00000000E+00 0.00000000E+00 0.00000000E+00
31  3 0.00000000E+00 0.00000000E+00-5.69054806E-01 0.00000000E+00 0.00000000E+00
31  4 0.00000000E+00 0.00000000E+00 0.00000000E+00 0.00000000E+00 0.00000000E+00
31  5 0.00000000E+00 0.00000000E+00 6.29587550E-01 0.00000000E+00 0.00000000E+00
31  6 0.00000000E+00 0.00000000E+00 0.00000000E+00 0.00000000E+00 0.00000000E+00
31  7 0.00000000E+00 0.00000000E+00 0.00000000E+00 0.00000000E+00 0.00000000E+00
31  8 0.00000000E+00 0.00000000E+00-5.69054806E-01 0.00000000E+00 0.00000000E+00
31  9 0.00000000E+00 0.00000000E+00 0.00000000E+00 0.00000000E+00 0.00000000E+00
31 10 0.00000000E+00 0.00000000E+00 6.29587550E-01 0.00000000E+00 0.00000000E+00
32  1-2.28275839E-01-3.54414247E-01-1.66785863E+00 0.00000000E+00 0.00000000E+00
32  2-4.39170985E-01 0.00000000E+00 0.00000000E+00 1.95530798E+00-2.29936258E-02
32  3-2.29940777E-02 4.59877034E-02 0.00000000E+00 0.00000000E+00 0.00000000E+00
32  4 1.19406584E+00 0.00000000E+00 0.00000000E+00-1.41829835E-01-6.68603542E-01
32  5-6.68603032E-01 1.33720657E+00 0.00000000E+00 0.00000000E+00 0.00000000E+00
32  6-2.28275839E-01-3.54414247E-01-1.66785863E+00 0.00000000E+00 0.00000000E+00
32  7 4.39170985E-01 0.00000000E+00 0.00000000E+00-1.95530798E+00-2.29936258E-02
32  8-2.29940777E-02 4.59877034E-02 0.00000000E+00 0.00000000E+00 0.00000000E+00
32  9 1.19406584E+00 0.00000000E+00 0.00000000E+00 1.41829835E-01-6.68603542E-01
32 10-6.68603032E-01 1.33720657E+00 0.00000000E+00 0.00000000E+00 0.00000000E+00
33  1-3.00148120E-01-6.01885505E-01 2.03982194E-01 0.00000000E+00 0.00000000E+00
33  2 1.75018986E-01 0.00000000E+00 0.00000000E+00 3.13863649E-01 2.10765137E-01
33  3 2.10765077E-01-4.21530214E-01 0.00000000E+00 0.00000000E+00 0.00000000E+00
33  4-2.27804528E-01 0.00000000E+00 0.00000000E+00 4.03382463E-01-5.17660044E-01
33  5-5.17659975E-01 1.03532002E+00 0.00000000E+00 0.00000000E+00 0.00000000E+00
33  6-3.00148120E-01-6.01885505E-01 2.03982194E-01 0.00000000E+00 0.00000000E+00
33  7-1.75018986E-01 0.00000000E+00 0.00000000E+00-3.13863649E-01 2.10765137E-01
33  8 2.10765077E-01-4.21530214E-01 0.00000000E+00 0.00000000E+00 0.00000000E+00
33  9-2.27804528E-01 0.00000000E+00 0.00000000E+00-4.03382463E-01-5.17660044E-01
33 10-5.17659975E-01 1.03532002E+00 0.00000000E+00 0.00000000E+00 0.00000000E+00
34  1 0.00000000E+00 0.00000000E+00 0.00000000E+00-7.04439259E-02 0.00000000E+00
34  2 0.00000000E+00-4.97446802E-02 0.00000000E+00 0.00000000E+00 0.00000000E+00
34  3 0.00000000E+00 0.00000000E+00 0.00000000E+00-3.49569919E-01 0.00000000E+00
34  4 0.00000000E+00-2.66462087E-01 0.00000000E+00 0.00000000E+00 0.00000000E+00
34  5 0.00000000E+00 0.00000000E+00 0.00000000E+00 8.33563099E-01 0.00000000E+00
34  6 0.00000000E+00 0.00000000E+00 0.00000000E+00-7.04439259E-02 0.00000000E+00
34  7 0.00000000E+00-4.97446802E-02 0.00000000E+00 0.00000000E+00 0.00000000E+00
34  8 0.00000000E+00 0.00000000E+00 0.00000000E+00 3.49569919E-01 0.00000000E+00
34  9 0.00000000E+00-2.66462087E-01 0.00000000E+00 0.00000000E+00 0.00000000E+00