!    C2: heavy spin contamination in the UHF "singlet" wavefunction
!
!    FINAL E= -75.5066197976, <S**2>= 1.692, with UHF NO occupancies
!    inner shells:  1.999999  1.999999
!    valence:  1.998449  2*1.791300  1.241497  0.758503  2*0.208700 0.001551
!                sig-g     pi-u       sig-u      sig-g     pi-g       sig-u
!    two non-zero's, beyond Ne=Na+Nb:    0.000001  0.000001 
!    The log file contains fewer digits, these NOON are from the PUNCH file.
!
!    The alpha and beta orbitals are polarized left and right,
!    but the UHF natural orbitals appear to fully recover spatial symmetry.
!
!    This run takes 4 seconds on 2.66 GHz Cloverton (10 Aug 2016)
!
 $contrl scftyp=uhf mult=1 runtyp=energy maxit=50 ispher=1 nosym=1 $end
 $system mwords=150 $end
 $basis  gbasis=accd $end
!           RHF orbital 4=sigma-g, 5,6=pi-u HOMO, 7=sigma-u empty, so
!           the reordering below, by itself, is sigma-u total symmetry.
!           Therefore the very first s coefficient in alpha orbs 4 and 7
!           is increased by 100x by hand editing the original exponent,
!           to break spatial symmetry.
 $guess  guess=moread norb=46 norder=1 jorder(4)=7 jorder(7)=4 $end
 $scf    dirscf=.t. vvos=.f. uhfnos=.true. $end
 $statpt opttol=1d-5 $end
 $data
C2...the RHF/ACCD geometry
Dnh 4

C 6.0  0 0 0.6263722667
 $end

--- CLOSED SHELL ORBITALS --- GENERATED AT Sat Aug  6 12:08:56 2016
E=      -75.3883719309, E(NUC)=   15.2069160670
 $VEC   
 1  1-7.07979127E-01-1.67545471E-03 2.21169436E-03 0.00000000E+00 0.00000000E+00
 1  2-4.88436687E-04 0.00000000E+00 0.00000000E+00 1.32652746E-03 8.37181919E-05
 1  3 8.37181919E-05-1.67436384E-04 0.00000000E+00 0.00000000E+00 0.00000000E+00
 1  4-3.21593885E-04 0.00000000E+00 0.00000000E+00 4.17162351E-04-6.84393902E-04
 1  5-6.84393902E-04 1.36878780E-03 0.00000000E+00 0.00000000E+00 0.00000000E+00
 1  6-7.07979127E-01-1.67545471E-03 2.21169436E-03 0.00000000E+00 0.00000000E+00
 1  7 4.88436687E-04 0.00000000E+00 0.00000000E+00-1.32652746E-03 8.37181919E-05
 1  8 8.37181919E-05-1.67436384E-04 0.00000000E+00 0.00000000E+00 0.00000000E+00
 1  9-3.21593885E-04 0.00000000E+00 0.00000000E+00-4.17162351E-04-6.84393902E-04
 1 10-6.84393902E-04 1.36878780E-03 0.00000000E+00 0.00000000E+00 0.00000000E+00
 2  1 7.09589710E-01 3.56910353E-03-4.09815074E-02 0.00000000E+00 0.00000000E+00
 2  2 4.55156016E-04 0.00000000E+00 0.00000000E+00-1.93216864E-02-3.20733884E-05
 2  3-3.20733884E-05 6.41467768E-05 0.00000000E+00 0.00000000E+00 0.00000000E+00
 2  4-1.33634585E-02 0.00000000E+00 0.00000000E+00-2.53178170E-03 2.01653114E-03
 2  5 2.01653114E-03-4.03306229E-03 0.00000000E+00 0.00000000E+00 0.00000000E+00
 2  6-7.09589710E-01-3.56910353E-03 4.09815074E-02 0.00000000E+00 0.00000000E+00
 2  7 4.55156016E-04 0.00000000E+00 0.00000000E+00-1.93216864E-02 3.20733884E-05
 2  8 3.20733884E-05-6.41467768E-05 0.00000000E+00 0.00000000E+00 0.00000000E+00
 2  9 1.33634585E-02 0.00000000E+00 0.00000000E+00-2.53178170E-03-2.01653114E-03
 2 10-2.01653114E-03 4.03306229E-03 0.00000000E+00 0.00000000E+00 0.00000000E+00
 3  1-1.06598703E-02 3.47142751E-01 2.26147744E-01 0.00000000E+00 0.00000000E+00
 3  2 1.66646655E-01 0.00000000E+00 0.00000000E+00 1.20597690E-02-1.04735320E-02
 3  3-1.04735320E-02 2.09470640E-02 0.00000000E+00 0.00000000E+00 0.00000000E+00
 3  4-7.91681567E-03 0.00000000E+00 0.00000000E+00-6.99777225E-03 3.09470480E-03
 3  5 3.09470480E-03-6.18940961E-03 0.00000000E+00 0.00000000E+00 0.00000000E+00
 3  6-1.06598703E-02 3.47142751E-01 2.26147744E-01 0.00000000E+00 0.00000000E+00
 3  7-1.66646655E-01 0.00000000E+00 0.00000000E+00-1.20597690E-02-1.04735320E-02
 3  8-1.04735320E-02 2.09470640E-02 0.00000000E+00 0.00000000E+00 0.00000000E+00
 3  9-7.91681567E-03 0.00000000E+00 0.00000000E+00 6.99777225E-03 3.09470480E-03
 3 10 3.09470480E-03-6.18940961E-03 0.00000000E+00 0.00000000E+00 0.00000000E+00
 4  1-1.63580508E-01-3.24067807E-01-6.44959991E-01 0.00000000E+00 0.00000000E+00
 4  2 1.85495920E-01 0.00000000E+00 0.00000000E+00-6.88701646E-03-2.22753787E-03
 4  3-2.22753787E-03 4.45507575E-03 0.00000000E+00 0.00000000E+00 0.00000000E+00
 4  4-1.69214101E-01 0.00000000E+00 0.00000000E+00-1.88687904E-02 1.16839719E-02
 4  5 1.16839719E-02-2.33679438E-02 0.00000000E+00 0.00000000E+00 0.00000000E+00
 4  6 1.63580508E-03 3.24067807E-01 6.44959991E-01 0.00000000E+00 0.00000000E+00
 4  7 1.85495920E-01 0.00000000E+00 0.00000000E+00-6.88701646E-03 2.22753787E-03
 4  8 2.22753787E-03-4.45507575E-03 0.00000000E+00 0.00000000E+00 0.00000000E+00
 4  9 1.69214101E-01 0.00000000E+00 0.00000000E+00-1.88687904E-02-1.16839719E-02
 4 10-1.16839719E-02 2.33679438E-02 0.00000000E+00 0.00000000E+00 0.00000000E+00
 5  1 0.00000000E+00 0.00000000E+00 0.00000000E+00 4.30906351E-01 0.00000000E+00
 5  2 0.00000000E+00 2.36097550E-01 0.00000000E+00 0.00000000E+00 0.00000000E+00
 5  3 0.00000000E+00 0.00000000E+00 0.00000000E+00 3.82046164E-02 0.00000000E+00
 5  4 0.00000000E+00 1.26379322E-02 0.00000000E+00 0.00000000E+00 0.00000000E+00
 5  5 0.00000000E+00 0.00000000E+00 0.00000000E+00 5.36651935E-03 0.00000000E+00
 5  6 0.00000000E+00 0.00000000E+00 0.00000000E+00 4.30906351E-01 0.00000000E+00
 5  7 0.00000000E+00 2.36097550E-01 0.00000000E+00 0.00000000E+00 0.00000000E+00
 5  8 0.00000000E+00 0.00000000E+00 0.00000000E+00-3.82046164E-02 0.00000000E+00
 5  9 0.00000000E+00 1.26379322E-02 0.00000000E+00 0.00000000E+00 0.00000000E+00
 5 10 0.00000000E+00 0.00000000E+00 0.00000000E+00-5.36651935E-03 0.00000000E+00
 6  1 0.00000000E+00 0.00000000E+00 0.00000000E+00 0.00000000E+00 4.30906351E-01
 6  2 0.00000000E+00 0.00000000E+00 2.36097550E-01 0.00000000E+00 0.00000000E+00
 6  3 0.00000000E+00 0.00000000E+00 0.00000000E+00 0.00000000E+00 3.82046164E-02
 6  4 0.00000000E+00 0.00000000E+00 1.26379322E-02 0.00000000E+00 0.00000000E+00
 6  5 0.00000000E+00 0.00000000E+00 0.00000000E+00 0.00000000E+00 5.36651935E-03
 6  6 0.00000000E+00 0.00000000E+00 0.00000000E+00 0.00000000E+00 4.30906351E-01
 6  7 0.00000000E+00 0.00000000E+00 2.36097550E-01 0.00000000E+00 0.00000000E+00
 6  8 0.00000000E+00 0.00000000E+00 0.00000000E+00 0.00000000E+00-3.82046164E-02
 6  9 0.00000000E+00 0.00000000E+00 1.26379322E-02 0.00000000E+00 0.00000000E+00
 6 10 0.00000000E+00 0.00000000E+00 0.00000000E+00 0.00000000E+00-5.36651935E-03
 7  1-7.94237042E-01 3.77392849E-02 1.98035491E-01 0.00000000E+00 0.00000000E+00
 7  2-4.13475235E-01 0.00000000E+00 0.00000000E+00-2.29915138E-01 4.51979661E-03
 7  3 4.51979661E-03-9.03959323E-03 0.00000000E+00 0.00000000E+00 0.00000000E+00
 7  4 1.74661542E-01 0.00000000E+00 0.00000000E+00-8.53159271E-02-1.33252853E-02
 7  5-1.33252853E-02 2.66505707E-02 0.00000000E+00 0.00000000E+00 0.00000000E+00
 7  6-7.94237042E-03 3.77392849E-02 1.98035491E-01 0.00000000E+00 0.00000000E+00
 7  7 4.13475235E-01 0.00000000E+00 0.00000000E+00 2.29915138E-01 4.51979661E-03
 7  8 4.51979661E-03-9.03959323E-03 0.00000000E+00 0.00000000E+00 0.00000000E+00
 7  9 1.74661542E-01 0.00000000E+00 0.00000000E+00 8.53159271E-02-1.33252853E-02
 7 10-1.33252853E-02 2.66505707E-02 0.00000000E+00 0.00000000E+00 0.00000000E+00
 8  1 2.38195638E-02-1.24429767E-02-1.87340989E+00 0.00000000E+00 0.00000000E+00
 8  2 2.24899908E-02 0.00000000E+00 0.00000000E+00-1.18867269E+00 3.10185871E-03
 8  3 3.10185871E-03-6.20371741E-03 0.00000000E+00 0.00000000E+00 0.00000000E+00
 8  4-1.14755890E+01 0.00000000E+00 0.00000000E+00-3.29291068E+00 1.34170081E-01
 8  5 1.34170081E-01-2.68340163E-01 0.00000000E+00 0.00000000E+00 0.00000000E+00
 8  6-2.38195638E-02 1.24429767E-02 1.87340989E+00 0.00000000E+00 0.00000000E+00
 8  7 2.24899908E-02 0.00000000E+00 0.00000000E+00-1.18867269E+00-3.10185871E-03
 8  8-3.10185871E-03 6.20371741E-03 0.00000000E+00 0.00000000E+00 0.00000000E+00
 8  9 1.14755890E+01 0.00000000E+00 0.00000000E+00-3.29291068E+00-1.34170081E-01
 8 10-1.34170081E-01 2.68340163E-01 0.00000000E+00 0.00000000E+00 0.00000000E+00
 9  1 0.00000000E+00 0.00000000E+00 0.00000000E+00 0.00000000E+00 2.16459070E-01
 9  2 0.00000000E+00 0.00000000E+00 2.54627678E-01 0.00000000E+00 0.00000000E+00
 9  3 0.00000000E+00 0.00000000E+00 0.00000000E+00 0.00000000E+00-3.11098003E-02
 9  4 0.00000000E+00 0.00000000E+00 1.78173986E+00 0.00000000E+00 0.00000000E+00
 9  5 0.00000000E+00 0.00000000E+00 0.00000000E+00 0.00000000E+00 4.80307063E-02
 9  6 0.00000000E+00 0.00000000E+00 0.00000000E+00 0.00000000E+00-2.16459070E-01
 9  7 0.00000000E+00 0.00000000E+00-2.54627678E-01 0.00000000E+00 0.00000000E+00
 9  8 0.00000000E+00 0.00000000E+00 0.00000000E+00 0.00000000E+00-3.11098003E-02
 9  9 0.00000000E+00 0.00000000E+00-1.78173986E+00 0.00000000E+00 0.00000000E+00
 9 10 0.00000000E+00 0.00000000E+00 0.00000000E+00 0.00000000E+00 4.80307063E-02
10  1 0.00000000E+00 0.00000000E+00 0.00000000E+00-2.16459070E-01 0.00000000E+00
10  2 0.00000000E+00-2.54627678E-01 0.00000000E+00 0.00000000E+00 0.00000000E+00
10  3 0.00000000E+00 0.00000000E+00 0.00000000E+00 3.11098003E-02 0.00000000E+00
10  4 0.00000000E+00-1.78173986E+00 0.00000000E+00 0.00000000E+00 0.00000000E+00
10  5 0.00000000E+00 0.00000000E+00 0.00000000E+00-4.80307063E-02 0.00000000E+00
10  6 0.00000000E+00 0.00000000E+00 0.00000000E+00 2.16459070E-01 0.00000000E+00
10  7 0.00000000E+00 2.54627678E-01 0.00000000E+00 0.00000000E+00 0.00000000E+00
10  8 0.00000000E+00 0.00000000E+00 0.00000000E+00 3.11098003E-02 0.00000000E+00
10  9 0.00000000E+00 1.78173986E+00 0.00000000E+00 0.00000000E+00 0.00000000E+00
10 10 0.00000000E+00 0.00000000E+00 0.00000000E+00-4.80307063E-02 0.00000000E+00
11  1-1.73606616E-02 2.86122762E-02 3.62181389E-01 0.00000000E+00 0.00000000E+00
11  2-1.47833557E-01 0.00000000E+00 0.00000000E+00-2.46846875E-01 4.21213371E-03
11  3 4.21213371E-03-8.42426742E-03 0.00000000E+00 0.00000000E+00 0.00000000E+00
11  4-7.48692208E-01 0.00000000E+00 0.00000000E+00 1.33126175E+00-1.94689849E-02
11  5-1.94689849E-02 3.89379697E-02 0.00000000E+00 0.00000000E+00 0.00000000E+00
11  6-1.73606616E-02 2.86122762E-02 3.62181389E-01 0.00000000E+00 0.00000000E+00
11  7 1.47833557E-01 0.00000000E+00 0.00000000E+00 2.46846875E-01 4.21213371E-03
11  8 4.21213371E-03-8.42426742E-03 0.00000000E+00 0.00000000E+00 0.00000000E+00
11  9-7.48692208E-01 0.00000000E+00 0.00000000E+00-1.33126175E+00-1.94689849E-02
11 10-1.94689849E-02 3.89379697E-02 0.00000000E+00 0.00000000E+00 0.00000000E+00
12  1 0.00000000E+00 0.00000000E+00 0.00000000E+00-9.45928483E-02 0.00000000E+00
12  2 0.00000000E+00-2.38517810E-01 0.00000000E+00 0.00000000E+00 0.00000000E+00
12  3 0.00000000E+00 0.00000000E+00 0.00000000E+00-1.20442620E-02 0.00000000E+00
12  4 0.00000000E+00 6.13819585E-01 0.00000000E+00 0.00000000E+00 0.00000000E+00
12  5 0.00000000E+00 0.00000000E+00 0.00000000E+00 7.99667832E-03 0.00000000E+00
12  6 0.00000000E+00 0.00000000E+00 0.00000000E+00-9.45928483E-02 0.00000000E+00
12  7 0.00000000E+00-2.38517810E-01 0.00000000E+00 0.00000000E+00 0.00000000E+00
12  8 0.00000000E+00 0.00000000E+00 0.00000000E+00 1.20442620E-02 0.00000000E+00
12  9 0.00000000E+00 6.13819585E-01 0.00000000E+00 0.00000000E+00 0.00000000E+00
12 10 0.00000000E+00 0.00000000E+00 0.00000000E+00-7.99667832E-03 0.00000000E+00
13  1 0.00000000E+00 0.00000000E+00 0.00000000E+00 0.00000000E+00-9.45928483E-02
13  2 0.00000000E+00 0.00000000E+00-2.38517810E-01 0.00000000E+00 0.00000000E+00
13  3 0.00000000E+00 0.00000000E+00 0.00000000E+00 0.00000000E+00-1.20442620E-02
13  4 0.00000000E+00 0.00000000E+00 6.13819585E-01 0.00000000E+00 0.00000000E+00
13  5 0.00000000E+00 0.00000000E+00 0.00000000E+00 0.00000000E+00 7.99667832E-03
13  6 0.00000000E+00 0.00000000E+00 0.00000000E+00 0.00000000E+00-9.45928483E-02
13  7 0.00000000E+00 0.00000000E+00-2.38517810E-01 0.00000000E+00 0.00000000E+00
13  8 0.00000000E+00 0.00000000E+00 0.00000000E+00 0.00000000E+00 1.20442620E-02
13  9 0.00000000E+00 0.00000000E+00 6.13819585E-01 0.00000000E+00 0.00000000E+00
13 10 0.00000000E+00 0.00000000E+00 0.00000000E+00 0.00000000E+00-7.99667832E-03
14  1 1.11970801E-02-5.86098098E-02-9.48300191E-01 0.00000000E+00 0.00000000E+00
14  2 3.75034567E-02 0.00000000E+00 0.00000000E+00 2.95402322E-01 1.35014900E-02
14  3 1.35014900E-02-2.70029801E-02 0.00000000E+00 0.00000000E+00 0.00000000E+00
14  4 5.88531972E-01 0.00000000E+00 0.00000000E+00 1.36332142E+00-1.28783812E-01
14  5-1.28783812E-01 2.57567625E-01 0.00000000E+00 0.00000000E+00 0.00000000E+00
14  6 1.11970801E-02-5.86098098E-02-9.48300191E-01 0.00000000E+00 0.00000000E+00
14  7-3.75034567E-02 0.00000000E+00 0.00000000E+00-2.95402322E-01 1.35014900E-02
14  8 1.35014900E-02-2.70029801E-02 0.00000000E+00 0.00000000E+00 0.00000000E+00
14  9 5.88531972E-01 0.00000000E+00 0.00000000E+00-1.36332142E+00-1.28783812E-01
14 10-1.28783812E-01 2.57567625E-01 0.00000000E+00 0.00000000E+00 0.00000000E+00
15  1 0.00000000E+00 0.00000000E+00 0.00000000E+00 0.00000000E+00 3.68745418E-01
15  2 0.00000000E+00 0.00000000E+00 2.77977736E-01 0.00000000E+00 0.00000000E+00
15  3 0.00000000E+00 0.00000000E+00 0.00000000E+00 0.00000000E+00-9.15256165E-03
15  4 0.00000000E+00 0.00000000E+00-1.75725743E+00 0.00000000E+00 0.00000000E+00
15  5 0.00000000E+00 0.00000000E+00 0.00000000E+00 0.00000000E+00-3.33795422E-01
15  6 0.00000000E+00 0.00000000E+00 0.00000000E+00 0.00000000E+00-3.68745418E-01
15  7 0.00000000E+00 0.00000000E+00-2.77977736E-01 0.00000000E+00 0.00000000E+00
15  8 0.00000000E+00 0.00000000E+00 0.00000000E+00 0.00000000E+00-9.15256165E-03
15  9 0.00000000E+00 0.00000000E+00 1.75725743E+00 0.00000000E+00 0.00000000E+00
15 10 0.00000000E+00 0.00000000E+00 0.00000000E+00 0.00000000E+00-3.33795422E-01
16  1 0.00000000E+00 0.00000000E+00 0.00000000E+00-3.68745418E-01 0.00000000E+00
16  2 0.00000000E+00-2.77977736E-01 0.00000000E+00 0.00000000E+00 0.00000000E+00
16  3 0.00000000E+00 0.00000000E+00 0.00000000E+00 9.15256165E-03 0.00000000E+00
16  4 0.00000000E+00 1.75725743E+00 0.00000000E+00 0.00000000E+00 0.00000000E+00
16  5 0.00000000E+00 0.00000000E+00 0.00000000E+00 3.33795422E-01 0.00000000E+00
16  6 0.00000000E+00 0.00000000E+00 0.00000000E+00 3.68745418E-01 0.00000000E+00
16  7 0.00000000E+00 2.77977736E-01 0.00000000E+00 0.00000000E+00 0.00000000E+00
16  8 0.00000000E+00 0.00000000E+00 0.00000000E+00 9.15256165E-03 0.00000000E+00
16  9 0.00000000E+00-1.75725743E+00 0.00000000E+00 0.00000000E+00 0.00000000E+00
16 10 0.00000000E+00 0.00000000E+00 0.00000000E+00 3.33795422E-01 0.00000000E+00
17  1 7.75137417E-02 2.33328469E-01-4.59617176E+00 0.00000000E+00 0.00000000E+00
17  2-6.79068345E-02 0.00000000E+00 0.00000000E+00-3.52402723E+00 2.10678503E-02
17  3 2.10678503E-02-4.21357005E-02 0.00000000E+00 0.00000000E+00 0.00000000E+00
17  4-2.23354649E+01 0.00000000E+00 0.00000000E+00-4.90084603E+00 3.74184968E-01
17  5 3.74184968E-01-7.48369936E-01 0.00000000E+00 0.00000000E+00 0.00000000E+00
17  6-7.75137417E-02-2.33328469E-01 4.59617176E+00 0.00000000E+00 0.00000000E+00
17  7-6.79068345E-02 0.00000000E+00 0.00000000E+00-3.52402723E+00-2.10678503E-02
17  8-2.10678503E-02 4.21357005E-02 0.00000000E+00 0.00000000E+00 0.00000000E+00
17  9 2.23354649E+01 0.00000000E+00 0.00000000E+00-4.90084603E+00-3.74184968E-01
17 10-3.74184968E-01 7.48369936E-01 0.00000000E+00 0.00000000E+00 0.00000000E+00
18  1 0.00000000E+00 0.00000000E+00 0.00000000E+00 0.00000000E+00 0.00000000E+00
18  2 0.00000000E+00 0.00000000E+00 0.00000000E+00 0.00000000E+00 0.00000000E+00
18  3 0.00000000E+00 0.00000000E+00-6.09154342E-03 0.00000000E+00 0.00000000E+00
18  4 0.00000000E+00 0.00000000E+00 0.00000000E+00 0.00000000E+00 0.00000000E+00
18  5 0.00000000E+00 0.00000000E+00 5.52442885E-01 0.00000000E+00 0.00000000E+00
18  6 0.00000000E+00 0.00000000E+00 0.00000000E+00 0.00000000E+00 0.00000000E+00
18  7 0.00000000E+00 0.00000000E+00 0.00000000E+00 0.00000000E+00 0.00000000E+00
18  8 0.00000000E+00 0.00000000E+00-6.09154342E-03 0.00000000E+00 0.00000000E+00
18  9 0.00000000E+00 0.00000000E+00 0.00000000E+00 0.00000000E+00 0.00000000E+00
18 10 0.00000000E+00 0.00000000E+00 5.52442885E-01 0.00000000E+00 0.00000000E+00
19  1 0.00000000E+00 0.00000000E+00 0.00000000E+00 0.00000000E+00 0.00000000E+00
19  2 0.00000000E+00 0.00000000E+00 0.00000000E+00 0.00000000E+00-5.27543135E-03
19  3 5.27543135E-03 0.00000000E+00 0.00000000E+00 0.00000000E+00 0.00000000E+00
19  4 0.00000000E+00 0.00000000E+00 0.00000000E+00 0.00000000E+00 4.78429573E-01
19  5-4.78429573E-01 0.00000000E+00 0.00000000E+00 0.00000000E+00 0.00000000E+00
19  6 0.00000000E+00 0.00000000E+00 0.00000000E+00 0.00000000E+00 0.00000000E+00
19  7 0.00000000E+00 0.00000000E+00 0.00000000E+00 0.00000000E+00-5.27543135E-03
19  8 5.27543135E-03 0.00000000E+00 0.00000000E+00 0.00000000E+00 0.00000000E+00
19  9 0.00000000E+00 0.00000000E+00 0.00000000E+00 0.00000000E+00 4.78429573E-01
19 10-4.78429573E-01 0.00000000E+00 0.00000000E+00 0.00000000E+00 0.00000000E+00
20  1 3.03386314E-02-2.47196420E-02 1.24151818E+00 0.00000000E+00 0.00000000E+00
20  2-1.39497584E-01 0.00000000E+00 0.00000000E+00-4.16149844E-01 4.94776869E-03
20  3 4.94776869E-03-9.89553738E-03 0.00000000E+00 0.00000000E+00 0.00000000E+00
20  4-4.61877063E-01 0.00000000E+00 0.00000000E+00-1.19326913E+00 5.88188884E-01
20  5 5.88188884E-01-1.17637777E+00 0.00000000E+00 0.00000000E+00 0.00000000E+00
20  6 3.03386314E-02-2.47196420E-02 1.24151818E+00 0.00000000E+00 0.00000000E+00
20  7 1.39497584E-01 0.00000000E+00 0.00000000E+00 4.16149844E-01 4.94776869E-03
20  8 4.94776869E-03-9.89553738E-03 0.00000000E+00 0.00000000E+00 0.00000000E+00
20  9-4.61877063E-01 0.00000000E+00 0.00000000E+00 1.19326913E+00 5.88188884E-01
20 10 5.88188884E-01-1.17637777E+00 0.00000000E+00 0.00000000E+00 0.00000000E+00
21  1 4.01336805E-02 1.59000043E-01-1.47955986E+00 0.00000000E+00 0.00000000E+00
21  2 1.18664012E-01 0.00000000E+00 0.00000000E+00-1.31822222E-01-1.57655111E-02
21  3-1.57655111E-02 3.15310222E-02 0.00000000E+00 0.00000000E+00 0.00000000E+00
21  4 1.33075319E+00 0.00000000E+00 0.00000000E+00 1.38259336E-01 4.74223838E-01
21  5 4.74223838E-01-9.48447677E-01 0.00000000E+00 0.00000000E+00 0.00000000E+00
21  6-4.01336805E-02-1.59000043E-01 1.47955986E+00 0.00000000E+00 0.00000000E+00
21  7 1.18664012E-01 0.00000000E+00 0.00000000E+00-1.31822222E-01 1.57655111E-02
21  8 1.57655111E-02-3.15310222E-02 0.00000000E+00 0.00000000E+00 0.00000000E+00
21  9-1.33075319E+00 0.00000000E+00 0.00000000E+00 1.38259336E-01-4.74223838E-01
21 10-4.74223838E-01 9.48447677E-01 0.00000000E+00 0.00000000E+00 0.00000000E+00
22  1 0.00000000E+00 0.00000000E+00 0.00000000E+00 1.37882586E-01 0.00000000E+00
22  2 0.00000000E+00-6.27004425E-01 0.00000000E+00 0.00000000E+00 0.00000000E+00
22  3 0.00000000E+00 0.00000000E+00 0.00000000E+00-3.55656604E-03 0.00000000E+00
22  4 0.00000000E+00 2.28544429E-01 0.00000000E+00 0.00000000E+00 0.00000000E+00
22  5 0.00000000E+00 0.00000000E+00 0.00000000E+00 8.43118428E-01 0.00000000E+00
22  6 0.00000000E+00 0.00000000E+00 0.00000000E+00 1.37882586E-01 0.00000000E+00
22  7 0.00000000E+00-6.27004425E-01 0.00000000E+00 0.00000000E+00 0.00000000E+00
22  8 0.00000000E+00 0.00000000E+00 0.00000000E+00 3.55656604E-03 0.00000000E+00
22  9 0.00000000E+00 2.28544429E-01 0.00000000E+00 0.00000000E+00 0.00000000E+00
22 10 0.00000000E+00 0.00000000E+00 0.00000000E+00-8.43118428E-01 0.00000000E+00
23  1 0.00000000E+00 0.00000000E+00 0.00000000E+00 0.00000000E+00 1.37882586E-01
23  2 0.00000000E+00 0.00000000E+00-6.27004425E-01 0.00000000E+00 0.00000000E+00
23  3 0.00000000E+00 0.00000000E+00 0.00000000E+00 0.00000000E+00-3.55656604E-03
23  4 0.00000000E+00 0.00000000E+00 2.28544429E-01 0.00000000E+00 0.00000000E+00
23  5 0.00000000E+00 0.00000000E+00 0.00000000E+00 0.00000000E+00 8.43118428E-01
23  6 0.00000000E+00 0.00000000E+00 0.00000000E+00 0.00000000E+00 1.37882586E-01
23  7 0.00000000E+00 0.00000000E+00-6.27004425E-01 0.00000000E+00 0.00000000E+00
23  8 0.00000000E+00 0.00000000E+00 0.00000000E+00 0.00000000E+00 3.55656604E-03
23  9 0.00000000E+00 0.00000000E+00 2.28544429E-01 0.00000000E+00 0.00000000E+00
23 10 0.00000000E+00 0.00000000E+00 0.00000000E+00 0.00000000E+00-8.43118428E-01
24  1 0.00000000E+00 0.00000000E+00 0.00000000E+00 0.00000000E+00 0.00000000E+00
24  2 0.00000000E+00 0.00000000E+00 0.00000000E+00 0.00000000E+00 0.00000000E+00
24  3 0.00000000E+00 0.00000000E+00 4.48028450E-02 0.00000000E+00 0.00000000E+00
24  4 0.00000000E+00 0.00000000E+00 0.00000000E+00 0.00000000E+00 0.00000000E+00
24  5 0.00000000E+00 0.00000000E+00-1.23412718E+00 0.00000000E+00 0.00000000E+00
24  6 0.00000000E+00 0.00000000E+00 0.00000000E+00 0.00000000E+00 0.00000000E+00
24  7 0.00000000E+00 0.00000000E+00 0.00000000E+00 0.00000000E+00 0.00000000E+00
24  8 0.00000000E+00 0.00000000E+00-4.48028450E-02 0.00000000E+00 0.00000000E+00
24  9 0.00000000E+00 0.00000000E+00 0.00000000E+00 0.00000000E+00 0.00000000E+00
24 10 0.00000000E+00 0.00000000E+00 1.23412718E+00 0.00000000E+00 0.00000000E+00
25  1 0.00000000E+00 0.00000000E+00 0.00000000E+00 0.00000000E+00 0.00000000E+00
25  2 0.00000000E+00 0.00000000E+00 0.00000000E+00 0.00000000E+00 3.88004019E-02
25  3-3.88004019E-02 0.00000000E+00 0.00000000E+00 0.00000000E+00 0.00000000E+00
25  4 0.00000000E+00 0.00000000E+00 0.00000000E+00 0.00000000E+00-1.06878549E+00
25  5 1.06878549E+00 0.00000000E+00 0.00000000E+00 0.00000000E+00 0.00000000E+00
25  6 0.00000000E+00 0.00000000E+00 0.00000000E+00 0.00000000E+00 0.00000000E+00
25  7 0.00000000E+00 0.00000000E+00 0.00000000E+00 0.00000000E+00-3.88004019E-02
25  8 3.88004019E-02 0.00000000E+00 0.00000000E+00 0.00000000E+00 0.00000000E+00
25  9 0.00000000E+00 0.00000000E+00 0.00000000E+00 0.00000000E+00 1.06878549E+00
25 10-1.06878549E+00 0.00000000E+00 0.00000000E+00 0.00000000E+00 0.00000000E+00
26  1 0.00000000E+00 0.00000000E+00 0.00000000E+00 0.00000000E+00 3.62673312E-01
26  2 0.00000000E+00 0.00000000E+00 3.52649075E+00 0.00000000E+00 0.00000000E+00
26  3 0.00000000E+00 0.00000000E+00 0.00000000E+00 0.00000000E+00-8.98465319E-02
26  4 0.00000000E+00 0.00000000E+00 1.15523891E+00 0.00000000E+00 0.00000000E+00
26  5 0.00000000E+00 0.00000000E+00 0.00000000E+00 0.00000000E+00 2.59747462E+00
26  6 0.00000000E+00 0.00000000E+00 0.00000000E+00 0.00000000E+00-3.62673312E-01
26  7 0.00000000E+00 0.00000000E+00-3.52649075E+00 0.00000000E+00 0.00000000E+00
26  8 0.00000000E+00 0.00000000E+00 0.00000000E+00 0.00000000E+00-8.98465319E-02
26  9 0.00000000E+00 0.00000000E+00-1.15523891E+00 0.00000000E+00 0.00000000E+00
26 10 0.00000000E+00 0.00000000E+00 0.00000000E+00 0.00000000E+00 2.59747462E+00
27  1 0.00000000E+00 0.00000000E+00 0.00000000E+00-3.62673312E-01 0.00000000E+00
27  2 0.00000000E+00-3.52649075E+00 0.00000000E+00 0.00000000E+00 0.00000000E+00
27  3 0.00000000E+00 0.00000000E+00 0.00000000E+00 8.98465319E-02 0.00000000E+00
27  4 0.00000000E+00-1.15523891E+00 0.00000000E+00 0.00000000E+00 0.00000000E+00
27  5 0.00000000E+00 0.00000000E+00 0.00000000E+00-2.59747462E+00 0.00000000E+00
27  6 0.00000000E+00 0.00000000E+00 0.00000000E+00 3.62673312E-01 0.00000000E+00
27  7 0.00000000E+00 3.52649075E+00 0.00000000E+00 0.00000000E+00 0.00000000E+00
27  8 0.00000000E+00 0.00000000E+00 0.00000000E+00 8.98465319E-02 0.00000000E+00
27  9 0.00000000E+00 1.15523891E+00 0.00000000E+00 0.00000000E+00 0.00000000E+00
27 10 0.00000000E+00 0.00000000E+00 0.00000000E+00-2.59747462E+00 0.00000000E+00
28  1 1.78115430E-01 6.49190924E-02-1.76451566E+01 0.00000000E+00 0.00000000E+00
28  2 5.50989878E-02 0.00000000E+00 0.00000000E+00-1.08283555E+01 4.21096338E-02
28  3 4.21096338E-02-8.42192676E-02 0.00000000E+00 0.00000000E+00 0.00000000E+00
28  4-1.93641792E+01 0.00000000E+00 0.00000000E+00-3.80110792E+00 1.19551484E+00
28  5 1.19551484E+00-2.39102967E+00 0.00000000E+00 0.00000000E+00 0.00000000E+00
28  6-1.78115430E-01-6.49190924E-02 1.76451566E+01 0.00000000E+00 0.00000000E+00
28  7 5.50989878E-02 0.00000000E+00 0.00000000E+00-1.08283555E+01-4.21096338E-02
28  8-4.21096338E-02 8.42192676E-02 0.00000000E+00 0.00000000E+00 0.00000000E+00
28  9 1.93641792E+01 0.00000000E+00 0.00000000E+00-3.80110792E+00-1.19551484E+00
28 10-1.19551484E+00 2.39102967E+00 0.00000000E+00 0.00000000E+00 0.00000000E+00
29  1 0.00000000E+00 0.00000000E+00 0.00000000E+00-6.74043930E-01 0.00000000E+00
29  2 0.00000000E+00 6.25822262E-01 0.00000000E+00 0.00000000E+00 0.00000000E+00
29  3 0.00000000E+00 0.00000000E+00 0.00000000E+00-8.32883685E-02 0.00000000E+00
29  4 0.00000000E+00-2.34593985E-01 0.00000000E+00 0.00000000E+00 0.00000000E+00
29  5 0.00000000E+00 0.00000000E+00 0.00000000E+00 3.34643753E-01 0.00000000E+00
29  6 0.00000000E+00 0.00000000E+00 0.00000000E+00-6.74043930E-01 0.00000000E+00
29  7 0.00000000E+00 6.25822262E-01 0.00000000E+00 0.00000000E+00 0.00000000E+00
29  8 0.00000000E+00 0.00000000E+00 0.00000000E+00 8.32883685E-02 0.00000000E+00
29  9 0.00000000E+00-2.34593985E-01 0.00000000E+00 0.00000000E+00 0.00000000E+00
29 10 0.00000000E+00 0.00000000E+00 0.00000000E+00-3.34643753E-01 0.00000000E+00
30  1 0.00000000E+00 0.00000000E+00 0.00000000E+00 0.00000000E+00-6.74043930E-01
30  2 0.00000000E+00 0.00000000E+00 6.25822262E-01 0.00000000E+00 0.00000000E+00
30  3 0.00000000E+00 0.00000000E+00 0.00000000E+00 0.00000000E+00-8.32883685E-02
30  4 0.00000000E+00 0.00000000E+00-2.34593985E-01 0.00000000E+00 0.00000000E+00
30  5 0.00000000E+00 0.00000000E+00 0.00000000E+00 0.00000000E+00 3.34643753E-01
30  6 0.00000000E+00 0.00000000E+00 0.00000000E+00 0.00000000E+00-6.74043930E-01
30  7 0.00000000E+00 0.00000000E+00 6.25822262E-01 0.00000000E+00 0.00000000E+00
30  8 0.00000000E+00 0.00000000E+00 0.00000000E+00 0.00000000E+00 8.32883685E-02
30  9 0.00000000E+00 0.00000000E+00-2.34593985E-01 0.00000000E+00 0.00000000E+00
30 10 0.00000000E+00 0.00000000E+00 0.00000000E+00 0.00000000E+00-3.34643753E-01
31  1 1.43513735E-01 4.62323065E-01-1.65449753E+00 0.00000000E+00 0.00000000E+00
31  2-6.09865974E-01 0.00000000E+00 0.00000000E+00 1.52760797E+00-7.14565589E-04
31  3-7.14565589E-04 1.42913118E-03 0.00000000E+00 0.00000000E+00 0.00000000E+00
31  4 7.23775063E-01 0.00000000E+00 0.00000000E+00 8.89727387E-02-3.53799238E-01
31  5-3.53799238E-01 7.07598477E-01 0.00000000E+00 0.00000000E+00 0.00000000E+00
31  6 1.43513735E-01 4.62323065E-01-1.65449753E+00 0.00000000E+00 0.00000000E+00
31  7 6.09865974E-01 0.00000000E+00 0.00000000E+00-1.52760797E+00-7.14565589E-04
31  8-7.14565589E-04 1.42913118E-03 0.00000000E+00 0.00000000E+00 0.00000000E+00
31  9 7.23775063E-01 0.00000000E+00 0.00000000E+00-8.89727387E-02-3.53799238E-01
31 10-3.53799238E-01 7.07598477E-01 0.00000000E+00 0.00000000E+00 0.00000000E+00
32  1 0.00000000E+00 0.00000000E+00 0.00000000E+00 0.00000000E+00-6.96182674E-01
32  2 0.00000000E+00 0.00000000E+00 5.33018842E+00 0.00000000E+00 0.00000000E+00
32  3 0.00000000E+00 0.00000000E+00 0.00000000E+00 0.00000000E+00 1.13173456E-01
32  4 0.00000000E+00 0.00000000E+00-6.63644259E-02 0.00000000E+00 0.00000000E+00
32  5 0.00000000E+00 0.00000000E+00 0.00000000E+00 0.00000000E+00 2.46439504E+00
32  6 0.00000000E+00 0.00000000E+00 0.00000000E+00 0.00000000E+00 6.96182674E-01
32  7 0.00000000E+00 0.00000000E+00-5.33018842E+00 0.00000000E+00 0.00000000E+00
32  8 0.00000000E+00 0.00000000E+00 0.00000000E+00 0.00000000E+00 1.13173456E-01
32  9 0.00000000E+00 0.00000000E+00 6.63644259E-02 0.00000000E+00 0.00000000E+00
32 10 0.00000000E+00 0.00000000E+00 0.00000000E+00 0.00000000E+00 2.46439504E+00
33  1 0.00000000E+00 0.00000000E+00 0.00000000E+00 6.96182674E-01 0.00000000E+00
33  2 0.00000000E+00-5.33018842E+00 0.00000000E+00 0.00000000E+00 0.00000000E+00
33  3 0.00000000E+00 0.00000000E+00 0.00000000E+00-1.13173456E-01 0.00000000E+00
33  4 0.00000000E+00 6.63644259E-02 0.00000000E+00 0.00000000E+00 0.00000000E+00
33  5 0.00000000E+00 0.00000000E+00 0.00000000E+00-2.46439504E+00 0.00000000E+00
33  6 0.00000000E+00 0.00000000E+00 0.00000000E+00-6.96182674E-01 0.00000000E+00
33  7 0.00000000E+00 5.33018842E+00 0.00000000E+00 0.00000000E+00 0.00000000E+00
33  8 0.00000000E+00 0.00000000E+00 0.00000000E+00-1.13173456E-01 0.00000000E+00
33  9 0.00000000E+00-6.63644259E-02 0.00000000E+00 0.00000000E+00 0.00000000E+00
33 10 0.00000000E+00 0.00000000E+00 0.00000000E+00-2.46439504E+00 0.00000000E+00
34  1 8.80811442E-03-1.26641738E-01-7.09880788E-01 0.00000000E+00 0.00000000E+00
34  2-7.07476173E-01 0.00000000E+00 0.00000000E+00 2.33850404E-01-2.03276317E-01
34  3-2.03276317E-01 4.06552634E-01 0.00000000E+00 0.00000000E+00 0.00000000E+00
34  4 1.74358634E+00 0.00000000E+00 0.00000000E+00 2.82857854E-01 2.32023711E-01
34  5 2.32023711E-01-4.64047423E-01 0.00000000E+00 0.00000000E+00 0.00000000E+00
34  6-8.80811442E-03 1.26641738E-01 7.09880788E-01 0.00000000E+00 0.00000000E+00
34  7-7.07476173E-01 0.00000000E+00 0.00000000E+00 2.33850404E-01 2.03276317E-01
34  8 2.03276317E-01-4.06552634E-01 0.00000000E+00 0.00000000E+00 0.00000000E+00
34  9-1.74358634E+00 0.00000000E+00 0.00000000E+00 2.82857854E-01-2.32023711E-01
34 10-2.32023711E-01 4.64047423E-01 0.00000000E+00 0.00000000E+00 0.00000000E+00
35  1-6.64265910E-01-1.35020712E+00-1.55549101E-01 0.00000000E+00 0.00000000E+00
35  2-2.03905520E-01 0.00000000E+00 0.00000000E+00 1.63743172E+00 1.43715895E-01
35  3 1.43715895E-01-2.87431790E-01 0.00000000E+00 0.00000000E+00 0.00000000E+00
35  4 2.77220061E-01 0.00000000E+00 0.00000000E+00 5.55159337E-01-7.43524902E-01
35  5-7.43524902E-01 1.48704980E+00 0.00000000E+00 0.00000000E+00 0.00000000E+00
35  6-6.64265910E-01-1.35020712E+00-1.55549101E-01 0.00000000E+00 0.00000000E+00
35  7 2.03905520E-01 0.00000000E+00 0.00000000E+00-1.63743172E+00 1.43715895E-01
35  8 1.43715895E-01-2.87431790E-01 0.00000000E+00 0.00000000E+00 0.00000000E+00
35  9 2.77220061E-01 0.00000000E+00 0.00000000E+00-5.55159337E-01-7.43524902E-01
35 10-7.43524902E-01 1.48704980E+00 0.00000000E+00 0.00000000E+00 0.00000000E+00
36  1 0.00000000E+00 0.00000000E+00 0.00000000E+00 0.00000000E+00 0.00000000E+00
36  2 0.00000000E+00 0.00000000E+00 0.00000000E+00 0.00000000E+00 0.00000000E+00