!    F2 has a very tiny UHF instability at the equilibrium distance.!
!    Test inspired by
!           "The Hartree-Fock Potential Energy Surface for F2"
!            M.S. Gordon and D.G. Truhlar
!            Theoret. Chim. Acta, 71, 1 (1987)
!    To induce this, it was necessary  to use a somewhat longer distance,
!    where one has to reorder involving sigma orbitals.  These orbitals
!    are then read as the starting orbitals at Re.
!
!    FINAL E= -198.7032563145, 15 iters, <S**2>= 0.010
!    with natural orbital occupations (more digits in log file)
! 2.000000  2.000000  1.999998  1.999998  1.999997  1.999997  1.999990  1.999984
! 1.995193  0.004807  0.000016  0.000010  0.000003  0.000003  0.000002  0.000002
! 0.000000  0.000000  0.000000
!    the two non-2 and non-0 are the sigma/sigma* instability.
!
!    This run takes 2 seconds on 2.66 GHz Cloverton (5 Aug 2016)
!    
 $contrl scftyp=uhf mult=1 runtyp=energy ispher=1 nosym=1 maxit=50 $end
 $system mwords=1 $end
 $basis  gbasis=accd $end
!          how to goose RHF orbs: flip sigma-g and sigma-u here
x$guess  guess=moread norb=46 norder=1 jorder(7)=10 jorder(10)=7 $end
 $guess  guess=moread norb=46 $end
 $scf    dirscf=.t. vvos=.f. uhfnos=.true. $end
 $data
F2...the RHF/ACCD geometry= 0.6691164630*2
Dnh 4

F 9.0  0 0 0.6691164630
 $end

--- OPEN SHELL ORBITALS --- GENERATED AT Sat Aug  6 12:47:26 2016
F2...at geometry= 0.7691164630*2                                      
E(UHF)=     -198.7234586724, E(NUC)=   27.8653229065,   39 ITERS
 $VEC   
 1  1 5.79177135E-04-6.82421163E-04 1.88121419E-03 6.77743418E-11 1.62037902E-11
 1  2-5.10853655E-05-2.19007178E-10-1.11753335E-10 1.83897603E-03-1.45871886E-05
 1  3-1.45871740E-05 2.91743626E-05 0.00000000E+00 3.52298601E-11 0.00000000E+00
 1  4-5.57099394E-04-3.43969947E-11 0.00000000E+00-3.45967871E-04-4.39749770E-04
 1  5-4.39749830E-04 8.79499600E-04 0.00000000E+00-2.49132401E-10-1.19050088E-10
 1  6 1.00135757E+00 2.29417003E-03-5.45059963E-03-1.01244357E-09-5.11828484E-10
 1  7-5.90137522E-04 5.12638073E-10 2.59608339E-10 1.91026178E-03-2.00921449E-04
 1  8-2.00923166E-04 4.01844615E-04-3.01139304E-10 1.91040008E-09 8.50300781E-10
 1  9 1.46630053E-03-7.30030382E-11-4.90264948E-11-4.71211262E-04 5.61003757E-04
 1 10 5.61004345E-04-1.12200810E-03 1.03557944E-10-8.47343148E-10-3.82448476E-10
 2  1 1.00070231E+00-7.09482038E-05-4.51129890E-03-1.48218878E-09-8.92916772E-10
 2  2 4.80324010E-04 6.05422230E-10 3.72294658E-10-1.40491021E-03 3.88870982E-04
 2  3 3.88871149E-04-7.77742131E-04 9.23938999E-11-1.26658663E-09-2.47782048E-10
 2  4 1.57138665E-03-1.31921745E-10-1.08429185E-10 5.74361902E-04 3.01919364E-04
 2  5 3.01919282E-04-6.03838646E-04-3.73129576E-11 3.16823764E-10 1.18115844E-10
 2  6-1.24550097E-03-5.00500990E-04 1.38159309E-03 5.20457710E-11 1.83356725E-11
 2  7 3.72611280E-05-1.21142027E-10-6.23723765E-11-1.31646191E-03-2.56026678E-06
 2  8-2.56027334E-06 5.12054012E-06 0.00000000E+00-2.66466824E-11 0.00000000E+00
 2  9-7.90214526E-04 1.31231409E-11 2.56250039E-11 3.68992171E-04-3.36105706E-04
 2 10-3.36105701E-04 6.72211407E-04 0.00000000E+00 1.38865485E-10 6.50985474E-11
 3  1-1.35234132E-03 1.99351261E-01 1.96611431E-01-8.04370384E-08-3.31572728E-08
 3  2 3.33001699E-02-1.20996212E-08-4.43646318E-09 9.33697894E-03 4.02450541E-04
 3  3 4.02452776E-04-8.04903317E-04 8.98947155E-11-1.18592241E-08-3.97941442E-09
 3  4 6.92083120E-03 4.23769855E-09 1.75274947E-09-2.60319384E-04 7.91295426E-04
 3  5 7.91293516E-04-1.58258894E-03-1.09491505E-09-5.79140317E-09-1.17526281E-09
 3  6 2.78269107E-03 4.64867701E-01 4.83137021E-01-6.49562689E-08-2.46455332E-08
 3  7-4.66155299E-02-2.09367725E-08-1.10674218E-08-3.31718070E-02-6.74450373E-03
 3  8-6.74452703E-03 1.34890308E-02-3.13906411E-09 6.11697473E-08 2.73589381E-08
 3  9 5.83529409E-03 5.67152753E-10 2.73440431E-11 5.58603338E-03-7.86717171E-03
 3 10-7.86715274E-03 1.57343244E-02 3.37049818E-09 2.73007331E-08 1.25994580E-08
 4  1-1.77419086E-03 4.55603365E-01 5.19203625E-01-1.69080953E-07-8.05631164E-08
 4  2-1.48898008E-02-3.44817414E-08-1.67750187E-08 1.13711176E-02 6.08316622E-03
 4  3 6.08317082E-03-1.21663370E-02 1.73846678E-10-2.35519502E-08-7.20652982E-09
 4  4 2.45779549E-02 1.19973485E-08 5.06062633E-09-1.91070645E-03 1.05307897E-04
 4  5 1.05304049E-04-2.10611945E-04-2.71136862E-09-2.49433537E-08-6.92974025E-09
 4  6-2.41776211E-03-2.41560914E-01-2.76413055E-01-1.39334340E-08-9.85855480E-09
 4  7-8.39582152E-02-6.44325914E-09-3.09173426E-09-2.42129975E-02 7.69851476E-04
 4  8 7.69862650E-04-1.53971413E-03 1.33854219E-09-2.97835859E-08-1.31209992E-08
 4  9-1.33565817E-02-1.56267234E-09-2.26176858E-10-1.80319407E-04 3.46225733E-03
 4 10 3.46224744E-03-6.92450478E-03-2.02120747E-09-1.66705863E-08-7.34891421E-09
 5  1 6.24744051E-03 1.19071315E-01 1.67205318E-01 1.58302109E-06 5.06788986E-07
 5  2-1.47768868E-01 1.00741762E-06 3.28501968E-07-8.56945297E-02 5.80234964E-03
 5  3 5.80235054E-03-1.16047002E-02 7.29636512E-11 1.42299015E-08 6.44845359E-09
 5  4 5.83095112E-02 7.68970695E-08 2.49249945E-08 9.82725033E-03 9.24899549E-03
 5  5 9.24899214E-03-1.84979876E-02-9.41384819E-10 4.04076974E-08 1.77855510E-08
 5  6 2.76739131E-03 2.18563370E-02 1.92165364E-02 3.54478403E-06 1.44579845E-06
 5  7 6.67297130E-01 2.11019820E-06 8.60740402E-07 4.10276836E-01 2.78477736E-03
 5  8 2.78478076E-03-5.56955811E-03 1.16244061E-09-3.12404230E-08-1.22598965E-08
 5  9-2.13927974E-02 9.78716603E-08 4.11794874E-08 2.67364644E-02 7.35997747E-03
 5 10 7.35999130E-03-1.47199688E-02 3.10117713E-09-1.73402376E-08-7.55616633E-09
 6  1-5.57760940E-08-6.25803221E-07-7.95129604E-07 3.62796374E-01-4.75547704E-02
 6  2 6.56762430E-07 2.31012421E-01-3.02807521E-02 4.12097783E-07-4.28957623E-08
 6  3-2.50615411E-08 6.79573035E-08-4.08875790E-09 3.41297546E-03-4.47368450E-04
 6  4-2.15571255E-07 1.80354893E-02-2.36407399E-03-3.23627286E-08-5.57428610E-08
 6  5-5.51542674E-08 1.10897128E-07-5.58788886E-10 7.86668466E-03-1.03115244E-03
 6  6-1.68712495E-08-8.97876978E-08-5.77567615E-08 5.59287891E-01-7.33106785E-02
 6  7-3.52324300E-06 3.44688458E-01-4.51812725E-02-2.20681243E-06-2.67201507E-08
 6  8-1.19756934E-08 3.86958441E-08-2.56933856E-09-4.91261704E-03 6.43940236E-04
 6  9 5.59067530E-08 2.37696988E-02-3.11568992E-03-1.53481907E-07-3.75755635E-08
 6 10-3.33202957E-08 7.08958592E-08-1.71539223E-09-6.13327853E-03 8.03946649E-04
 7  1-3.19154529E-08-3.35258972E-07-4.15547515E-07 4.75549582E-02 3.62797077E-01
 7  2 4.16055631E-07 3.02808599E-02 2.31012866E-01 2.64800316E-07-1.51761085E-08
 7  3-2.27166813E-08 3.78927898E-08-1.09443976E-08 4.47367793E-04 3.41297853E-03
 7  4-9.99771527E-08 2.36407529E-03 1.80355410E-02-9.55740644E-09-2.88644233E-08
 7  5-3.31942558E-08 6.20586792E-08-2.89855605E-09 1.03115589E-03 7.86670056E-03
 7  6-7.64424804E-09-5.24323047E-08-4.66854517E-08 7.33105217E-02 5.59287218E-01
 7  7-1.90032485E-06 4.51812127E-02 3.44688249E-01-1.18648832E-06-8.57187145E-09
 7  8-1.38592810E-08 2.24311524E-08-9.54801216E-09-6.43936845E-04-4.91261092E-03
 7  9 4.17644591E-09 3.11571172E-03 2.37698121E-02-7.72687075E-08-1.69695993E-08
 7 10-2.25762344E-08 3.95458338E-08-5.81495606E-09-8.03935896E-04-6.13324850E-03
 8  1-1.66304651E-08 5.96153904E-08 1.32904676E-07 5.80510988E-01-2.36828177E-02
 8  2-5.30893238E-07 3.84306414E-01-1.56783882E-02-4.07696906E-07-1.54629530E-08
 8  3 1.32860666E-08 2.17688646E-09-8.28498565E-09-5.06544286E-05 2.06562271E-06
 8  4 1.56300683E-07 4.66171670E-02-1.90183789E-03-2.14401201E-08 2.84044072E-08
 8  5 1.87162844E-08-4.71206916E-08 8.43345790E-10 2.32481653E-03-9.48448039E-05
 8  6 3.28020838E-09 5.15715444E-08 9.48706306E-08-4.14122458E-01 1.68946307E-02
 8  7 3.17349922E-07-2.67695637E-01 1.09209487E-02 1.74452325E-07 1.24825356E-08
 8  8 2.78498391E-09-1.52675195E-08 2.30358933E-09-1.53798528E-03 6.27437246E-05
 8  9 8.77287878E-09-3.10797239E-02 1.26792456E-03 3.10436063E-08-4.83979349E-09
 8 10-3.88132101E-10 5.22792560E-09-5.14642056E-10-2.79807188E-04 1.14099004E-05
 9  1-8.01193104E-09 5.24399502E-08 1.07983797E-07 2.36826912E-02 5.80510563E-01
 9  2-1.63647760E-07 1.56782764E-02 3.84306122E-01-1.29817209E-07 7.47217908E-09
 9  3-7.62813586E-09 1.55956777E-10-1.76477562E-08-2.06731722E-06-5.06559989E-05
 9  4 9.28350781E-08 1.90180903E-03 4.66172281E-02 1.28014067E-09 1.26355915E-08
 9  5 1.05950040E-08-2.32305955E-08 1.76354487E-09 9.48380723E-05 2.32481692E-03
 9  6-2.30791193E-10 7.26617290E-09 1.87523931E-08-1.68948343E-02-4.14123024E-01
 9  7 2.90438912E-07-1.09211112E-02-2.67696137E-01 1.78857765E-07 1.47518507E-09
 9  8 6.00386266E-09-7.47904773E-09 6.37092169E-09-6.27440698E-05-1.53798456E-03
 9  9-3.86100703E-09-1.26796156E-03-3.10798977E-02 2.58992695E-08-3.10851391E-10
 9 10 6.17337227E-10-3.06485836E-10-2.35450676E-10-1.14194235E-05-2.79819700E-04
10  1-4.14615934E-04-6.81149486E-02-1.48405168E-01-2.89531721E-07-4.78918338E-08
10  2-4.58149139E-01-2.55301641E-07-4.66406964E-08-4.28686207E-01-2.55658123E-03
10  3-2.55658308E-03 5.11316431E-03-1.91690046E-10 1.41256156E-08 7.10200520E-09
10  4-8.32452560E-01-3.41060563E-07-5.19753325E-08-9.41852809E-01 7.58352557E-03
10  5 7.58352084E-03-1.51670464E-02-6.65719096E-10-1.03655727E-08-4.29355315E-09
10  6 1.09882242E-02 1.08961286E-01 1.53777319E-01 1.40491440E-07 3.77485748E-08
10  7-2.16846070E-01 1.45618473E-07 4.30548259E-08-1.97552525E-01 4.83592029E-03
10  8 4.83591409E-03-9.67183439E-03-1.00374592E-09 1.84356638E-08 7.17173885E-09
10  9 1.05529756E+00 1.37775679E-07 4.14057553E-08-6.20630373E-01 2.34328480E-03
10 10 2.34327753E-03-4.68656233E-03-1.40633249E-09-2.07390152E-09-3.04417439E-09
11  1 1.71154620E-02-1.41155798E-02-3.11316676E-01-8.57794530E-08-2.81391445E-08
11  2-1.71017513E-01-7.01603980E-08-3.30710764E-08-1.25748880E-01 1.09269597E-03
11  3 1.09269523E-03-2.18539120E-03-1.53744221E-10 8.14317179E-09 3.78942808E-09
11  4 2.40257288E+00-4.35487901E-07-9.59890949E-08 8.87230157E-01-1.41182713E-02
11  5-1.41182730E-02 2.82365443E-02 0.00000000E+00-5.38438411E-09-2.80221553E-09
11  6 6.63189582E-03-3.89908687E-02-1.94348636E-01-9.85341774E-09-1.49525875E-08
11  7-1.82985521E-01-4.62567694E-08-3.88549533E-08-2.06677142E-01-8.61400543E-04
11  8-8.61398696E-04 1.72279924E-03 2.51378529E-10-4.68077381E-09-2.57512535E-09
11  9-1.31969948E+00 6.50487164E-07 3.08197058E-07 1.79156446E+00 2.23361499E-02
11 10 2.23361676E-02-4.46723176E-02 2.61471716E-09 1.47517310E-08 6.48286609E-09
12  1 1.31908552E-02-4.59062262E-02-3.20326988E-01-2.73834288E-07 1.24947502E-08
12  2 3.13802384E-01-5.85403155E-07 2.68145102E-08 3.64457949E-01-1.85367714E-03
12  3-1.85367627E-03 3.70735341E-03-1.78453327E-10-6.99399909E-09-3.10647929E-09
12  4-1.01154600E+00 1.94474243E-06-7.40012463E-09-1.42765681E+00 1.94285273E-02
12  5 1.94285309E-02-3.88570582E-02-5.64524939E-11-1.18566218E-08 2.44571535E-10
12  6 1.77447848E-02-6.61172279E-02-5.14253137E-01-3.38772082E-07 1.55449685E-08
12  7 1.24689737E-01-6.30604511E-07 2.70835760E-08 6.97641869E-02 1.05895948E-03
12  8 1.05896517E-03-2.11792465E-03 9.39064212E-10-1.73697995E-08-7.72296650E-09
12  9 2.31207611E+00 1.22417099E-06-1.69839194E-07-8.13366278E-01-1.76938318E-02
12 10-1.76938126E-02 3.53876444E-02 3.45234182E-09 2.71444690E-08 6.16209617E-09
13  1-3.36412412E-08 1.20454259E-07 9.13804555E-07-1.31127836E-01 9.17620249E-03
13  2-7.92389005E-07-2.52997651E-01 1.77045428E-02-9.34731727E-07 7.87910255E-09
13  3 7.52128558E-10-8.63123111E-09 1.83260257E-09-1.01801585E-04 7.12371826E-06
13  4 1.72551350E-06 6.04554008E-01-4.23060849E-02 3.00463748E-06-3.41619103E-08
13  5-4.37691460E-08 7.79310562E-08 2.16237247E-09-5.84071958E-03 4.08728780E-04
13  6-4.38076690E-08 1.96455004E-07 1.38965895E-06-1.29066019E-01 9.03192137E-03
13  7-2.99053932E-07-2.52140291E-01 1.76445510E-02-1.60421166E-07-2.82459915E-10
13  8-2.90650482E-09 3.18896473E-09 5.72895563E-10 7.32189364E-04-5.12385445E-05
13  9-5.19460977E-06 6.59681065E-01-4.61639509E-02 1.68446701E-06 4.22293639E-08
13 10 3.61063421E-08-7.83357059E-08 7.92870063E-10 6.02671732E-03-4.21745095E-04
14  1-1.61985936E-09 9.56869024E-09 9.79339061E-08-9.17619786E-03-1.31127856E-01
14  2 2.36448144E-08-1.77045491E-02-2.52997686E-01 1.14489846E-08-1.50206286E-09
14  3 1.79831975E-09-2.96256898E-10 4.29614656E-09-7.12444636E-06-1.01803765E-04
14  4-5.87656764E-07 4.23062309E-02 6.04554206E-01-2.60394751E-07 3.40798997E-09
14  5 7.49815373E-09-1.09061437E-08 5.88463957E-09-4.08727871E-04-5.84072469E-03
14  6-1.31345862E-09 1.45495413E-08 6.62682707E-08-9.03194358E-03-1.29066106E-01
14  7 3.11470474E-08-1.76445632E-02-2.52140381E-01 3.85762858E-08-5.19704062E-11
14  8 1.09070535E-09-1.03873495E-09 1.69743359E-09 5.12372613E-05 7.32187996E-04
14  9 3.23830488E-07 4.61638088E-02 6.59680879E-01-3.22991503E-07-5.94323029E-09
14 10-4.49342740E-09 1.04366577E-08 3.82240118E-09 4.21743760E-04 6.02671637E-03
15  1 2.06021804E-09-7.30336973E-09-1.38037726E-08-1.04590665E-01 6.29122663E-03
15  2-1.84706121E-07-2.30577380E-01 1.38694504E-02-1.48508067E-07 3.04383104E-09
15  3-3.01526740E-09-2.85636376E-11 1.47298015E-09-6.34512802E-03 3.81665079E-04
15  4 1.37247299E-06 1.43047955E+00-8.60446407E-02 5.11659630E-07-9.01960773E-09
15  5-2.02665694E-08 2.92861772E-08 2.48021781E-09 1.34764089E-02-8.10617362E-04
15  6-6.99131544E-09 3.57848438E-08 2.57809509E-07 9.68512424E-02-5.82567878E-03
15  7-1.53790992E-07 2.13602420E-01-1.28483550E-02-1.78217465E-07-4.16171283E-09
15  8-2.28083725E-09 6.44255008E-09-4.01368174E-10-6.90698135E-03 4.15461162E-04
15  9-1.40810109E-06-1.40401748E+00 8.44528586E-02 1.16093964E-06 1.60850494E-08
15 10 3.04511910E-08-4.65362404E-08-2.86290420E-09 1.15000810E-02-6.91740049E-04
16  1 3.44953123E-09-4.49826128E-09-4.61264995E-08-6.29120612E-03-1.04590676E-01
16  2-5.65373272E-08-1.38694122E-02-2.30577360E-01-3.88065243E-08-8.74531756E-10
16  3 1.78289609E-09-9.08364333E-10 3.64807823E-09-3.81664845E-04-6.34512837E-03
16  4 5.95871637E-07 8.60445766E-02 1.43047946E+00 2.19588086E-07-8.42575705E-09
16  5-3.91659120E-09 1.23423482E-08 6.73784454E-09 8.10620019E-04 1.34764135E-02
16  6-1.18980972E-09 8.50905941E-09 5.92425673E-08 5.82570587E-03 9.68513348E-02
16  7-5.45738501E-08 1.28484011E-02 2.13602547E-01-6.32225734E-08-8.21540507E-10
16  8-1.63684167E-09 2.45838218E-09-1.22836685E-09-4.15461186E-04-6.90698099E-03
16  9-5.22802023E-07-8.44529302E-02-1.40401758E+00 4.49710393E-07 1.18294717E-08
16 10 6.77484239E-09-1.86043141E-08-8.49159575E-09 6.91738757E-04 1.15000758E-02
17  1 2.48474781E-02-2.80915225E-02-5.04821561E-01-1.15977428E-07-2.71358011E-08
17  2-1.49721732E-01-2.01217770E-07-4.85570535E-08-3.04617969E-01 7.28739420E-03
17  3 7.28739362E-03-1.45747878E-02-3.62827147E-10 5.20507364E-09 2.99897519E-09
17  4 6.06156058E-01 4.56120642E-07 9.77060747E-08 1.17778510E+00-1.53733429E-02
17  5-1.53733433E-02 3.07466862E-02 5.39550764E-11 4.29421915E-09 8.32454810E-10
17  6 2.27042450E-02-5.10791002E-03-4.04207178E-01 2.49793400E-08 9.30584957E-09
17  7 6.93810047E-03 2.80086171E-09-5.27972307E-09 1.49311669E-01 9.25711092E-03
17  8 9.25711263E-03-1.85142235E-02 3.03483113E-10-8.71067148E-09-3.70788722E-09
17  9-2.00488258E-01-2.02830558E-07-2.17558130E-08-6.99227764E-01-7.23540168E-04
17 10-7.23514940E-04 1.44705511E-03 4.64495239E-09 1.14034379E-08 3.98849946E-09
18  1 2.23254980E-02-5.42901007E-02-7.52644572E-01-3.12337164E-09-7.28836069E-09
18  2 9.45073975E-02 8.29352334E-09-1.20570965E-08 4.56409399E-01 8.61132224E-03
18  3 8.61132288E-03-1.72226451E-02-2.33671677E-10 1.60150934E-09 4.74272196E-10
18  4 6.43734101E+00-8.93475916E-08-2.64016370E-08 2.51886913E+00-6.67132668E-02
18  5-6.67132751E-02 1.33426542E-01-1.82344215E-09-9.64999009E-09-5.90973915E-09
18  6-1.98038681E-02 4.92020632E-02 7.19585755E-01-8.04392235E-09-4.87522269E-09
18  7 7.44679930E-02-5.60415683E-08-2.59345444E-08 3.91170375E-01-1.18600076E-02
18  8-1.18600112E-02 2.37200188E-02-5.75680379E-10 1.49331945E-08 6.89610227E-09
18  9-6.39847984E+00 1.29399089E-07 5.35363006E-08 2.58538311E+00 6.62399006E-02
18 10 6.62398623E-02-1.32479763E-01-5.49886769E-09-1.99938051E-08-7.87809057E-09
19  1-1.61207364E-08-4.57560844E-08 1.94424607E-08 5.16285832E-02 1.71149200E-01
19  2-9.58949211E-09-1.73549856E-02-5.75319059E-02-3.80698752E-08 1.62147202E-08
19  3-2.01977746E-08 3.98305434E-09-1.50505495E-07-4.83204074E-04-1.60182877E-03
19  4-6.44134536E-08 1.59824860E-02 5.29820974E-02 9.37298871E-09-6.70441852E-07
19  5 6.36997130E-07 3.34447220E-08 5.75992341E-06-1.59083608E-01-5.27363480E-01
19  6-2.85979758E-08-8.70908488E-08 4.87625805E-08 4.74831292E-02 1.57406924E-01
19  7 2.27027277E-09-1.60754721E-02-5.32902345E-02-1.70348190E-08 1.22869896E-08
19  8-1.82821368E-08 5.99514726E-09-1.32662629E-07 3.11043601E-03 1.03111176E-02
19  9 2.47122928E-08 6.97095949E-03 2.31087260E-02-4.08249783E-08-7.19956630E-07
19 10 6.42650862E-07 7.73057678E-08 5.93848327E-06 1.75988689E-01 5.83404032E-01
20  1-1.56799968E-08-4.97936002E-08 5.34282949E-09 1.71149187E-01-5.16285780E-02
20  2-1.28352597E-08-5.75319023E-02 1.73549669E-02-1.69559509E-08-1.33165789E-07
20  3 1.27538057E-07 5.62773274E-09-2.08493218E-08-1.60182705E-03 4.83204442E-04
20  4-3.49228222E-08 5.29820484E-02-1.59824764E-02 1.59892815E-08 4.97425535E-06
20  5-5.01203836E-06 3.77830164E-08 7.52487531E-07-5.27363523E-01 1.59083611E-01
20  6-3.28467550E-08-1.00051027E-07 5.55663527E-08 1.57407001E-01-4.74831266E-02
20  7-2.77181959E-10-5.32903571E-02 1.60754629E-02-1.11891166E-08-1.18621082E-07
20  8 1.11165710E-07 7.45537227E-09-1.74874277E-08 1.03111217E-02-3.11043521E-03
20  9-2.27195641E-09 2.31088210E-02-6.97095778E-03-3.43608874E-08 5.10376177E-06
20 10-5.19171415E-06 8.79523796E-08 7.84413407E-07 5.83403967E-01-1.75988691E-01
21  1-5.40569826E-10 7.10194683E-10 4.85544393E-09-6.03705137E-07-1.48800022E-06
21  2-1.01393065E-09 2.26322950E-07 5.56991061E-07 1.71878517E-08 5.65688582E-04
21  3-5.65688296E-04-2.86047462E-10-1.74442251E-02 4.26536670E-09 8.01219570E-09
21  4 7.54859521E-08-1.86080051E-07-4.58168545E-07 2.44466404E-08-2.17205865E-02
21  5 2.17205766E-02 9.86952046E-09 6.69800145E-01 1.84681170E-06 4.53905164E-06
21  6-4.03588490E-09-9.78246309E-09 1.83451931E-08-5.57296979E-07-1.37701931E-06
21  7 1.57856940E-09 2.01003776E-07 5.06072433E-07 7.86901266E-09 5.31045343E-04
21  8-5.31046289E-04 9.46033165E-10-1.63759121E-02-3.23706045E-08-7.97077470E-08
21  9-8.74424273E-08-9.48977336E-08-2.38329024E-07 3.68793660E-08-2.17000929E-02
21 10 2.17001124E-02-1.95069058E-08 6.69168703E-01-1.99710555E-06-4.91551372E-06
22  1 1.10644438E-09-7.21763170E-10-1.10898025E-08-1.49261193E-06 6.03276370E-07
22  2 2.51710287E-09 5.56215891E-07-2.27006740E-07-5.65016106E-08-1.51071432E-02
22  3 1.51071409E-02 2.31738323E-09-6.53200745E-04 8.01087207E-09-4.28610324E-09
22  4-2.47984811E-07-4.58541687E-07 1.86387913E-07-8.42184116E-08 5.80063958E-01
22  5-5.80063924E-01-3.42946439E-08 2.50807672E-02 4.54269839E-06-1.85022220E-06
22  6 1.17910020E-08 2.75354026E-08-5.58681950E-08-1.38120868E-06 5.56931388E-07
22  7-2.94774579E-09 5.05313205E-07-2.01209196E-07-3.46556857E-08-1.41819540E-02
22  8 1.41819577E-02-3.76908897E-09-6.13198890E-04-7.97624981E-08 3.24397148E-08
22  9 2.85791509E-07-2.38417116E-07 9.48035100E-08-1.16846265E-07 5.79517064E-01
22 10-5.79517128E-01 6.39170509E-08 2.50571202E-02-4.91954602E-06 2.00090429E-06
23  1 8.62395542E-03-1.54142834E-02-2.49622015E-01-1.06573740E-07-4.08038575E-08
23  2 1.26789977E-01 1.30551323E-07 4.59233004E-08-4.43170677E-01 1.22029533E-03
23  3 1.22028764E-03-2.44058297E-03-1.03385523E-09-7.69877806E-09-3.49194523E-09
23  4-4.29072175E-01 1.60927188E-07 7.93371207E-08 2.25627686E-01-1.33436366E-01
23  5-1.33435932E-01 2.66872298E-01 6.69049483E-08 2.54239433E-07 1.16871224E-07
23  6-1.19425560E-02-4.76401583E-02-1.20199882E-01-6.50468525E-07-2.95165768E-07
23  7-4.67126881E-01 8.87134986E-07 4.01384927E-07 6.51007536E-01 2.98390618E-03
23  8 2.98391614E-03-5.96782232E-03 1.34482261E-09-2.69846714E-09-1.25142603E-09
23  9 4.49319225E-01-5.26956056E-07-2.40467083E-07-7.33764603E-01-4.38092877E-01
23 10-4.38093244E-01 8.76186122E-01-5.53407635E-08 3.48243339E-07 1.56239132E-07
24  1 1.19065127E-09 5.09025254E-09 8.03718398E-09-6.35882752E-08-1.18741789E-07
24  2-9.25665833E-09 8.61359427E-08 1.57774521E-07 1.93336484E-08-6.99903178E-04
24  3 6.99902579E-04 5.99407830E-10-1.17618537E-02 2.37631521E-09 2.40738721E-09
24  4-3.90578359E-09-1.19513199E-07-2.30929425E-07-2.50741893E-08 4.56821760E-02
24  5-4.56821535E-02-2.25561365E-08 7.67688735E-01-1.90681093E-07-3.57834932E-07
24  6 4.31220464E-09 1.16599911E-08-5.93265096E-09 1.15109404E-07 2.36041219E-07
24  7 3.12945606E-08-1.30315446E-07-2.74894291E-07-4.80840590E-08 6.37599455E-04
24  8-6.37599363E-04-9.16077329E-11 1.07148646E-02-2.57271218E-09-4.99305791E-09
24  9 1.37085562E-08 1.36033115E-07 2.74221448E-07 2.97319863E-08-4.56550070E-02
24 10 4.56550503E-02-4.32805388E-08-7.67232679E-01-1.13184216E-07-2.35616121E-07
25  1 7.46547180E-09 2.59947409E-08 3.72999479E-08 1.22582458E-07-6.17521679E-08
25  2-5.58110486E-08-1.58118442E-07 8.65803814E-08 1.08355941E-07 1.01860637E-02
25  3-1.01860646E-02 9.05056201E-10-8.08178231E-04-2.36085873E-09 2.39734483E-09
25  4-3.15401700E-08 2.31629662E-07-1.18957006E-07-1.36742521E-07-6.64837888E-01
25  5 6.64838005E-01-1.16266207E-07 5.27492203E-02 3.57740374E-07-1.90519733E-07
25  6 2.37825931E-08 6.24834297E-08-3.68539580E-08-2.39488835E-07 1.12150599E-07
25  7 1.56554240E-07 2.75153402E-07-1.27912507E-07-2.49126754E-07-9.27934395E-03
25  8 9.27934590E-03-1.95277171E-09 7.36236381E-04 5.04316273E-09-2.56128303E-09
25  9 8.02261640E-08-2.74837732E-07 1.34573640E-07 1.53199677E-07 6.64443102E-01
25 10-6.64442879E-01-2.23642598E-07-5.27178861E-02 2.35452408E-07-1.12612901E-07
26  1-1.43142717E-02-8.47987492E-03 4.41845200E-02-1.19315506E-06-2.62454430E-07
26  2 4.79821626E-01 1.28305066E-06 1.97732590E-07-2.13284849E-01 1.29201127E-02
26  3 1.29201120E-02-2.58402247E-02 3.70510203E-10 1.19729647E-07 4.73108752E-08
26  4 1.30627527E+00-4.35815256E-06-1.69673496E-06 8.32406418E-01-5.25645217E-01
26  5-5.25645207E-01 1.05129042E+00 3.05277914E-10-5.22001550E-06-2.09922047E-06
26  6 1.09627907E-02-2.85369327E-02-2.59486756E-01 9.11671787E-06 4.02897131E-06
26  7 3.04653107E-01-1.19513689E-05-5.29060126E-06 1.31650703E-01-9.65955149E-03
26  8-9.65954770E-03 1.93190992E-02 5.72815953E-10 1.12897000E-07 4.81484810E-08
26  9-1.25709483E+00 8.05948528E-06 3.46279063E-06 4.57264601E-01 2.23594054E-01
26 10 2.23593997E-01-4.47188051E-01-8.11530614E-09-7.23363215E-06-3.08927406E-06
27  1-1.57742458E-07-2.70654291E-08 7.64373575E-07 1.91398944E-02-3.11278921E-03
27  2 5.32922487E-06 3.76275431E-03-6.11966178E-04-1.77705926E-06 1.46639313E-07
27  3 1.56969166E-07-3.03608479E-07-1.03573968E-09-9.45308099E-03 1.53739328E-03
27  4 1.55883171E-05 2.96560417E-01-4.82308259E-02 9.38304578E-06-5.56546476E-06
27  5-6.03993353E-06 1.16053983E-05 6.29056641E-08 3.79846843E-01-6.17760459E-02
27  6 9.85868589E-08-3.83847700E-07-2.70891947E-06-7.66204978E-01 1.24611053E-01
27  7 3.55716481E-06 1.00281412E+00-1.63091759E-01 1.52344124E-06-9.14439394E-08
27  8-1.27458685E-07 2.18902624E-07 5.19782443E-09-9.82785999E-03 1.59834464E-03
27  9-1.51592119E-05-6.45082268E-01 1.04912364E-01 5.82266023E-06 2.61767305E-06
27 10 3.26238210E-06-5.88005515E-06-8.70184167E-08 5.74267709E-01-9.33955004E-02
28  1-1.00804371E-07-1.66776185E-08 4.91474029E-07 3.11296449E-03 1.91409895E-02
28  2 3.41657434E-06 6.11740077E-04 3.76133860E-03-1.12962299E-06 9.81545565E-08
28  3 9.63573957E-08-1.94511952E-07-5.98506560E-09-1.53739712E-03-9.45310418E-03
28  4 1.00286367E-05 4.82309526E-02 2.96561219E-01 6.02508263E-06-3.77674562E-06
28  5-3.67022805E-06 7.44697367E-06 2.73467410E-07 6.17761809E-02 3.79847752E-01
28  6 6.17991393E-08-2.48264489E-07-1.73009343E-06-1.24611018E-01-7.66204735E-01
28  7 2.28879293E-06 1.63091655E-01 1.00281345E+00 9.72032470E-07-7.49797465E-08
28  8-6.56155626E-08 1.40595309E-07 2.11819325E-08-1.59834628E-03-9.82787086E-03
28  9-9.75498831E-06-1.04912377E-01-6.45082352E-01 3.75465677E-06 1.96925370E-06
28 10 1.82201817E-06-3.79127188E-06-3.71546940E-07 9.33955479E-02 5.74268007E-01
29  1 8.09233259E-08 1.51047986E-07-1.86168436E-07-6.98297674E-01-4.10310904E-01
29  2-4.18337930E-07 9.14477961E-01 5.37335748E-01 2.12044371E-07 7.73023930E-09
29  3-1.53809997E-08 7.65076043E-09 1.99901662E-08 1.28284147E-02 7.53780473E-03
29  4-1.08152657E-06-5.00618654E-01-2.94156973E-01-7.88267914E-07 5.17062833E-07
29  5 7.24665601E-07-1.24172843E-06-1.67896429E-07-4.49143456E-01-2.63910697E-01
29  6 2.58836101E-08 1.43802684E-07 2.74988086E-07-2.00634252E-01-1.17890789E-01
29  7-4.57572665E-07 2.97829754E-01 1.75001802E-01-6.18661616E-09 1.64036300E-08
29  8 1.96116908E-08-3.60153208E-08-2.60978847E-09 2.18013944E-03 1.28101408E-03
29  9 1.04402282E-06 8.43476458E-02 4.95610930E-02-3.59612226E-07-3.21484838E-08
29 10-1.86492070E-07 2.18640554E-07 1.29903497E-07-1.58148134E-01-9.29253546E-02
30  1-1.09948819E-08-1.31270191E-08 2.04731608E-08 4.10310928E-01-6.98297662E-01
30  2 1.84367758E-07-5.37335694E-01 9.14477984E-01-4.14980623E-08-1.24841153E-08
30  3 2.19570122E-08-9.47289693E-09 1.37328840E-08-7.53781722E-03 1.28284028E-02
30  4 5.85743327E-07 2.94157286E-01-5.00618370E-01 3.57828003E-07-9.91282860E-08
30  5-3.90544184E-07 4.89672470E-07-1.18938664E-07 2.63911147E-01-4.49143064E-01
30  6-1.22173537E-09-3.23842385E-08-1.19732250E-07 1.17889939E-01-2.00635011E-01
30  7 1.57311855E-07-1.75000745E-01 2.97830702E-01 5.75655085E-08-3.79113325E-09
30  8-8.36529857E-09 1.21564318E-08-1.74991560E-09-1.28102574E-03 2.18012973E-03
30  9-5.53411775E-07-4.95617895E-02 8.43470272E-02 1.99038075E-07-3.43358533E-08
30 10 1.91626193E-07-1.57290339E-07 8.90047922E-08 9.29260318E-02-1.58147561E-01
31  1-7.21450887E-02-2.74262153E-01-1.70245848E-01-3.02384704E-07-1.29574989E-07
31  2-2.70359036E-01 3.84404590E-07 1.83661183E-07-8.47937455E-01-3.24816345E-02
31  3-3.24816384E-02 6.49632729E-02-3.55437524E-10 1.04983745E-08 4.70180461E-09
31  4-2.61354435E+00-6.88197081E-08-2.83610662E-08-9.92430142E-01 1.94257971E-01
31  5 1.94257960E-01-3.88515931E-01-2.31148583E-09 1.75064930E-07 1.09031386E-07
31  6 1.43002843E-01 3.60185297E-01-4.93003502E-01-2.28109309E-07-8.64895337E-08
31  7 7.37961034E-01 1.97534472E-07 5.64725099E-08-1.72956898E+00-7.57824053E-03
31  8-7.57824426E-03 1.51564848E-02-8.68201863E-10 1.99431308E-08 8.86052437E-09
31  9 2.94585645E+00-1.23652558E-07-5.13051916E-08-8.00772493E-01-4.96647199E-01
31 10-4.96647140E-01 9.93294339E-01 8.69936785E-09 2.37723071E-07 1.30948381E-07
32  1 1.45800934E-01 3.86628371E-01-4.25924218E-01-1.49458031E-07-1.25644455E-06
32  2-8.28233094E-01 1.61844951E-07 2.52475995E-06 1.87469802E+00 3.50620605E-03
32  3 3.50620746E-03-7.01241351E-03 3.36122421E-10 6.11723689E-09-4.60626785E-08
32  4 3.27025048E+00-6.87435427E-08-4.51657839E-07 9.04808119E-01-4.67947987E-01
32  5-4.67947997E-01 9.35895984E-01-1.35648251E-09-1.15249076E-08 2.41150162E-06
32  6-1.55705915E-01-4.65391469E-01 1.27768202E-01-3.94106392E-08 1.18087628E-06
32  7 3.35056158E-02 1.46025638E-08-2.46989417E-06 1.15313847E+00-3.15255816E-02
32  8-3.15255665E-02 6.30511481E-02 2.08108331E-09-2.74424130E-08-3.77962816E-08
32  9-3.08031006E+00 1.48353468E-08 4.32976987E-07 1.09173707E+00 2.50124596E-01
32 10 2.50124563E-01-5.00249159E-01-5.77864297E-09-5.64464556E-09 2.34666489E-06
33  1 2.86487402E-08 6.76525292E-08-6.31542944E-08-4.58290409E-01-3.26683835E-05
33  2 5.82867455E-08 9.27186157E-01 6.61041863E-05-5.91750552E-08 8.67087763E-09
33  3 6.38054611E-09-1.50514237E-08 2.12305243E-09-1.84764143E-02-1.31743480E-06
33  4 2.51645524E-07-1.61872943E-01-1.15404945E-05 1.15413392E-07 5.23394440E-08
33  5 1.21493055E-08-6.44887496E-08 8.49619312E-09 9.01463644E-01 6.42826052E-05
33  6-7.54980690E-08-1.76968872E-07 2.81064659E-07 4.45198392E-01 3.17639208E-05
33  7-1.66846417E-07-9.23232133E-01-6.58526599E-05 1.43279091E-07 1.34338612E-08
33  8-1.02183620E-08-3.21549920E-09 6.23139240E-09-9.42943017E-03-6.72267625E-07
33  9-3.50522923E-07 1.59724814E-01 1.13973084E-05 7.32764793E-08-3.39241447E-08
33 10 9.48048065E-08-6.08806617E-08-3.51424684E-08 8.77328485E-01 6.25541957E-05
34  1-3.66597089E-07-9.77289507E-07 1.08480375E-06 3.26946132E-05-4.58290385E-01
34  2 2.25377269E-06-6.61256567E-05 9.27186116E-01-5.00724502E-06-6.75602806E-09
34  3-3.07889522E-09 9.83492327E-09 1.41139887E-09 1.31715665E-06-1.84764132E-02
34  4-8.52297761E-06 1.15447839E-05-1.61872948E-01-2.32764087E-06 1.24574892E-06
34  5 1.26128829E-06-2.50703722E-06 2.40668959E-08-6.42827690E-05 9.01463620E-01
34  6 3.84050279E-07 1.16670141E-06-2.22964463E-07-3.17279673E-05 4.45198516E-01
34  7-1.81658482E-07 6.58172419E-05-9.23232232E-01-2.96612242E-06 7.98709455E-08
34  8 9.05844269E-08-1.70455372E-07 1.35538908E-08 6.72613055E-07-9.42943124E-03
34  9 7.97821525E-06-1.13825259E-05 1.59724866E-01-2.85680479E-06-6.11228261E-07
34 10-6.72985809E-07 1.28421407E-06-7.50961039E-08-6.25662267E-05 8.77328432E-01
35  1-5.18962843E-01-1.23653518E+00 1.56312395E+00-1.13323112E-07-5.70870279E-08
35  2-2.98532174E-03 6.40624396E-08 4.19205036E-08-1.74978037E-01-1.81427087E-02
35  3-1.81427145E-02 3.62854232E-02-6.13783586E-10 1.57112530E-08 6.84656948E-09
35  4-7.18118042E-01-4.62920720E-08-2.29201838E-08-1.71817723E-01 9.46356126E-02
35  5 9.46356394E-02-1.89271252E-01 3.10158913E-09-5.54505628E-08-1.16871297E-08
35  6-5.15609931E-01-1.20867984E+00 1.60800383E+00-5.06453229E-08-1.43994032E-08
35  7 4.49897828E-02 5.81444934E-08 1.44363636E-08-9.20124741E-02-1.02102923E-02
35  8-1.02102704E-02 2.04205627E-02 3.04307264E-09-4.50926877E-08-2.03294808E-08
35  9-2.75202140E-01 6.05070188E-09 4.63981261E-09 3.13734974E-02 2.17523538E-02
35 10 2.17522959E-02-4.35046498E-02-8.67420697E-09-6.03481996E-08-1.69763547E-08
36  1-7.86979731E-01-1.59275768E+00 3.13102498E+00-4.21415248E-08-1.84218909E-08