!   singlet UHF natural orbitals using spherical harmonics: 45 AOs, 42 MOs.
!   P.Pulay, T.P.Hamilton, J.Chem.Phys. 88,4926(1988) - Table V.
!   FINAL E=-224.3309652879, 15 iter, <S**2>= 0.930, Occno=1.9974,1.2934,0.7066
!   lit=    -224.330965                                    1.9974,1.2934,0.7066
!   Since the UHF wavefunction loses spatial symmetry, the computation
!   must have symmetry turned off.  MIX generates unequal alpha/beta orbs.
!
!   This run takes 1 seconds on almost anything ( 8 Nov 2005)
!
 $contrl scftyp=uhf mult=1 runtyp=energy coord=zmt nosym=1 ispher=1 $end
 $system timlim=600 memory=1000000 $end
 $basis  gbasis=n31 ngauss=6 ndfunc=1 $end
 $guess  guess=moread norb=45 mix=.true. $end
 $scf    uhfnos=.true. $end
 $data
O3...Pulay's geometry
Cnv 2

O
O 1 rOO
O 1 rOO 2 aOOO

rOO=1.2717
aOOO=116.783
 $end

--- RHF ORBITALS --- GENERATED AT 15:04:03 CST  5-FEB-1999
O3...Pulay's geometry                                                           
E(RHF)=     -224.2451431976, E(NUC)=   68.8983854026,   15 ITERS
 $VEC
 1  1 9.95958493E-01 2.18187894E-02 0.00000000E+00 0.00000000E+00 1.97031790E-03
 1  2-9.77645155E-03 0.00000000E+00 0.00000000E+00-3.20984841E-03-9.55055472E-05
 1  3 1.50014296E-04-5.45087485E-05 0.00000000E+00 0.00000000E+00 0.00000000E+00
 1  4 1.58308971E-03-2.06969786E-04 9.10778744E-05 0.00000000E+00-5.63789781E-05
 1  5 2.96505217E-03 1.50608655E-03 0.00000000E+00-3.76463063E-04-1.62568256E-04
 1  6 3.26631718E-04-1.64063462E-04 0.00000000E+00 4.57334434E-04 0.00000000E+00
 1  7 1.58308971E-03-2.06969786E-04-9.10778744E-05 0.00000000E+00-5.63789781E-05
 1  8 2.96505217E-03-1.50608655E-03 0.00000000E+00-3.76463063E-04-1.62568256E-04
 1  9 3.26631718E-04-1.64063462E-04 0.00000000E+00-4.57334434E-04 0.00000000E+00
 2  1 0.00000000E+00 0.00000000E+00-8.75700317E-05 0.00000000E+00 0.00000000E+00
 2  2 0.00000000E+00-2.23071720E-03 0.00000000E+00 0.00000000E+00 0.00000000E+00
 2  3 0.00000000E+00 0.00000000E+00 0.00000000E+00 6.94528939E-04 0.00000000E+00
 2  4 7.04213786E-01 1.52340473E-02 1.35101302E-03 0.00000000E+00-6.68518598E-04
 2  5-5.62466621E-03-1.98013811E-03 0.00000000E+00 1.10951144E-03-1.75369047E-04
 2  6 1.56112851E-04 1.92561963E-05 0.00000000E+00 2.87475710E-04 0.00000000E+00
 2  7-7.04213786E-01-1.52340473E-02 1.35101302E-03 0.00000000E+00 6.68518598E-04
 2  8 5.62466621E-03-1.98013811E-03 0.00000000E+00-1.10951144E-03 1.75369047E-04
 2  9-1.56112851E-04-1.92561963E-05 0.00000000E+00 2.87475710E-04 0.00000000E+00
 3  1-2.23292900E-03-2.10953651E-05 0.00000000E+00 0.00000000E+00 7.68177363E-05
 3  2 2.23912572E-03 0.00000000E+00 0.00000000E+00 2.69222903E-04-7.36561718E-04
 3  3 6.84710446E-04 5.18512713E-05 0.00000000E+00 0.00000000E+00 0.00000000E+00
 3  4 7.04192346E-01 1.45646166E-02 1.07762067E-03 0.00000000E+00-7.28805703E-04
 3  5-3.86009840E-03-8.75321815E-04 0.00000000E+00 6.76621929E-04-5.28061600E-05
 3  6-1.25195575E-04 1.78001735E-04 0.00000000E+00 1.99780794E-04 0.00000000E+00
 3  7 7.04192346E-01 1.45646166E-02-1.07762067E-03 0.00000000E+00-7.28805703E-04
 3  8-3.86009840E-03 8.75321815E-04 0.00000000E+00 6.76621929E-04-5.28061600E-05
 3  9-1.25195575E-04 1.78001735E-04 0.00000000E+00-1.99780794E-04 0.00000000E+00
 4  1-1.78225363E-01 4.17083307E-01 0.00000000E+00 0.00000000E+00 1.06360798E-01
 4  2 3.17134670E-01 0.00000000E+00 0.00000000E+00 5.46189533E-02 1.84585583E-02
 4  3-1.97949065E-02 1.33634825E-03 0.00000000E+00 0.00000000E+00 0.00000000E+00
 4  4-9.15392806E-02 2.10791830E-01 9.21678075E-02 0.00000000E+00-4.78224250E-02
 4  5 1.15368012E-01 1.24340907E-02 0.00000000E+00-1.29858785E-02 1.28013824E-02
 4  6-9.53977550E-03-3.26160689E-03 0.00000000E+00-1.66101523E-02 0.00000000E+00
 4  7-9.15392806E-02 2.10791830E-01-9.21678075E-02 0.00000000E+00-4.78224250E-02
 4  8 1.15368012E-01-1.24340907E-02 0.00000000E+00-1.29858785E-02 1.28013824E-02
 4  9-9.53977550E-03-3.26160689E-03 0.00000000E+00 1.66101523E-02 0.00000000E+00
 5  1 0.00000000E+00 0.00000000E+00-2.87681271E-01 0.00000000E+00 0.00000000E+00
 5  2 0.00000000E+00-7.54486305E-02 0.00000000E+00 0.00000000E+00 0.00000000E+00
 5  3 0.00000000E+00 0.00000000E+00 0.00000000E+00-3.87265678E-02 0.00000000E+00
 5  4-1.46423405E-01 3.35379897E-01 5.71041029E-02 0.00000000E+00-5.52546571E-02
 5  5 3.04101714E-01 3.71246322E-02 0.00000000E+00-2.46233362E-02 7.49832345E-03
 5  6-9.04579216E-03 1.54746871E-03 0.00000000E+00-1.44032803E-02 0.00000000E+00
 5  7 1.46423405E-01-3.35379897E-01 5.71041029E-02 0.00000000E+00 5.52546571E-02
 5  8-3.04101714E-01 3.71246322E-02 0.00000000E+00 2.46233362E-02-7.49832345E-03
 5  9 9.04579216E-03-1.54746871E-03 0.00000000E+00-1.44032803E-02 0.00000000E+00
 6  1-1.38110426E-01 3.50154755E-01 0.00000000E+00 0.00000000E+00-2.00703433E-01
 6  2 4.24617301E-01 0.00000000E+00 0.00000000E+00-6.48910442E-02 1.30424235E-04
 6  3 5.49879618E-03-5.62922041E-03 0.00000000E+00 0.00000000E+00 0.00000000E+00
 6  4 1.25511036E-01-2.99009430E-01 6.50175034E-02 0.00000000E+00-8.80681095E-02
 6  5-3.60935074E-01 7.19462209E-03 0.00000000E+00-2.58748921E-02 6.67571286E-04
 6  6-2.95321879E-03 2.28564751E-03 0.00000000E+00-1.00619371E-02 0.00000000E+00
 6  7 1.25511036E-01-2.99009430E-01-6.50175034E-02 0.00000000E+00-8.80681095E-02
 6  8-3.60935074E-01-7.19462209E-03 0.00000000E+00-2.58748921E-02 6.67571286E-04
 6  9-2.95321879E-03 2.28564751E-03 0.00000000E+00 1.00619371E-02 0.00000000E+00
 7  1 1.07317096E-02-2.59475480E-02 0.00000000E+00 0.00000000E+00 4.96024849E-01
 7  2-4.05061704E-02 0.00000000E+00 0.00000000E+00 2.75693064E-01-1.54589789E-02
 7  3-1.45103480E-02 2.99693269E-02 0.00000000E+00 0.00000000E+00 0.00000000E+00
 7  4 4.98311483E-02-1.15761867E-01 2.69799348E-01 0.00000000E+00 9.68159202E-02
 7  5-2.02459133E-01 1.23259612E-01 0.00000000E+00 5.71310243E-02 2.38905916E-02
 7  6-9.33101464E-03-1.45595770E-02 0.00000000E+00-7.41687552E-03 0.00000000E+00
 7  7 4.98311483E-02-1.15761867E-01-2.69799348E-01 0.00000000E+00 9.68159202E-02
 7  8-2.02459133E-01-1.23259612E-01 0.00000000E+00 5.71310243E-02 2.38905916E-02
 7  9-9.33101464E-03-1.45595770E-02 0.00000000E+00 7.41687552E-03 0.00000000E+00
 8  1 0.00000000E+00 0.00000000E+00 4.27659547E-01 0.00000000E+00 0.00000000E+00
 8  2 0.00000000E+00 2.08940715E-01 0.00000000E+00 0.00000000E+00 0.00000000E+00
 8  3 0.00000000E+00 0.00000000E+00 0.00000000E+00 2.38785405E-02 0.00000000E+00
 8  4-7.33402291E-02 1.78869799E-01-1.98777227E-01 0.00000000E+00 2.51659290E-01
 8  5 2.79760607E-01-9.81735281E-02 0.00000000E+00 1.24738575E-01-1.04231148E-02
 8  6 1.47152425E-02-4.29212769E-03 0.00000000E+00 2.76349337E-02 0.00000000E+00
 8  7 7.33402291E-02-1.78869799E-01-1.98777227E-01 0.00000000E+00-2.51659290E-01
 8  8-2.79760607E-01-9.81735281E-02 0.00000000E+00-1.24738575E-01 1.04231148E-02
 8  9-1.47152425E-02 4.29212769E-03 0.00000000E+00 2.76349337E-02 0.00000000E+00
 9  1 0.00000000E+00 0.00000000E+00 0.00000000E+00 5.00606326E-01 0.00000000E+00
 9  2 0.00000000E+00 0.00000000E+00 3.04386063E-01 0.00000000E+00 0.00000000E+00
 9  3 0.00000000E+00 0.00000000E+00 0.00000000E+00 0.00000000E+00 3.33760145E-02
 9  4 0.00000000E+00 0.00000000E+00 0.00000000E+00 2.65518489E-01 0.00000000E+00
 9  5 0.00000000E+00 0.00000000E+00 1.56946840E-01 0.00000000E+00 0.00000000E+00
 9  6 0.00000000E+00 0.00000000E+00 2.57694969E-02 0.00000000E+00-1.60448111E-02
 9  7 0.00000000E+00 0.00000000E+00 0.00000000E+00 2.65518489E-01 0.00000000E+00
 9  8 0.00000000E+00 0.00000000E+00 1.56946840E-01 0.00000000E+00 0.00000000E+00
 9  9 0.00000000E+00 0.00000000E+00-2.57694969E-02 0.00000000E+00-1.60448111E-02
10  1 0.00000000E+00 0.00000000E+00-1.00047936E-01 0.00000000E+00 0.00000000E+00
10  2 0.00000000E+00-3.98312377E-02 0.00000000E+00 0.00000000E+00 0.00000000E+00
10  3 0.00000000E+00 0.00000000E+00 0.00000000E+00-3.43894679E-02 0.00000000E+00
10  4 3.59534894E-03-7.38769220E-03 3.51085551E-01 0.00000000E+00 3.51691630E-01
10  5-2.79389043E-02 2.39117307E-01 0.00000000E+00 2.43620971E-01 1.89631503E-02
10  6-4.21777348E-03-1.47453768E-02 0.00000000E+00-1.01149903E-03 0.00000000E+00
10  7-3.59534894E-03 7.38769220E-03 3.51085551E-01 0.00000000E+00-3.51691630E-01
10  8 2.79389043E-02 2.39117307E-01 0.00000000E+00-2.43620971E-01-1.89631503E-02
10  9 4.21777348E-03 1.47453768E-02 0.00000000E+00-1.01149903E-03 0.00000000E+00
11  1-3.29741385E-02 8.14153333E-02 0.00000000E+00 0.00000000E+00-3.35730589E-01
11  2 1.71330709E-01 0.00000000E+00 0.00000000E+00-2.18693741E-01-3.87817983E-02
11  3 1.73788482E-02 2.14029501E-02 0.00000000E+00 0.00000000E+00 0.00000000E+00
11  4-2.47180802E-03-3.07463001E-03 7.81300804E-02 0.00000000E+00 4.37209120E-01
11  5 5.03988968E-02 7.96468381E-02 0.00000000E+00 3.04411888E-01-1.45290846E-03
11  6 4.72664750E-03-3.27373904E-03 0.00000000E+00 1.30120001E-02 0.00000000E+00
11  7-2.47180802E-03-3.07463001E-03-7.81300804E-02 0.00000000E+00 4.37209120E-01
11  8 5.03988968E-02-7.96468381E-02 0.00000000E+00 3.04411888E-01-1.45290846E-03
11  9 4.72664750E-03-3.27373904E-03 0.00000000E+00-1.30120001E-02 0.00000000E+00
12  1 0.00000000E+00 0.00000000E+00 0.00000000E+00 0.00000000E+00 0.00000000E+00
12  2 0.00000000E+00 0.00000000E+00 0.00000000E+00 0.00000000E+00 0.00000000E+00
12  3 0.00000000E+00 0.00000000E+00-4.97355071E-02 0.00000000E+00 0.00000000E+00
12  4 0.00000000E+00 0.00000000E+00 0.00000000E+00 4.59873352E-01 0.00000000E+00
12  5 0.00000000E+00 0.00000000E+00 3.56367722E-01 0.00000000E+00 0.00000000E+00
12  6 0.00000000E+00 0.00000000E+00 2.07864013E-02 0.00000000E+00-1.33332615E-02
12  7 0.00000000E+00 0.00000000E+00 0.00000000E+00-4.59873352E-01 0.00000000E+00
12  8 0.00000000E+00 0.00000000E+00-3.56367722E-01 0.00000000E+00 0.00000000E+00
12  9 0.00000000E+00 0.00000000E+00 2.07864013E-02 0.00000000E+00 1.33332615E-02
13  1 0.00000000E+00 0.00000000E+00 0.00000000E+00 4.83438897E-01 0.00000000E+00
13  2 0.00000000E+00 0.00000000E+00 4.36973988E-01 0.00000000E+00 0.00000000E+00
13  3 0.00000000E+00 0.00000000E+00 0.00000000E+00 0.00000000E+00-5.14612068E-03
13  4 0.00000000E+00 0.00000000E+00 0.00000000E+00-3.76693189E-01 0.00000000E+00
13  5 0.00000000E+00 0.00000000E+00-3.69847506E-01 0.00000000E+00 0.00000000E+00
13  6 0.00000000E+00 0.00000000E+00 5.16198783E-03 0.00000000E+00-4.58406935E-03
13  7 0.00000000E+00 0.00000000E+00 0.00000000E+00-3.76693189E-01 0.00000000E+00
13  8 0.00000000E+00 0.00000000E+00-3.69847506E-01 0.00000000E+00 0.00000000E+00
13  9 0.00000000E+00 0.00000000E+00-5.16198783E-03 0.00000000E+00-4.58406935E-03
14  1-1.18236684E-01 2.89594206E-01 0.00000000E+00 0.00000000E+00 3.65462047E-01
14  2 1.35568405E+00 0.00000000E+00 0.00000000E+00 7.28921004E-01-3.08530237E-02
14  3 1.68423685E-02 1.40106551E-02 0.00000000E+00 0.00000000E+00 0.00000000E+00
14  4 5.54213755E-02-1.15950903E-01-3.54188228E-01 0.00000000E+00 1.38364892E-01
14  5-6.18513190E-01-6.93946104E-01 0.00000000E+00 2.69084867E-01 6.17512414E-03
14  6 4.18303909E-03-1.03581632E-02 0.00000000E+00-1.81238774E-03 0.00000000E+00
14  7 5.54213755E-02-1.15950903E-01 3.54188228E-01 0.00000000E+00 1.38364892E-01
14  8-6.18513190E-01 6.93946104E-01 0.00000000E+00 2.69084867E-01 6.17512414E-03
14  9 4.18303909E-03-1.03581632E-02 0.00000000E+00 1.81238774E-03 0.00000000E+00
15  1 0.00000000E+00 0.00000000E+00 5.65338361E-01 0.00000000E+00 0.00000000E+00
15  2 0.00000000E+00 1.19519940E+00 0.00000000E+00 0.00000000E+00 0.00000000E+00
15  3 0.00000000E+00 0.00000000E+00 0.00000000E+00-2.90594616E-02 0.00000000E+00
15  4-6.34125586E-02 1.58146447E-01 2.37031769E-01 0.00000000E+00-2.39641322E-01
15  5 7.35247917E-01 5.93002858E-01 0.00000000E+00-5.09020907E-01 1.07419070E-02
15  6 5.17945614E-03-1.59213631E-02 0.00000000E+00 6.52081186E-03 0.00000000E+00
15  7 6.34125586E-02-1.58146447E-01 2.37031769E-01 0.00000000E+00 2.39641322E-01
15  8-7.35247917E-01 5.93002858E-01 0.00000000E+00 5.09020907E-01-1.07419070E-02
15  9-5.17945614E-03 1.59213631E-02 0.00000000E+00 6.52081186E-03 0.00000000E+00
16  1-5.70450970E-02 2.33336312E-01 0.00000000E+00 0.00000000E+00-5.80470335E-01
16  2 1.68808155E+00 0.00000000E+00 0.00000000E+00 1.55092587E+00 2.42628124E-01
16  3-1.90819050E-01-5.18090735E-02 0.00000000E+00 0.00000000E+00 0.00000000E+00
16  4-5.05996852E-03 3.43203182E-01 3.34986989E-01 0.00000000E+00-9.06949735E-02
16  5-1.23211945E+00-1.04422476E+00 0.00000000E+00 3.26816348E-01-1.14144913E-01
16  6 5.91877674E-02 5.49571453E-02 0.00000000E+00 1.75360372E-02 0.00000000E+00
16  7-5.05996852E-03 3.43203182E-01-3.34986989E-01 0.00000000E+00-9.06949735E-02
16  8-1.23211945E+00 1.04422476E+00 0.00000000E+00 3.26816348E-01-1.14144913E-01
16  9 5.91877674E-02 5.49571453E-02 0.00000000E+00-1.75360372E-02 0.00000000E+00
17  1 0.00000000E+00 0.00000000E+00-5.80552995E-01 0.00000000E+00 0.00000000E+00
17  2 0.00000000E+00 2.09334378E+00 0.00000000E+00 0.00000000E+00 0.00000000E+00
17  3 0.00000000E+00 0.00000000E+00 0.00000000E+00 1.58410663E-01 0.00000000E+00
17  4-4.42080359E-02 2.64282182E-01-3.99159457E-01 0.00000000E+00 4.82775143E-03
17  5 9.10431295E-01 9.65445600E-01 0.00000000E+00-5.38128667E-01 9.63660635E-02
17  6-8.60567714E-02-1.03092921E-02 0.00000000E+00-1.69480476E-01 0.00000000E+00
17  7 4.42080359E-02-2.64282182E-01-3.99159457E-01 0.00000000E+00-4.82775143E-03
17  8-9.10431295E-01 9.65445600E-01 0.00000000E+00 5.38128667E-01-9.63660635E-02
17  9 8.60567714E-02 1.03092921E-02 0.00000000E+00-1.69480476E-01 0.00000000E+00
18  1 0.00000000E+00 0.00000000E+00 0.00000000E+00-6.95272786E-01 0.00000000E+00
18  2 0.00000000E+00 0.00000000E+00 7.14563366E-01 0.00000000E+00 0.00000000E+00
18  3 0.00000000E+00 0.00000000E+00 0.00000000E+00 0.00000000E+00-7.32698257E-02
18  4 0.00000000E+00 0.00000000E+00 0.00000000E+00-4.65335375E-01 0.00000000E+00
18  5 0.00000000E+00 0.00000000E+00 3.29070484E-01 0.00000000E+00 0.00000000E+00
18  6 0.00000000E+00 0.00000000E+00-4.05582968E-02 0.00000000E+00 2.82827896E-02
18  7 0.00000000E+00 0.00000000E+00 0.00000000E+00-4.65335375E-01 0.00000000E+00
18  8 0.00000000E+00 0.00000000E+00 3.29070484E-01 0.00000000E+00 0.00000000E+00
18  9 0.00000000E+00 0.00000000E+00 4.05582968E-02 0.00000000E+00 2.82827896E-02
19  1 5.67384883E-03 3.40871873E-03 0.00000000E+00 0.00000000E+00 3.33771782E-01
19  2 1.57362220E-02 0.00000000E+00 0.00000000E+00-2.24520907E-01-2.38158123E-02
19  3-5.31602835E-02 7.69760958E-02 0.00000000E+00 0.00000000E+00 0.00000000E+00
19  4-2.17985876E-02 2.77063840E-01 3.15645468E-01 0.00000000E+00 4.97310435E-01
19  5-1.96895852E-01-3.09981057E-01 0.00000000E+00-4.88121214E-01 2.58839938E-02
19  6-1.86584844E-02-7.22550940E-03 0.00000000E+00-5.40300180E-02 0.00000000E+00
19  7-2.17985876E-02 2.77063840E-01-3.15645468E-01 0.00000000E+00 4.97310435E-01
19  8-1.96895852E-01 3.09981057E-01 0.00000000E+00-4.88121214E-01 2.58839938E-02
19  9-1.86584844E-02-7.22550940E-03 0.00000000E+00 5.40300180E-02 0.00000000E+00
20  1 3.19328052E-02-6.11677138E-01 0.00000000E+00 0.00000000E+00 2.28557855E-01
20  2 1.60368825E+00 0.00000000E+00 0.00000000E+00 3.32454937E-02 7.24554927E-02
20  3-6.75265853E-02-4.92890745E-03 0.00000000E+00 0.00000000E+00 0.00000000E+00
20  4 5.36767772E-02-5.01831989E-01 4.09617113E-01 0.00000000E+00-2.06030498E-01
20  5 6.17684168E-02-7.39610604E-01 0.00000000E+00 4.65004825E-01-4.16553647E-02
20  6 3.91792850E-02 2.47607967E-03 0.00000000E+00 5.62188001E-02 0.00000000E+00
20  7 5.36767772E-02-5.01831989E-01-4.09617113E-01 0.00000000E+00-2.06030498E-01
20  8 6.17684168E-02 7.39610604E-01 0.00000000E+00 4.65004825E-01-4.16553647E-02
20  9 3.91792850E-02 2.47607967E-03 0.00000000E+00-5.62188001E-02 0.00000000E+00
21  1 0.00000000E+00 0.00000000E+00-2.57315072E-01 0.00000000E+00 0.00000000E+00
21  2 0.00000000E+00-2.14149537E-02 0.00000000E+00 0.00000000E+00 0.00000000E+00
21  3 0.00000000E+00 0.00000000E+00 0.00000000E+00-2.17093161E-01 0.00000000E+00
21  4 2.04055522E-02-4.81854031E-02 2.03536872E-01 0.00000000E+00-5.27149822E-01
21  5-1.43692625E-01-5.00563367E-01 0.00000000E+00 7.02222387E-01 3.93275270E-02
21  6-1.68127278E-02-2.25147992E-02 0.00000000E+00-4.43228455E-02 0.00000000E+00
21  7-2.04055522E-02 4.81854031E-02 2.03536872E-01 0.00000000E+00 5.27149822E-01
21  8 1.43692625E-01-5.00563367E-01 0.00000000E+00-7.02222387E-01-3.93275270E-02
21  9 1.68127278E-02 2.25147992E-02 0.00000000E+00-4.43228455E-02 0.00000000E+00
22  1 0.00000000E+00 0.00000000E+00 0.00000000E+00 0.00000000E+00 0.00000000E+00
22  2 0.00000000E+00 0.00000000E+00 0.00000000E+00 0.00000000E+00 0.00000000E+00
22  3 0.00000000E+00 0.00000000E+00 6.44993270E-02 0.00000000E+00 0.00000000E+00
22  4 0.00000000E+00 0.00000000E+00 0.00000000E+00-6.73791614E-01 0.00000000E+00
22  5 0.00000000E+00 0.00000000E+00 7.99929815E-01 0.00000000E+00 0.00000000E+00
22  6 0.00000000E+00 0.00000000E+00-4.96764913E-02 0.00000000E+00-5.22076808E-04
22  7 0.00000000E+00 0.00000000E+00 0.00000000E+00 6.73791614E-01 0.00000000E+00
22  8 0.00000000E+00 0.00000000E+00-7.99929815E-01 0.00000000E+00 0.00000000E+00
22  9 0.00000000E+00 0.00000000E+00-4.96764913E-02 0.00000000E+00 5.22076808E-04
23  1 5.05616203E-03-4.00144943E-01 0.00000000E+00 0.00000000E+00-4.68465110E-01
23  2 3.93747840E-01 0.00000000E+00 0.00000000E+00 9.80345182E-01-2.05717406E-01
23  3 2.21911867E-01-1.61944605E-02 0.00000000E+00 0.00000000E+00 0.00000000E+00
23  4 2.76070521E-02-4.55411609E-01-4.05519685E-03 0.00000000E+00 2.95473704E-01
23  5 1.87327752E-01-1.51718852E-01 0.00000000E+00-5.39534718E-01-6.00938074E-02
23  6 1.12326005E-01-5.22321977E-02 0.00000000E+00 1.03290164E-01 0.00000000E+00
23  7 2.76070521E-02-4.55411609E-01 4.05519685E-03 0.00000000E+00 2.95473704E-01
23  8 1.87327752E-01 1.51718852E-01 0.00000000E+00-5.39534718E-01-6.00938074E-02
23  9 1.12326005E-01-5.22321977E-02 0.00000000E+00-1.03290164E-01 0.00000000E+00
24  1 0.00000000E+00 0.00000000E+00 0.00000000E+00-6.17348458E-01 0.00000000E+00
24  2 0.00000000E+00 0.00000000E+00 1.16145676E+00 0.00000000E+00 0.00000000E+00
24  3 0.00000000E+00 0.00000000E+00 0.00000000E+00 0.00000000E+00-4.98849523E-02
24  4 0.00000000E+00 0.00000000E+00 0.00000000E+00 4.85777815E-01 0.00000000E+00
24  5 0.00000000E+00 0.00000000E+00-8.19490445E-01 0.00000000E+00 0.00000000E+00
24  6 0.00000000E+00 0.00000000E+00-1.72841090E-02 0.00000000E+00-4.02582262E-02
24  7 0.00000000E+00 0.00000000E+00 0.00000000E+00 4.85777815E-01 0.00000000E+00
24  8 0.00000000E+00 0.00000000E+00-8.19490445E-01 0.00000000E+00 0.00000000E+00
24  9 0.00000000E+00 0.00000000E+00 1.72841090E-02 0.00000000E+00-4.02582262E-02
25  1 0.00000000E+00 0.00000000E+00-3.72883533E-01 0.00000000E+00 0.00000000E+00
25  2 0.00000000E+00 1.42185519E+00 0.00000000E+00 0.00000000E+00 0.00000000E+00
25  3 0.00000000E+00 0.00000000E+00 0.00000000E+00-9.29402829E-02 0.00000000E+00
25  4 4.55843257E-03-9.42129771E-02 3.62942957E-01 0.00000000E+00 3.62657278E-01
25  5 7.14528809E-01-3.04613708E-01 0.00000000E+00-8.40347725E-01 1.53678515E-01
25  6-6.36333713E-02-9.00451440E-02 0.00000000E+00-2.99898963E-02 0.00000000E+00
25  7-4.55843257E-03 9.42129771E-02 3.62942957E-01 0.00000000E+00-3.62657278E-01
25  8-7.14528809E-01-3.04613708E-01 0.00000000E+00 8.40347725E-01-1.53678515E-01
25  9 6.36333713E-02 9.00451440E-02 0.00000000E+00-2.99898963E-02 0.00000000E+00
26  1 0.00000000E+00 0.00000000E+00-2.34800372E-01 0.00000000E+00 0.00000000E+00
26  2 0.00000000E+00 2.17638611E+00 0.00000000E+00 0.00000000E+00 0.00000000E+00
26  3 0.00000000E+00 0.00000000E+00 0.00000000E+00 2.33738216E-01 0.00000000E+00
26  4 2.86945402E-02-1.06982100E+00-1.13832601E-01 0.00000000E+00-2.73552018E-02
26  5 2.46297145E+00 1.02072515E+00 0.00000000E+00-6.59498340E-01-9.31961713E-02
26  6 1.56321711E-01-6.31255401E-02 0.00000000E+00-2.90479611E-02 0.00000000E+00
26  7-2.86945402E-02 1.06982100E+00-1.13832601E-01 0.00000000E+00 2.73552018E-02
26  8-2.46297145E+00 1.02072515E+00 0.00000000E+00 6.59498340E-01 9.31961713E-02
26  9-1.56321711E-01 6.31255401E-02 0.00000000E+00-2.90479611E-02 0.00000000E+00
27  1 4.74513982E-03-9.26357225E-01 0.00000000E+00 0.00000000E+00 8.55253555E-02
27  2 2.65280717E+00 0.00000000E+00 0.00000000E+00 7.16860211E-01 7.70052807E-02
27  3 3.78639722E-01-4.55645002E-01 0.00000000E+00 0.00000000E+00 0.00000000E+00
27  4-6.90562484E-03 4.94996139E-01-3.68845942E-02 0.00000000E+00-3.62861702E-02
27  5-1.37086811E+00-5.53208265E-01 0.00000000E+00 4.22777952E-01-2.45596350E-01
27  6 2.81577241E-01-3.59808910E-02 0.00000000E+00-1.54952930E-01 0.00000000E+00
27  7-6.90562484E-03 4.94996139E-01 3.68845942E-02 0.00000000E+00-3.62861702E-02
27  8-1.37086811E+00 5.53208265E-01 0.00000000E+00 4.22777952E-01-2.45596350E-01
27  9 2.81577241E-01-3.59808910E-02 0.00000000E+00 1.54952930E-01 0.00000000E+00
28  1 0.00000000E+00 0.00000000E+00 0.00000000E+00 0.00000000E+00 0.00000000E+00
28  2 0.00000000E+00 0.00000000E+00 0.00000000E+00 0.00000000E+00 0.00000000E+00
28  3 0.00000000E+00 0.00000000E+00 6.09489495E-01 0.00000000E+00 0.00000000E+00
28  4 0.00000000E+00 0.00000000E+00 0.00000000E+00 1.14459354E-01 0.00000000E+00
28  5 0.00000000E+00 0.00000000E+00 6.60587242E-02 0.00000000E+00 0.00000000E+00
28  6 0.00000000E+00 0.00000000E+00-2.64595615E-01 0.00000000E+00 3.14768135E-01
28  7 0.00000000E+00 0.00000000E+00 0.00000000E+00-1.14459354E-01 0.00000000E+00
28  8 0.00000000E+00 0.00000000E+00-6.60587242E-02 0.00000000E+00 0.00000000E+00
28  9 0.00000000E+00 0.00000000E+00-2.64595615E-01 0.00000000E+00-3.14768135E-01
29  1 4.91416690E-03-7.72063948E-01 0.00000000E+00 0.00000000E+00-1.26244926E-01
29  2 2.43422730E+00 0.00000000E+00 0.00000000E+00 6.85362517E-01-2.85918323E-01
29  3-1.29506547E-01 4.15424870E-01 0.00000000E+00 0.00000000E+00 0.00000000E+00
29  4-1.45918984E-02 5.43309902E-01 2.43003834E-02 0.00000000E+00-1.55845231E-01
29  5-1.32501909E+00-6.52827080E-01 0.00000000E+00 3.43978529E-01 2.40765008E-01
29  6 2.10165227E-02-2.61781531E-01 0.00000000E+00 1.85201540E-01 0.00000000E+00
29  7-1.45918984E-02 5.43309902E-01-2.43003834E-02 0.00000000E+00-1.55845231E-01
29  8-1.32501909E+00 6.52827080E-01 0.00000000E+00 3.43978529E-01 2.40765008E-01
29  9 2.10165227E-02-2.61781531E-01 0.00000000E+00-1.85201540E-01 0.00000000E+00
30  1 0.00000000E+00 0.00000000E+00 0.00000000E+00-1.70080608E-01 0.00000000E+00
30  2 0.00000000E+00 0.00000000E+00 6.96734537E-02 0.00000000E+00 0.00000000E+00
30  3 0.00000000E+00 0.00000000E+00 0.00000000E+00 0.00000000E+00 6.75521523E-01
30  4 0.00000000E+00 0.00000000E+00 0.00000000E+00-3.98923932E-02 0.00000000E+00
30  5 0.00000000E+00 0.00000000E+00-8.79779816E-02 0.00000000E+00 0.00000000E+00
30  6 0.00000000E+00 0.00000000E+00 3.95069883E-01 0.00000000E+00 1.07259583E-01
30  7 0.00000000E+00 0.00000000E+00 0.00000000E+00-3.98923932E-02 0.00000000E+00
30  8 0.00000000E+00 0.00000000E+00-8.79779816E-02 0.00000000E+00 0.00000000E+00
30  9 0.00000000E+00 0.00000000E+00-3.95069883E-01 0.00000000E+00 1.07259583E-01
31  1 0.00000000E+00 0.00000000E+00-1.66063916E-01 0.00000000E+00 0.00000000E+00
31  2 0.00000000E+00 9.95678088E-01 0.00000000E+00 0.00000000E+00 0.00000000E+00
31  3 0.00000000E+00 0.00000000E+00 0.00000000E+00 2.08827260E-01 0.00000000E+00
31  4-4.47492469E-03-1.65784405E-01 6.49831790E-02 0.00000000E+00-4.86282835E-02
31  5 7.75049071E-01 2.87124345E-01 0.00000000E+00-2.42768264E-01 1.66024895E-02
31  6-5.47152321E-01 5.30549831E-01 0.00000000E+00 2.73038793E-01 0.00000000E+00
31  7 4.47492469E-03 1.65784405E-01 6.49831790E-02 0.00000000E+00 4.86282835E-02
31  8-7.75049071E-01 2.87124345E-01 0.00000000E+00 2.42768264E-01-1.66024895E-02
31  9 5.47152321E-01-5.30549831E-01 0.00000000E+00 2.73038793E-01 0.00000000E+00
32  1 0.00000000E+00 0.00000000E+00 0.00000000E+00 0.00000000E+00 0.00000000E+00
32  2 0.00000000E+00 0.00000000E+00 0.00000000E+00 0.00000000E+00 0.00000000E+00
32  3 0.00000000E+00 0.00000000E+00-2.20609567E-02 0.00000000E+00 0.00000000E+00
32  4 0.00000000E+00 0.00000000E+00 0.00000000E+00-5.83184713E-02 0.00000000E+00
32  5 0.00000000E+00 0.00000000E+00 6.79111571E-02 0.00000000E+00 0.00000000E+00
32  6 0.00000000E+00 0.00000000E+00 5.05552931E-01 0.00000000E+00 4.96617912E-01
32  7 0.00000000E+00 0.00000000E+00 0.00000000E+00 5.83184713E-02 0.00000000E+00
32  8 0.00000000E+00 0.00000000E+00-6.79111571E-02 0.00000000E+00 0.00000000E+00
32  9 0.00000000E+00 0.00000000E+00 5.05552931E-01 0.00000000E+00-4.96617912E-01
33  1 0.00000000E+00 0.00000000E+00 0.00000000E+00 3.43378514E-02 0.00000000E+00
33  2 0.00000000E+00 0.00000000E+00 2.26921112E-01 0.00000000E+00 0.00000000E+00
33  3 0.00000000E+00 0.00000000E+00 0.00000000E+00 0.00000000E+00-2.40276525E-01
33  4 0.00000000E+00 0.00000000E+00 0.00000000E+00 7.82892376E-02 0.00000000E+00
33  5 0.00000000E+00 0.00000000E+00-1.23383758E-01 0.00000000E+00 0.00000000E+00
33  6 0.00000000E+00 0.00000000E+00 6.01482030E-02 0.00000000E+00 6.89193612E-01
33  7 0.00000000E+00 0.00000000E+00 0.00000000E+00 7.82892376E-02 0.00000000E+00
33  8 0.00000000E+00 0.00000000E+00-1.23383758E-01 0.00000000E+00 0.00000000E+00
33  9 0.00000000E+00 0.00000000E+00-6.01482030E-02 0.00000000E+00 6.89193612E-01
34  1-2.74256134E-03-7.92029397E-01 0.00000000E+00 0.00000000E+00-9.08878983E-02
34  2 2.15947790E+00 0.00000000E+00 0.00000000E+00 8.68443698E-01 1.48154626E-01
34  3 9.08323520E-02-2.38986978E-01 0.00000000E+00 0.00000000E+00 0.00000000E+00
34  4 7.89790692E-03 2.09001379E-01-5.40603712E-02 0.00000000E+00 6.55377079E-02
34  5-1.02029682E+00-5.21543663E-01 0.00000000E+00 1.88328086E-01 7.07590218E-02
34  6-5.50585489E-01 4.79826467E-01 0.00000000E+00 2.16964352E-01 0.00000000E+00
34  7 7.89790692E-03 2.09001379E-01 5.40603712E-02 0.00000000E+00 6.55377079E-02
34  8-1.02029682E+00 5.21543663E-01 0.00000000E+00 1.88328086E-01 7.07590218E-02
34  9-5.50585489E-01 4.79826467E-01 0.00000000E+00-2.16964352E-01 0.00000000E+00
35  1 0.00000000E+00 0.00000000E+00-6.43919860E-02 0.00000000E+00 0.00000000E+00
35  2 0.00000000E+00 1.30424654E+00 0.00000000E+00 0.00000000E+00 0.00000000E+00
35  3 0.00000000E+00 0.00000000E+00 0.00000000E+00 1.99684895E-01 0.00000000E+00
35  4-1.78484320E-02 7.70649264E-02 2.54306820E-01 0.00000000E+00 4.41305694E-02
35  5 6.36206979E-01 2.08866436E-02 0.00000000E+00-4.95046460E-01-5.28562554E-01
35  6 9.18596729E-02 4.36702881E-01 0.00000000E+00-4.76356563E-01 0.00000000E+00
35  7 1.78484320E-02-7.70649264E-02 2.54306820E-01 0.00000000E+00-4.41305694E-02
35  8-6.36206979E-01 2.08866436E-02 0.00000000E+00 4.95046460E-01 5.28562554E-01
35  9-9.18596729E-02-4.36702881E-01 0.00000000E+00-4.76356563E-01 0.00000000E+00
36  1 1.56199331E-02-1.00244377E+00 0.00000000E+00 0.00000000E+00-3.04381033E-01
36  2 1.49566347E+00 0.00000000E+00 0.00000000E+00 8.31914532E-01 4.87386440E-01
36  3-7.34619631E-01 2.47233192E-01 0.00000000E+00 0.00000000E+00 0.00000000E+00
36  4 2.31217391E-02-2.21208182E-01-2.79205002E-01 0.00000000E+00 1.84669727E-01
36  5-4.62572444E-01-1.61241504E-01 0.00000000E+00-5.97516082E-02 6.77927302E-02
36  6-1.92748463E-02-4.85178840E-02 0.00000000E+00-3.86655742E-01 0.00000000E+00
36  7 2.31217391E-02-2.21208182E-01 2.79205002E-01 0.00000000E+00 1.84669727E-01
36  8-4.62572444E-01 1.61241504E-01 0.00000000E+00-5.97516082E-02 6.77927302E-02
36  9-1.92748463E-02-4.85178840E-02 0.00000000E+00 3.86655742E-01 0.00000000E+00
37  1 0.00000000E+00 0.00000000E+00 0.00000000E+00-2.82589881E-02 0.00000000E+00
37  2 0.00000000E+00 0.00000000E+00 6.83604467E-01 0.00000000E+00 0.00000000E+00
37  3 0.00000000E+00 0.00000000E+00 0.00000000E+00 0.00000000E+00 8.28896966E-01
37  4 0.00000000E+00 0.00000000E+00 0.00000000E+00 3.57538739E-02 0.00000000E+00
37  5 0.00000000E+00 0.00000000E+00-3.66027701E-01 0.00000000E+00 0.00000000E+00
37  6 0.00000000E+00 0.00000000E+00-6.90822160E-01 0.00000000E+00 2.15993630E-01
37  7 0.00000000E+00 0.00000000E+00 0.00000000E+00 3.57538739E-02 0.00000000E+00
37  8 0.00000000E+00 0.00000000E+00-3.66027701E-01 0.00000000E+00 0.00000000E+00
37  9 0.00000000E+00 0.00000000E+00 6.90822160E-01 0.00000000E+00 2.15993630E-01
38  1 0.00000000E+00 0.00000000E+00-4.89332183E-01 0.00000000E+00 0.00000000E+00
38  2 0.00000000E+00-2.38340158E-02 0.00000000E+00 0.00000000E+00 0.00000000E+00
38  3 0.00000000E+00 0.00000000E+00 0.00000000E+00 6.68048159E-01 0.00000000E+00
38  4-1.67604122E-02 5.52000703E-01 3.22228169E-01 0.00000000E+00-1.61133755E-01
38  5-6.02401966E-01-4.48613057E-01 0.00000000E+00 2.86036242E-01-1.43772707E-01
38  6 3.47932125E-01-2.04159417E-01 0.00000000E+00 3.76327789E-01 0.00000000E+00
38  7 1.67604122E-02-5.52000703E-01 3.22228169E-01 0.00000000E+00 1.61133755E-01
38  8 6.02401966E-01-4.48613057E-01 0.00000000E+00-2.86036242E-01 1.43772707E-01
38  9-3.47932125E-01 2.04159417E-01 0.00000000E+00 3.76327789E-01 0.00000000E+00
39  1 0.00000000E+00 0.00000000E+00 0.00000000E+00 0.00000000E+00 0.00000000E+00
39  2 0.00000000E+00 0.00000000E+00 0.00000000E+00 0.00000000E+00 0.00000000E+00
39  3 0.00000000E+00 0.00000000E+00 1.02082590E+00 0.00000000E+00 0.00000000E+00
39  4 0.00000000E+00 0.00000000E+00 0.00000000E+00 8.87641333E-03 0.00000000E+00
39  5 0.00000000E+00 0.00000000E+00 2.53070737E-01 0.00000000E+00 0.00000000E+00
39  6 0.00000000E+00 0.00000000E+00 5.17386186E-01 0.00000000E+00-4.63029415E-01
39  7 0.00000000E+00 0.00000000E+00 0.00000000E+00-8.87641333E-03 0.00000000E+00
39  8 0.00000000E+00 0.00000000E+00-2.53070737E-01 0.00000000E+00 0.00000000E+00
39  9 0.00000000E+00 0.00000000E+00 5.17386186E-01 0.00000000E+00 4.63029415E-01
40  1-7.62549294E-02-5.36511548E-01 0.00000000E+00 0.00000000E+00 1.98212658E-01
40  2 3.69510240E+00 0.00000000E+00 0.00000000E+00 1.74860934E+00-6.73338213E-02
40  3-6.68914679E-01 7.36248501E-01 0.00000000E+00 0.00000000E+00 0.00000000E+00
40  4 3.03566784E-02 3.27605707E-01-1.37048477E-01 0.00000000E+00 2.57112429E-02
40  5-1.89832191E+00-1.19018142E+00 0.00000000E+00 3.60458154E-01-8.54003030E-01
40  6 3.35483263E-01 5.18519767E-01 0.00000000E+00 2.62126241E-01 0.00000000E+00