!   Scan of the N2 potential curve to dissociation, at CR-CCSD(T) level.
!
!   The basis set used is Dunning's original DZ contraction to [4s,2p]
!   of Huzinaga-sensei's (9s,5p).  There are no polarization functions.
!   Two very high energy virtuals are omitted from the CC calculation.
!
!   Note that runtyp=surface works in Angstroms, and cannot move both
!   atoms in the D-inf-h point group, so we select C-inf-v instead.
!   The run samples R, 1.25R, 1.5R, ..., 3R (9 points in all).
!
!   Note that we must keep the orbitals from moving around, so that the
!   amplitudes passed from geometry to geometry make good restart info.
!   This run does not work well without the RSTRCT=.T. which keeps the 
!   orbitals from being sorted by energy eigenvalues.
!
!   COUPLED-CLUSTER ENERGY E(CR-CCSD(T)) = -109.1016627110  at  R
!   COUPLED-CLUSTER ENERGY E(CR-CCSD(T)) = -109.0453955803
!   COUPLED-CLUSTER ENERGY E(CR-CCSD(T)) = -108.9332190279
!   COUPLED-CLUSTER ENERGY E(CR-CCSD(T)) = -108.8922528639
!   COUPLED-CLUSTER ENERGY E(CR-CCSD(T)) = -108.9544231859  at 2R
!   COUPLED-CLUSTER ENERGY E(CR-CCSD(T)) = -108.9954376208
!   COUPLED-CLUSTER ENERGY E(CR-CCSD(T)) = -109.0128907403
!   COUPLED-CLUSTER ENERGY E(CR-CCSD(T)) = -109.0205769939
!   COUPLED-CLUSTER ENERGY E(CR-CCSD(T)) = -109.0242622983  at 3R
!
!   This test takes 1 seconds on 2.66 GHz Cloverton (30 Oct 2009)
!   results unchanged since November 2005
!
 $contrl scftyp=rhf cctyp=cr-cc runtyp=surface $end
 $system mwords=1 timlim=5 $end
 $surf   ivec1(1)=1,2 igrp1(1)=2 orig1=0.0 disp1=0.2735846 ndisp1=9 $end
 $guess  guess=moread norb=20 $end
 $scf    rstrct=.true. $end
 $ccinp  nfzv=2 maxcc=50 $end
 $data                                                                          
N2 CR-CCSD(T) optimization, beginning from the exp. geometry, R=2.068 a.u.
Cnv 2
 
nitrogen 7.0   0.0 0.0 0.0
 S   6                                                                          
  1        5909.440000         0.2004000000E-02                                 
  2        887.4510000         0.1531000000E-01                                 
  3        204.7490000         0.7429300000E-01                                 
  4        59.83760000         0.2533640000                                     
  5        19.99810000         0.6005760000                                     
  6        2.686000000         0.2451110000                                     
 S   1                                                                          
  1        7.192700000          1.000000000                                     
 S   1                                                                          
  1       0.7000000000          1.000000000                                     
 S   1                                                                          
  1       0.2133000000          1.000000000                                     
 P   4                                                                          
  1        26.78600000         0.1825700000E-01                                 
  2        5.956400000         0.1164070000                                     
  3        1.707400000         0.3901110000                                     
  4       0.5314000000         0.6372210000                                     
 P   1                                                                          
  1       0.1654000000          1.000000000                                     
                                                                                
nitrogen 7.0   0.0 0.0 1.0943386
 S   6                                                                          
  1        5909.440000         0.2004000000E-02                                 
  2        887.4510000         0.1531000000E-01                                 
  3        204.7490000         0.7429300000E-01                                 
  4        59.83760000         0.2533640000                                     
  5        19.99810000         0.6005760000                                     
  6        2.686000000         0.2451110000                                     
 S   1                                                                          
  1        7.192700000          1.000000000                                     
 S   1                                                                          
  1       0.7000000000          1.000000000                                     
 S   1                                                                          
  1       0.2133000000          1.000000000                                     
 P   4                                                                          
  1        26.78600000         0.1825700000E-01                                 
  2        5.956400000         0.1164070000                                     
  3        1.707400000         0.3901110000                                     
  4       0.5314000000         0.6372210000                                     
 P   1                                                                          
  1       0.1654000000          1.000000000                                     
                                                                                
 $end

--- CLOSED SHELL ORBITALS --- GENERATED AT Wed Mar 20 09:58:13 2002
N2 CR-CCSD(T) optimization, beginning from the exp. geometry, R=2.068 a.u.      
E(RHF)=     -108.8781770517, E(NUC)=   23.6943896640,    9 ITERS
 $VEC
 1  1 4.19646741E-01 3.15141216E-01 1.59442853E-03 7.20437121E-04 0.00000000E+00
 1  2 0.00000000E+00 2.14169861E-03 0.00000000E+00 0.00000000E+00-1.06417758E-03
 1  3 4.19646741E-01 3.15141216E-01 1.59442853E-03 7.20437121E-04 0.00000000E+00
 1  4 0.00000000E+00-2.14169861E-03 0.00000000E+00 0.00000000E+00 1.06417758E-03
 2  1-4.19886927E-01-3.15458165E-01-8.73599026E-04-3.02034519E-03 0.00000000E+00
 2  2 0.00000000E+00-1.97049099E-03 0.00000000E+00 0.00000000E+00-4.90154782E-04
 2  3 4.19886927E-01 3.15458165E-01 8.73599026E-04 3.02034519E-03 0.00000000E+00
 2  4 0.00000000E+00-1.97049099E-03 0.00000000E+00 0.00000000E+00-4.90154782E-04
 3  1-1.00990440E-01-1.36190310E-01 3.92505925E-01 1.66623756E-01 0.00000000E+00
 3  2 0.00000000E+00 2.58893437E-01 0.00000000E+00 0.00000000E+00-2.60099070E-02
 3  3-1.00990440E-01-1.36190310E-01 3.92505925E-01 1.66623756E-01 0.00000000E+00
 3  4 0.00000000E+00-2.58893437E-01 0.00000000E+00 0.00000000E+00 2.60099070E-02
 4  1 9.37097853E-02 1.28655371E-01-3.86013200E-01-4.62030513E-01 0.00000000E+00
 4  2 0.00000000E+00 2.29065647E-01 0.00000000E+00 0.00000000E+00 4.12588139E-02
 4  3-9.37097853E-02-1.28655371E-01 3.86013200E-01 4.62030513E-01 0.00000000E+00
 4  4 0.00000000E+00 2.29065647E-01 0.00000000E+00 0.00000000E+00 4.12588139E-02
 5  1 0.00000000E+00 0.00000000E+00 0.00000000E+00 0.00000000E+00 5.12827779E-01
 5  2 0.00000000E+00 0.00000000E+00 1.63926142E-01 0.00000000E+00 0.00000000E+00
 5  3 0.00000000E+00 0.00000000E+00 0.00000000E+00 0.00000000E+00 5.12827779E-01
 5  4 0.00000000E+00 0.00000000E+00 1.63926142E-01 0.00000000E+00 0.00000000E+00
 6  1 0.00000000E+00 0.00000000E+00 0.00000000E+00 0.00000000E+00 0.00000000E+00
 6  2 5.12827779E-01 0.00000000E+00 0.00000000E+00 1.63926142E-01 0.00000000E+00
 6  3 0.00000000E+00 0.00000000E+00 0.00000000E+00 0.00000000E+00 0.00000000E+00
 6  4 5.12827779E-01 0.00000000E+00 0.00000000E+00 1.63926142E-01 0.00000000E+00
 7  1-3.33746498E-02-4.36176522E-02 1.01345377E-01 3.27371546E-01 0.00000000E+00
 7  2 0.00000000E+00-5.22873124E-01 0.00000000E+00 0.00000000E+00-9.47571750E-02
 7  3-3.33746498E-02-4.36176522E-02 1.01345377E-01 3.27371546E-01 0.00000000E+00
 7  4 0.00000000E+00 5.22873124E-01 0.00000000E+00 0.00000000E+00 9.47571750E-02
 8  1 0.00000000E+00 0.00000000E+00 0.00000000E+00 0.00000000E+00-5.10419991E-01
 8  2 0.00000000E+00 0.00000000E+00-6.74105188E-01 0.00000000E+00 0.00000000E+00
 8  3 0.00000000E+00 0.00000000E+00 0.00000000E+00 0.00000000E+00 5.10419991E-01
 8  4 0.00000000E+00 0.00000000E+00 6.74105188E-01 0.00000000E+00 0.00000000E+00
 9  1 0.00000000E+00 0.00000000E+00 0.00000000E+00 0.00000000E+00 0.00000000E+00
 9  2 5.10419991E-01 0.00000000E+00 0.00000000E+00 6.74105188E-01 0.00000000E+00
 9  3 0.00000000E+00 0.00000000E+00 0.00000000E+00 0.00000000E+00 0.00000000E+00
 9  4-5.10419991E-01 0.00000000E+00 0.00000000E+00-6.74105188E-01 0.00000000E+00
10  1 4.54937692E-02 5.96579441E-02-5.59273825E-02-3.00404821E+00 0.00000000E+00
10  2 0.00000000E+00 3.17162905E-03 0.00000000E+00 0.00000000E+00-1.91009269E+00
10  3-4.54937692E-02-5.96579441E-02 5.59273825E-02 3.00404821E+00 0.00000000E+00
10  4 0.00000000E+00 3.17162905E-03 0.00000000E+00 0.00000000E+00-1.91009269E+00
11  1-8.03483121E-03-1.78770942E-02 2.24299737E-01 1.50681645E-01 0.00000000E+00
11  2 0.00000000E+00 3.92736814E-01 0.00000000E+00 0.00000000E+00-1.11399050E+00
11  3-8.03483121E-03-1.78770942E-02 2.24299737E-01 1.50681645E-01 0.00000000E+00
11  4 0.00000000E+00-3.92736814E-01 0.00000000E+00 0.00000000E+00 1.11399050E+00
12  1 0.00000000E+00 0.00000000E+00 0.00000000E+00 0.00000000E+00 0.00000000E+00
12  2-6.05745015E-01 0.00000000E+00 0.00000000E+00 6.45181895E-01 0.00000000E+00
12  3 0.00000000E+00 0.00000000E+00 0.00000000E+00 0.00000000E+00 0.00000000E+00
12  4-6.05745015E-01 0.00000000E+00 0.00000000E+00 6.45181895E-01 0.00000000E+00
13  1 0.00000000E+00 0.00000000E+00 0.00000000E+00 0.00000000E+00-6.05745015E-01
13  2 0.00000000E+00 0.00000000E+00 6.45181895E-01 0.00000000E+00 0.00000000E+00
13  3 0.00000000E+00 0.00000000E+00 0.00000000E+00 0.00000000E+00-6.05745015E-01
13  4 0.00000000E+00 0.00000000E+00 6.45181895E-01 0.00000000E+00 0.00000000E+00
14  1 0.00000000E+00 0.00000000E+00 0.00000000E+00 0.00000000E+00 0.00000000E+00
14  2 7.29155416E-01 0.00000000E+00 0.00000000E+00-1.29613621E+00 0.00000000E+00
14  3 0.00000000E+00 0.00000000E+00 0.00000000E+00 0.00000000E+00 0.00000000E+00
14  4-7.29155416E-01 0.00000000E+00 0.00000000E+00 1.29613621E+00 0.00000000E+00
15  1 0.00000000E+00 0.00000000E+00 0.00000000E+00 0.00000000E+00 7.29155416E-01
15  2 0.00000000E+00 0.00000000E+00-1.29613621E+00 0.00000000E+00 0.00000000E+00
15  3 0.00000000E+00 0.00000000E+00 0.00000000E+00 0.00000000E+00-7.29155416E-01
15  4 0.00000000E+00 0.00000000E+00 1.29613621E+00 0.00000000E+00 0.00000000E+00
16  1-9.51721176E-02-1.60486235E-01 1.18040479E+00-9.65952408E-01 0.00000000E+00
16  2 0.00000000E+00-2.25609616E-01 0.00000000E+00 0.00000000E+00 1.18857348E-01
16  3-9.51721176E-02-1.60486235E-01 1.18040479E+00-9.65952408E-01 0.00000000E+00
16  4 0.00000000E+00 2.25609616E-01 0.00000000E+00 0.00000000E+00-1.18857348E-01
17  1-4.01632051E-02-5.83504136E-02 1.82169116E-01 1.23652895E+00 0.00000000E+00
17  2 0.00000000E+00 1.10666434E+00 0.00000000E+00 0.00000000E+00 1.55209290E-01
17  3 4.01632051E-02 5.83504136E-02-1.82169116E-01-1.23652895E+00 0.00000000E+00
17  4 0.00000000E+00 1.10666434E+00 0.00000000E+00 0.00000000E+00 1.55209290E-01
18  1-1.15337223E-01-1.98009086E-01 1.67057579E+00-5.02234312E+00 0.00000000E+00
18  2 0.00000000E+00 7.50925997E-03 0.00000000E+00 0.00000000E+00-1.79077170E+00
18  3 1.15337223E-01 1.98009086E-01-1.67057579E+00 5.02234312E+00 0.00000000E+00
18  4 0.00000000E+00 7.50925997E-03 0.00000000E+00 0.00000000E+00-1.79077170E+00
19  1-1.24521821E+00 1.34140672E+00-2.18881942E-01 1.06337248E-01 0.00000000E+00
19  2 0.00000000E+00 1.83873000E-02 0.00000000E+00 0.00000000E+00 5.66544316E-03
19  3-1.24521821E+00 1.34140672E+00-2.18881942E-01 1.06337248E-01 0.00000000E+00
19  4 0.00000000E+00-1.83873000E-02 0.00000000E+00 0.00000000E+00-5.66544316E-03
20  1 1.24670086E+00-1.37143671E+00 3.65093667E-01-6.39451613E-01 0.00000000E+00
20  2 0.00000000E+00 3.90657682E-02 0.00000000E+00 0.00000000E+00-2.19691380E-01
20  3-1.24670086E+00 1.37143671E+00-3.65093667E-01 6.39451613E-01 0.00000000E+00
20  4 0.00000000E+00 3.90657682E-02 0.00000000E+00 0.00000000E+00-2.19691380E-01
 $END

! TRAVIS-CI SMALL
! 
