!    ozone...test of EOM-CCSD(T) codes
!
!    ground state:
!      FINAL energy is -224.3274304296 after 17 iterations
!      E(MP2)= -224.9830241963, E(CCSD)= -224.9593772831, T1= 0.02904615
!             ---- SUMMARY OF EOM-CCSD CALCULATIONS ----
!                  EXCITATION   EXCITATION      TOTAL
!     SYMMETRY     ENERGY (H)   ENERGY (EV)     ENERGY (H)     ITERATIONS
!        A1        0.33318536      9.066      -224.62619192     CONVERGED
!        A1        0.33318677      9.066      -224.62619051     CONVERGED
!        A1        0.36080159      9.818      -224.59857569     CONVERGED
!    output from triples part is extracted into my table below:
!    ground and excited states (#iters):
!            E(EOM-CCSD)              E(CI-SD)       E(CR-EOM) type III
!      A1        ---            -224.8786449668( 9)    -224.9826779911
!      A1   -224.62619192(25)   -224.2655962470(19)    -224.6861779975
!      A1   -224.62619051(17)   -224.2213700773(24)    -224.7980078649
!      A1   -224.59857569( 1)   -224.1298778721(32)            ?
!     and then it prints out that III exc. energies are 8.068 and 5.025 eV
!     The simplest checking about triples is to match those two eV values.
!
!    This run seems to be repeating the energy of the 1st root while
!    working on the 2nd root, but converging amplitudes that it later
!    applies to the 3rd root.  Somehow it is aware that it only found
!    two different answers in the EOM-CCSD, so the MM23 corrections
!    are made for only two excited states.  
!    Unclear which states match which states, in MWS' opinion (2006)!
!    3 years later, MWS still thinks the same thing.
!
!    This run takes 284 seconds on 2.66 GHz Cloverton (18 Jul 2016)
!    results more or less the same every since 2009
!    it requires about 835 MBytes of disk space
!
 $contrl scftyp=rhf cctyp=cr-eom units=bohr ispher=1 $END
 $system mwords=10 timlim=1000 $end
 $guess  guess=huckel $end
 $ccinp  ncore=3 $end
 $eominp minit=1 mtrip=2 meom=0 noact=6 nuact=5 nstate(1)=3,0,0,0 $end
 $data
Ozone POL1 (Sadlej) basis set
Cnv  2     

Oxygen         8.         0.00000000     0.00000000   0.00000000
 S   5
  1        10662.28500         0.7990000000E-03
  2        1599.709700         0.6153000000E-02
  3        364.7252600         0.3115700000E-01
  4        103.6517900         0.1155960000    
  5        33.90580500         0.3015520000    
 S   2
  1        12.28746900         0.4448700000    
  2        4.756805000         0.2431720000    
 S   1
  1        1.004271000          1.000000000    
 S   1
  1       0.3006860000          1.000000000    
 S   1
  1       0.9003000000E-01      1.000000000    
 P   4
  1        34.85646300         0.1564800000E-01
  2        7.843131000         0.9819700000E-01
  3        2.306249000         0.3077680000    
  4       0.7231640000         0.4924700000    
 P   1
  1       0.2148820000          1.000000000    
 P   1
  1       0.6385000000E-01      1.000000000    
 D   2
  1        2.306200000         0.2027000000    
  2       0.7232000000         0.5791000000    
 D   2
  1       0.2149000000         0.7854500000    
  2       0.6390000000E-01     0.5338700000    

Oxygen         8.         0.00000000     2.047322435  -1.259521166 
 S   5
  1        10662.28500         0.7990000000E-03
  2        1599.709700         0.6153000000E-02
  3        364.7252600         0.3115700000E-01
  4        103.6517900         0.1155960000    
  5        33.90580500         0.3015520000    
 S   2
  1        12.28746900         0.4448700000    
  2        4.756805000         0.2431720000    
 S   1
  1        1.004271000          1.000000000    
 S   1
  1       0.3006860000          1.000000000    
 S   1
  1       0.9003000000E-01      1.000000000    
 P   4
  1        34.85646300         0.1564800000E-01
  2        7.843131000         0.9819700000E-01
  3        2.306249000         0.3077680000    
  4       0.7231640000         0.4924700000    
 P   1
  1       0.2148820000          1.000000000    
 P   1
  1       0.6385000000E-01      1.000000000    
 D   2
  1        2.306200000         0.2027000000    
  2       0.7232000000         0.5791000000    
 D   2
  1       0.2149000000         0.7854500000    
  2       0.6390000000E-01     0.5338700000

 $end

! TRAVIS-CI MEDIUM

