! Gradient of the EFP2 energy for the ethen_ethyne complex using the tang-toennis damping formula.
! Include E7 contribution to the energy
!                         ----------------------
!                         GRADIENT OF THE ENERGY
!                         ----------------------
!
! UNITS ARE HARTREE/BOHR    E'X               E'Y               E'Z
!      TOTAL QM TRANS.  0.000000000       0.000000000       0.000000000
!      TOTAL QM TORQUE  0.000000000       0.000000000       0.000000000
!  EFP           TRANS GRADIENT                           TORQUE
!    1   0.0239536 -0.0381231  0.0632843    -0.0000284  0.0001340  0.0001068
!    2  -0.0239536  0.0381231 -0.0632843     0.0000109  0.0001164  0.0000506
!
!                   MAXIMUM GRADIENT =    0.063284322
!                       RMS GRADIENT =    0.031707200
!
 $CONTRL SCFTYP=RHF RUNTYP=GRADIENT COORD=FRAGONLY NUMGRD=.FALSE. $END
 $SYSTEM TIMLIM=100 MWORDS=1000 $END
 $GUESS GUESS=HUCKEL $END
 $BASIS GBASIS=N311 NGAUSS=6 NDFUNC=2 NFFUNC=1
  NPFUNC=2 DIFFSP=.TRUE. DIFFS=.TRUE. $END
 $EFRAG
coord=cart ISCRDISP=0 
 fragname=ethene
 A01C       -0.90914708    -0.36711070    -0.53725874
 A02C       -0.87711024     0.78151977     0.14264837
 A03H       -0.04467510    -0.72542018    -1.08153629
 A04H       -1.80166316    -0.97886229    -0.57058865
 A05H       -1.74253368     1.14134753     0.68440616
 A06H        0.01432025     1.39500129     0.17310321
 fragname=ethyne
 A01C        0.30850874    -1.70935998     2.98390326
 A02C       -0.06313206    -1.11660883     2.00002227
 A03H       -0.39125128    -0.59327147     1.13136134
 A04H        0.63587164    -2.23148975     3.85056195
 $END
 $ETHENE  
EFP DATA FOR ETHENE   SCFTYP=RHF     ... GENERATED WITH BASIS SET=XXX
 COORDINATES (BOHR)
A01C      -1.7180388637  -0.6937386302  -1.0152718031  12.0000000  6.0
A02C      -1.6574980146   1.4768582193   0.2695663319  12.0000000  6.0
A03H      -0.0844236975  -1.3708453662  -2.0438072339   1.0078250  1.0
A04H      -3.4046496946  -1.8497815078  -1.0782562002   1.0078250  1.0
A05H      -3.2929111796   2.1568340885   1.2933401067   1.0078250  1.0
A06H       0.0270613486   2.6361701906   0.3271176345   1.0078250  1.0
BO21      -1.6877684392   0.3915597946  -0.3728527356   0.0000000  0.0
BO31      -0.9012312806  -1.0322919982  -1.5295395185   0.0000000  0.0
BO41      -2.5613442792  -1.2717600690  -1.0467640017   0.0000000  0.0
BO52      -2.4752045971   1.8168461539   0.7814532193   0.0000000  0.0
BO62      -0.8152183330   2.0565142050   0.2983419832   0.0000000  0.0
 STOP
 MONOPOLES 
A01C      -5.2969757809   6.00000
A02C      -5.2969761795   6.00000
A03H      -0.6234451205   1.00000
A04H      -0.6234445698   1.00000
A05H      -0.6234447855   1.00000
A06H      -0.6234446368   1.00000
BO21      -0.6126801635   0.00000
BO31      -0.5748970699   0.00000
BO41      -0.5748972316   0.00000
BO52      -0.5748971326   0.00000
BO62      -0.5748973293   0.00000
 STOP
 DIPOLES 
A01C       -0.0003363657   -0.0087062678   -0.0054765852
A02C        0.0000763684    0.0091205690    0.0047871389
A03H        0.0421135815   -0.0183496423   -0.0270791757
A04H       -0.0435455870   -0.0307015402   -0.0021758912
A05H       -0.0421717760    0.0184425557    0.0269248832
A06H        0.0434759333    0.0308125724    0.0019913724
BO21       -0.0001899604    0.0003039087   -0.0005036036
BO31       -0.3027679287    0.1070175898    0.1791224501
BO41        0.3113339357    0.1956448549    0.0004606013
BO52        0.3029177146   -0.1072566018   -0.1787257923
BO62       -0.3111887829   -0.1958763410   -0.0000757399
 STOP
 QUADRUPOLES 
A01C       -3.4539037032   -3.4287287977   -3.5957180149    0.0461379279 >
           -0.0719608555    0.1575021882
A02C       -3.4539854021   -3.4278171128   -3.5965490151    0.0459170627 >
           -0.0722252263    0.1569957554
A03H       -0.4095056664   -0.4069897351   -0.4092736354    0.0016811967 >
            0.0010882640    0.0007755196
A04H       -0.4096993409   -0.4079474794   -0.4081201871   -0.0016564007 >
           -0.0008662350    0.0014558037
A05H       -0.4095128898   -0.4069844007   -0.4092702579    0.0016858397 >
            0.0010785848    0.0007706266
A06H       -0.4096907979   -0.4079477929   -0.4081280065   -0.0016629601 >
           -0.0008566058    0.0014585790
BO21       -0.2665007962   -0.3256461706   -0.7840846725    0.1472272874 >
           -0.2393051697    0.4316588212
BO31       -0.4419141158   -0.4284017953   -0.4505039510    0.0285462828 >
            0.0169029048   -0.0020322353
BO41       -0.4451488000   -0.4447573509   -0.4309155442   -0.0283758857 >
           -0.0163061053    0.0095954399
BO52       -0.4419896623   -0.4283420327   -0.4504889182    0.0285874767 >
            0.0168061932   -0.0020867242
BO62       -0.4450788921   -0.4447438291   -0.4309995654   -0.0284361118 >
           -0.0162291210    0.0096093588
 STOP
 OCTUPOLES  
A01C          0.016285145     -0.145410013     -0.221355721      0.206198865 >
              0.112483624      0.126647263      0.118984366     -0.143779382 >
             -0.034519512     -0.077901492
A02C         -0.017808164      0.148578567      0.215666188     -0.205300380 >
             -0.113975540     -0.127452835     -0.120899624      0.142673429 >
              0.035925977      0.078188258
A03H          0.056910947     -0.026511828     -0.038261369     -0.009221101 >
             -0.012566316      0.019117446     -0.012175082      0.019096978 >
             -0.008748437     -0.000067085
A04H         -0.058999074     -0.043310302     -0.004227701     -0.014609472 >
             -0.001651419     -0.019698493     -0.000832991     -0.019841276 >
             -0.014480202      0.000064566
A05H         -0.056991270      0.026633281      0.038054448      0.009263432 >
              0.012495243     -0.019142078      0.012105443     -0.019123004 >
              0.008793911      0.000067254
A06H          0.058898198      0.043463938      0.003965272      0.014663389 >
              0.001562760      0.019665836      0.000745727      0.019809306 >
              0.014536406     -0.000063776
BO21         -0.001252993      0.001725984     -0.002630089      0.000621451 >
             -0.001050143     -0.000286178     -0.000877136     -0.000179643 >
              0.000401564     -0.000130699
BO31         -0.978889524      0.258257157      0.521399542      0.102575021 >
              0.191552217     -0.318281544      0.173172497     -0.329557960 >
              0.088804869     -0.006777039
BO41          1.004598008      0.542292787     -0.045359270      0.203943140 >
             -0.010918496      0.338195445     -0.015808608      0.322376609 >
              0.178780150     -0.001910229
BO52          0.979147743     -0.258602035     -0.520747779     -0.102745151 >
             -0.191354295      0.318406222     -0.172999429      0.329562480 >
             -0.088907227      0.006762307
BO62         -1.004547378     -0.542346280      0.045334727     -0.203925970 >
              0.010978967     -0.338255776      0.015845669     -0.322341540 >
             -0.178787019      0.001955527
 STOP
 POLARIZABLE POINTS
CT1  -2.7647551097   1.9445600423   0.9676218798
    4.0851278498    2.6868581797    2.7779662330   -0.6649172487 >
   -1.3438622172    1.1551699460   -1.3010660039   -1.7281959247 >
    0.9172112279
CT2  -0.6117648404  -1.1598710169  -1.7159310937
    4.0816561644    2.6809781782    2.7873509055   -0.6602967519 >
   -1.3480974637    1.1592788117   -1.2964142437   -1.7297745260 >
    0.9171875044
CT3  -0.5162753119   2.2691607297   0.3132960845
    4.2351935839    3.4895224591    1.8247245024    1.4907184958 >
   -0.1118855301    0.3426036242    2.1247622904    0.2717242891 >
    0.5846831999
CT4  -1.8681517379   0.6791318741  -0.8502439541
    2.6389316933   10.0717603656    7.9646437202   -0.6102272516 >
    1.4285581684    1.8446947840   -0.6086805209    1.4294125287 >
    1.8442969934
CT5  -2.8603784792  -1.4842617111  -1.0619594092
    4.2396238785    3.4814012666    1.8283558825    1.4884117620 >
   -0.1044459859    0.3501748833    2.1249607612    0.2775032892 >
    0.5883951814
CT6  -1.5068968637   0.1032092004   0.1058313247
    2.6489720225   10.0996202111    7.9893009899   -0.6122952064 >
    1.4328854728    1.8472578221   -0.6104725580    1.4338892879 >
    1.8469539469
 STOP
 DYNAMIC POLARIZABLE POINTS
CT  1  -2.7647551097   1.9445600423   0.9676218798 -- FOR W= 0.002792I A.U.
    4.0848541432    2.6871340899    2.7781298852   -0.6651038708 >
   -1.3437782124    1.1551933068   -1.3010636392   -1.7283315979 >
    0.9171046891
CT  2  -0.6117648404  -1.1598710169  -1.7159310937
    4.0813437089    2.6812570695    2.7875175276   -0.6604507385 >
   -1.3479741716    1.1593247581   -1.2964194861   -1.7299010274 >
    0.9170713627
CT  3  -0.5162753119   2.2691607297   0.3132960845
    4.2354728251    3.4896270034    1.8250208421    1.4900979422 >
   -0.1122657384    0.3425287985    2.1247469738    0.2717710742 >
    0.5849098063
CT  4  -1.8681517379   0.6791318741  -0.8502439541
    2.6390244024   10.0707460149    7.9638772260   -0.6086380963 >
    1.4294600620    1.8445660123   -0.6086897855    1.4294210603 >
    1.8442506577
CT  5  -2.8603784792  -1.4842617111  -1.0619594092
    4.2399438152    3.4815110196    1.8286583342    1.4878404038 >
   -0.1048186354    0.3501172287    2.1249631115    0.2775470058 >
    0.5886111216
CT  6  -1.5068968637   0.1032092004   0.1058313247
    2.6490644153   10.0986008351    7.9885337844   -0.6106909093 >
    1.4337792700    1.8471205781   -0.6104817888    1.4338963845 >
    1.8469007902
CT  1  -2.7647551097   1.9445600423   0.9676218798 -- FOR W= 0.015107I A.U.
    4.0822316386    2.6865879693    2.7768446682   -0.6644337146 >
   -1.3423832929    1.1539017287   -1.2985267109   -1.7258082551 >
    0.9165146358
CT  2  -0.6117648404  -1.1598710169  -1.7159310937
    4.0787255420    2.6807175227    2.7862213964   -0.6597866384 >
   -1.3465724096    1.1580273813   -1.2938875530   -1.7273771474 >
    0.9164827664
CT  3  -0.5162753119   2.2691607297   0.3132960845
    4.2326298183    3.4879146105    1.8251224008    1.4885747770 >
   -0.1120949833    0.3427735662    2.1213592770    0.2708135685 >
    0.5844468621
CT  4  -1.8681517379   0.6791318741  -0.8502439541
    2.6371634781   10.0467503437    7.9480020051   -0.6073787458 >
    1.4260878098    1.8373373626   -0.6074295496    1.4260493693 >
    1.8370232698
CT  5  -2.8603784792  -1.4842617111  -1.0619594092
    4.2370958803    3.4798061392    1.8287573067    1.4863213312 >
   -0.1046580016    0.3503548058    2.1215744647    0.2765855943 >
    0.5881444341
CT  6  -1.5068968637   0.1032092004   0.1058313247
    2.6471917098   10.0745176461    7.9726029472   -0.6094280279 >
    1.4303974937    1.8398643867   -0.6092202938    1.4305138063 >
    1.8396450163
CT  1  -2.7647551097   1.9445600423   0.9676218798 -- FOR W= 0.039002I A.U.
    4.0669293590    2.6833026274    2.7693328156   -0.6605334248 >
   -1.3342626181    1.1463890149   -1.2838900320   -1.7111975665 >
    0.9130363879
CT  2  -0.6117648404  -1.1598710169  -1.7159310937
    4.0634484640    2.6774704519    2.7786460475   -0.6559215112 >
   -1.3384120751    1.1504809425   -1.2792799676   -1.7127632755 >
    0.9130129422
CT  3  -0.5162753119   2.2691607297   0.3132960845
    4.2160511331    3.4778772220    1.8256389969    1.4797062662 >
   -0.1111039785    0.3441286302    2.1017674048    0.2653156072 >
    0.5817313164
CT  4  -1.8681517379   0.6791318741  -0.8502439541
    2.6263698086    9.9086789881    7.8564881174   -0.6000964641 >
    1.4066315710    1.7958997043   -0.6001422345    1.4065963393 >
    1.7955928603
CT  5  -2.8603784792  -1.4842617111  -1.0619594092
    4.2204884868    3.4698127284    1.8292586218    1.4774765370 >
   -0.1037257617    0.3516676458    2.1019770486    0.2710646018 >
    0.5854071929
CT  6  -1.5068968637   0.1032092004   0.1058313247
    2.6363295950    9.9359427945    7.8807685055   -0.6021254145 >
    1.4108863892    1.7982687607   -0.6019255927    1.4109981456 >
    1.7980517990
CT  1  -2.7647551097   1.9445600423   0.9676218798 -- FOR W= 0.077996I A.U.
    4.0140129382    2.6707086157    2.7431913575   -0.6471756745 >
   -1.3064210467    1.1207088142   -1.2353428080   -1.6620831379 >
    0.9005767658
CT  2  -0.6117648404  -1.1598710169  -1.7159310937
    4.0106178519    2.6650077436    2.7522874093   -0.6426832186 >
   -1.3104366115    1.1246853808   -1.2308326985   -1.6636372329 >
    0.9005814776
CT  3  -0.5162753119   2.2691607297   0.3132960845
    4.1588484739    3.4425977717    1.8264691993    1.4492857201 >
   -0.1077435259    0.3479102054    2.0362018907    0.2474080688 >
    0.5721667746
CT  4  -1.8681517379   0.6791318741  -0.8502439541
    2.5898468742    9.4553487738    7.5539427427   -0.5757444538 >
    1.3421101536    1.6617803683   -0.5757743268    1.3420850442 >
    1.6614970036
CT  5  -2.8603784792  -1.4842617111  -1.0619594092
    4.1631871756    3.4346870912    1.8300336422    1.4471359464 >
   -0.1005648483    0.3552999334    2.0363923436    0.2530745091 >
    0.5757694495
CT  6  -1.5068968637   0.1032092004   0.1058313247
    2.5995736793    9.4809599229    7.5771639382   -0.5777062105 >
    1.3461842038    1.6636367940   -0.5775316944    1.3462813710 >
    1.6634279680
CT  1  -2.7647551097   1.9445600423   0.9676218798 -- FOR W= 0.138651I A.U.
    3.8704088148    2.6282023053    2.6709846427   -0.6118875621 >
   -1.2326363976    1.0531272544   -1.1173809917   -1.5383125987 >
    0.8640368725
CT  2  -0.6117648404  -1.1598710169  -1.7159310937
    3.8672368263    2.6228501171    2.6795087573   -0.6077039123 >
   -1.2363119141    1.0567999422   -1.1131371476   -1.5398311710 >
    0.8641110358
CT  3  -0.5162753119   2.2691607297   0.3132960845
    4.0044733848    3.3430095990    1.8221152443    1.3685760940 >
   -0.0990668760    0.3522515706    1.8729351776    0.2061196728 >
    0.5451245815
CT  4  -1.8681517379   0.6791318741  -0.8502439541
    2.4960014147    8.3853216967    6.8260091542   -0.5153966735 >
    1.1856962332    1.3580556405   -0.5153932697    1.1856924298 >
    1.3578257296
CT  5  -2.8603784792  -1.4842617111  -1.0619594092
    4.0085497095    3.3355255688    1.8255154133    1.3666285803 >
   -0.0924032793    0.3592177742    1.8730739847    0.2115442912 >
    0.5485405408
CT  6  -1.5068968637   0.1032092004   0.1058313247
    2.5051222249    8.4070395334    6.8466856234   -0.5171966769 >
    1.1893392062    1.3587459822   -0.5170774049    1.1894045961 >
    1.3585576862
CT  1  -2.7647551097   1.9445600423   0.9676218798 -- FOR W= 0.233223I A.U.
    3.5399827540    2.4965558803    2.4980930974   -0.5354746182 >
   -1.0716301519    0.9071678277   -0.9001150681   -1.2921204403 >
    0.7708890150
CT  2  -0.6117648404  -1.1598710169  -1.7159310937
    3.5372782194    2.4919682494    2.5053849787   -0.5319309453 >
   -1.0746297418    0.9101871250   -0.8964576189   -1.2935407342 >
    0.7710895166
CT  3  -0.5162753119   2.2691607297   0.3132960845
    3.6527517162    3.0982303082    1.7836519261    1.1921942675 >
   -0.0808615680    0.3401773496    1.5559461310    0.1392104141 >
    0.4794744458
CT  4  -1.8681517379   0.6791318741  -0.8502439541
    2.2996230294    6.5444811260    5.5194813455   -0.4011480556 >
    0.9020675889    0.8858613584   -0.4011042274    0.9020901451 >
    0.8857152387
CT  5  -2.8603784792  -1.4842617111  -1.0619594092
    3.6562563802    3.0917413794    1.7866288924    1.1906446324 >
   -0.0752612215    0.3461315145    1.5559742026    0.1440243673 >
    0.4825038085
CT  6  -1.5068968637   0.1032092004   0.1058313247
    2.3074694887    6.5595785700    5.5356097297   -0.4026549410 >
    0.9049503791    0.8847571958   -0.4026127445    0.9049716988 >
    0.8846091919
CT  1  -2.7647551097   1.9445600423   0.9676218798 -- FOR W= 0.385897I A.U.
    2.9076233371    2.1646766101    2.1421965083   -0.4047819044 >
   -0.7927561964    0.6564035505   -0.6029166823   -0.9125246167 >
    0.5824007212
CT  2  -0.6117648404  -1.1598710169  -1.7159310937
    2.9056820646    2.1614209616    2.1473930895   -0.4022671492 >
   -0.7947575553    0.6583430155   -0.6002854732   -0.9137103203 >
    0.5827321646
CT  3  -0.5162753119   2.2691607297   0.3132960845
    2.9878596739    2.5929929234    1.6336454886    0.8863855728 >
   -0.0503886196    0.2759778965    1.0840142829    0.0691154420 >
    0.3517409006
CT  4  -1.8681517379   0.6791318741  -0.8502439541
    1.9560271047    4.3233682550    3.8261709330   -0.2460453112 >
    0.5387930398    0.4240518766   -0.2459888910    0.5388252125 >
    0.4239873145
CT  5  -2.8603784792  -1.4842617111  -1.0619594092
    2.9903892805    2.5883234054    1.6357791170    0.8854061952 >
   -0.0464769517    0.2800914349    1.0838855126    0.0727166080 >
    0.3540964934
CT  6  -1.5068968637   0.1032092004   0.1058313247
    1.9617862434    4.3309243125    3.8364949696   -0.2471536521 >
    0.5407161659    0.4214482163   -0.2471648393    0.5407076352 >
    0.4213578509
CT  1  -2.7647551097   1.9445600423   0.9676218798 -- FOR W= 0.649114I A.U.
    1.9745286923    1.5647737279    1.5561919129   -0.2413517137 >
   -0.4442511828    0.3465031862   -0.3076139622   -0.4842798423 >
    0.3217259145
CT  2  -0.6117648404  -1.1598710169  -1.7159310937
    1.9734932453    1.5631529908    1.5588481364   -0.2400376732 >
   -0.4452359051    0.3472854631   -0.3062553111   -0.4850392440 >
    0.3220313492
CT  3  -0.5162753119   2.2691607297   0.3132960845
    2.0182432241    1.7979804498    1.2792714478    0.5031957986 >
   -0.0148592375    0.1550995316    0.5693065462    0.0250764339 >
    0.1804253980
CT  4  -1.8681517379   0.6791318741  -0.8502439541
    1.4389011387    2.3997213132    2.2295408650   -0.1093403950 >
    0.2338451538    0.1423844700   -0.1093077333    0.2338642059 >
    0.1423655034
CT  5  -2.8603784792  -1.4842617111  -1.0619594092
    2.0195853975    1.7955942720    1.2803112795    0.5027515065 >
   -0.0128585741    0.1570495397    0.5691042129    0.0270290116 >
    0.1818110378
CT  6  -1.5068968637   0.1032092004   0.1058313247
    1.4421937606    2.4019911568    2.2346894744   -0.1100214437 >
    0.2348903871    0.1397232846   -0.1100376307    0.2348800974 >
    0.1396861248
CT  1  -2.7647551097   1.9445600423   0.9676218798 -- FOR W= 1.153904I A.U.
    0.9998921514    0.8412339002    0.8525644930   -0.1011838766 >
   -0.1650241578    0.1112794935   -0.1075918167   -0.1688993982 >
    0.1088770677
CT  2  -0.6117648404  -1.1598710169  -1.7159310937
    0.9995465181    0.8407758077    0.8533686054   -0.1007625927 >
   -0.1653428338    0.1114327266   -0.1071724674   -0.1691946743 >
    0.1089982576
CT  3  -0.5162753119   2.2691607297   0.3132960845
    1.0160832066    0.9273324098    0.7502750988    0.1917410807 >
    0.0044802227    0.0474458585    0.1981352211    0.0083436438 >
    0.0499034048
CT  4  -1.8681517379   0.6791318741  -0.8502439541
    0.8078921642    1.0820892001    1.0511447392   -0.0364824120 >
    0.0751884835    0.0240760860   -0.0364738399    0.0751934031 >
    0.0240715232
CT  5  -2.8603784792  -1.4842617111  -1.0619594092
    1.0165229991    0.9266146127    0.7505512149    0.1916018172 >
    0.0051173105    0.0479905976    0.1980213402    0.0089789130 >
    0.0503837508
CT  6  -1.5068968637   0.1032092004   0.1058313247
    0.8092086255    1.0822979064    1.0530187434   -0.0367968441 >
    0.0756203019    0.0225418197   -0.0368012620    0.0756174409 >
    0.0225325673
CT  1  -2.7647551097   1.9445600423   0.9676218798 -- FOR W= 2.307592I A.U.
    0.3312023628    0.2919017966    0.2997164774   -0.0254229424 >
   -0.0367714855    0.0193160240   -0.0230709881   -0.0353582454 >
    0.0202017861
CT  2  -0.6117648404  -1.1598710169  -1.7159310937
    0.3311393726    0.2918340866    0.2998473825   -0.0253491266 >
   -0.0368321951    0.0193297345   -0.0230012688   -0.0354156192 >
    0.0202210365
CT  3  -0.5162753119   2.2691607297   0.3132960845
    0.3348393410    0.3111388203    0.2768424802    0.0438109980 >
    0.0034097224    0.0064868398    0.0414584659    0.0019971851 >
    0.0056014439
CT  4  -1.8681517379   0.6791318741  -0.8502439541
    0.2922295905    0.3473207530    0.3505467331   -0.0101582466 >
    0.0196371153   -0.0040330352   -0.0101577515    0.0196373059 >
   -0.0040344878
CT  5  -2.8603784792  -1.4842617111  -1.0619594092
    0.3349175512    0.3110216906    0.2768808269    0.0437827980 >
    0.0035236425    0.0065741079    0.0414346144    0.0021060197 >
    0.0056853118
CT  6  -1.5068968637   0.1032092004   0.1058313247
    0.2925425777    0.3472234878    0.3509914758   -0.0102547276 >
    0.0197597725   -0.0045319731   -0.0102543214    0.0197599248 >
   -0.0045333845
CT  1  -2.7647551097   1.9445600423   0.9676218798 -- FOR W= 5.957643I A.U.
    0.0567659122    0.0514931775    0.0528205384   -0.0032164800 >
   -0.0044904937    0.0018857137   -0.0026077901   -0.0041246783 >
    0.0021151312
CT  2  -0.6117648404  -1.1598710169  -1.7159310937
    0.0567600798    0.0514870022    0.0528325743   -0.0032093805 >
   -0.0044964656    0.0018866749   -0.0026016201   -0.0041297208 >
    0.0021170713
CT  3  -0.5162753119   2.2691607297   0.3132960845
    0.0572019263    0.0537880064    0.0500896948    0.0053710258 >
    0.0005033557    0.0004796157    0.0047621678    0.0001378514 >
    0.0002501433
CT  4  -1.8681517379   0.6791318741  -0.8502439541
    0.0532028754    0.0598134308    0.0620229603   -0.0017647478 >
    0.0032305883   -0.0021956903   -0.0017648638    0.0032304968 >
   -0.0021959788
CT  5  -2.8603784792  -1.4842617111  -1.0619594092
    0.0572091216    0.0537768404    0.0500935687    0.0053681567 >
    0.0005145064    0.0004879157    0.0047604261    0.0001474078 >
    0.0002580021
CT  6  -1.5068968637   0.1032092004   0.1058313247
    0.0532371220    0.0597853453    0.0620829856   -0.0017814694 >
    0.0032517323   -0.0022768430   -0.0017812161    0.0032518661 >
   -0.0022769789
CT  1  -2.7647551097   1.9445600423   0.9676218798 -- FOR W=32.239080I A.U.
    0.0020276668    0.0018520815    0.0018937692   -0.0001013920 >
   -0.0001456008    0.0000589248   -0.0000786719   -0.0001319469 >
    0.0000674892
CT  2  -0.6117648404  -1.1598710169  -1.7159310937
    0.0020274765    0.0018518753    0.0018941664   -0.0001011566 >
   -0.0001457981    0.0000589578   -0.0000784713   -0.0001321075 >
    0.0000675557
CT  3  -0.5162753119   2.2691607297   0.3132960845
    0.0020413826    0.0019243119    0.0018078230    0.0001724615 >
    0.0000137070    0.0000160091    0.0001497348    0.0000000652 >
    0.0000074429
CT  4  -1.8681517379   0.6791318741  -0.8502439541
    0.0019442166    0.0021544842    0.0022543101   -0.0000649834 >
    0.0001169324   -0.0000975956   -0.0000649890    0.0001169283 >
   -0.0000976059
CT  5  -2.8603784792  -1.4842617111  -1.0619594092
    0.0020416163    0.0019239440    0.0018079537    0.0001723664 >
    0.0000140755    0.0000162821    0.0001496831    0.0000003714 >
    0.0000077003
CT  6  -1.5068968637   0.1032092004   0.1058313247
    0.0019450870    0.0021534165    0.0022563973   -0.0000656342 >
    0.0001177834   -0.0001005055   -0.0000656241    0.0001177889 >
   -0.0001005093
 STOP
 DIPOLE-QUADRUPOLE DYNAMIC POLARIZABLE POINTS
CT  1  -2.7647551097   1.9445600423   0.9676218798 -- FOR W= 0.002792I A.U.
   -1.1725668821   -0.9106296855   -1.1759295324    0.1166185776 >
   -0.1424049272    1.4287815813   -0.5547710614    1.8121731716 >
   -0.9397236887    0.7621622145    0.2340729408   -0.1329877449 >
   -1.2471850499   -1.3466613350   -0.1272361973   -1.0274913148 >
   -0.6817849046   -0.9216076676    0.5618001501    0.8670403882 >
    0.0566932071   -0.4132275386   -1.1421580036   -0.5115580386 >
   -0.7167443001   -0.9904165636    0.5137480898
CT  2  -0.6117648404  -1.1598710169  -1.7159310937
    1.1665066123    0.9117379733    1.1703558516   -0.1148510473 >
    0.1383867271   -1.4222465401    0.5538445556   -1.8142046029 >
    0.9445360103   -0.7535901723   -0.2345196860    0.1395916896 >
    1.2456831081    1.3515486785    0.1194931067    1.0294272414 >
    0.6833323741    0.9165452607   -0.5673129959   -0.8750245391 >
   -0.0534492638    0.4049501106    1.1429548339    0.5100721465 >
    0.7157772918    0.9979868928   -0.5229698094
CT  3  -0.5162753119   2.2691607297   0.3132960845
    1.1322753467   -1.5733439073   -0.3141759081   -0.4579816842 >
   -0.5946056009   -1.4437979170    0.3607485488   -1.0158676901 >
    1.6450173392    0.8383795691   -0.4422910153   -0.8663869048 >
    1.3449253152   -1.1044129749   -1.4540842126    0.2131294018 >
   -0.7715222392   -0.5997313908    0.4205670855    0.2218309821 >
    0.0980474030    0.8773338230   -0.9808239795    0.0614223523 >
    0.4935181575    0.3110197787   -0.7972295363
CT  4  -1.8681517379   0.6791318741  -0.8502439541
   -0.3014484591   -0.7661653871    1.4259713203   -0.7661514121 >
   -0.3239582144   -0.4831617392    1.4259818651   -0.4832155355 >
    0.6254123011    1.6094379103    2.6953249913    0.4379686048 >
    2.6953027119   -7.0563205468    5.1153076227    0.4380908519 >
    5.1151716964    5.4470943093   -2.4234033514    0.2884793970 >
    2.5447585932    0.2883773246   -4.1056818400   -0.0507233096 >
    2.5447865003   -0.0504976617    6.5292105730
CT  5  -2.8603784792  -1.4842617111  -1.0619594092
   -1.1384105676    1.5784119908    0.3097043324    0.4578995337 >
    0.5994130904    1.4356687293   -0.3627649722    1.0178855834 >
   -1.6489319948   -0.8383817277    0.4445669642    0.8569078714 >
   -1.3483366622    1.1106953817    1.4429102300   -0.2207510871 >
    0.7717733198    0.6018083287   -0.4300216953   -0.2165286378 >
   -0.0970553758   -0.8730887663    0.9822041145   -0.0630772314 >
   -0.4920812215   -0.3094677058    0.7914237955
CT  6  -1.5068968637   0.1032092004   0.1058313247
    0.3153306293    0.7621242799   -1.4156368767    0.7621810592 >
    0.3217802882    0.4992460563   -1.4156050784    0.4990450936 >
   -0.6371172811   -1.6090909620   -2.6920895038   -0.4202424410 >
   -2.6921800231    7.0131669610   -5.1093020754   -0.4201518478 >
   -5.1092069387   -5.4042907126    2.4275602590   -0.2721012319 >
   -2.5537608936   -0.2720922500    4.0963965538    0.0849805481 >
   -2.5536767380    0.0848226138   -6.5240837478
CT  1  -2.7647551097   1.9445600423   0.9676218798 -- FOR W= 0.015107I A.U.
   -1.1685248231   -0.9077976408   -1.1737046587    0.1164352769 >
   -0.1422521600    1.4257714788   -0.5543688988    1.8080367909 >
   -0.9373009318    0.7612169291    0.2345780178   -0.1311881296 >
   -1.2423319447   -1.3431435083   -0.1289117801   -1.0230702861 >
   -0.6818265173   -0.9197539133    0.5599012075    0.8660720260 >
    0.0571167540   -0.4104344580   -1.1399006138   -0.5114820629 >
   -0.7140511985   -0.9889296377    0.5135783835
CT  2  -0.6117648404  -1.1598710169  -1.7159310937
    1.1624738358    0.9089039951    1.1681425014   -0.1146699454 >
    0.1382426043   -1.4192534335    0.5534425426   -1.8100612583 >
    0.9421055497   -0.7526594252   -0.2350232867    0.1377804582 >
    1.2408321688    1.3480211716    0.1211824227    1.0249981906 >
    0.6833720198    0.9146994086   -0.5654064358   -0.8740440013 >
   -0.0538771543    0.4021748220    1.1406981316    0.5099978349 >
    0.7130893799    0.9964850495   -0.5227813341
CT  3  -0.5162753119   2.2691607297   0.3132960845
    1.1283318010   -1.5698499648   -0.3125539649   -0.4577645576 >
   -0.5935535053   -1.4403097670    0.3603876333   -1.0136367574 >
    1.6414962850    0.8361234970   -0.4430554244   -0.8650879292 >
    1.3389102542   -1.1025337489   -1.4517154222    0.2112645667 >
   -0.7711464156   -0.5968065116    0.4205092001    0.2201147742 >
    0.0979417103    0.8736841201   -0.9798086268    0.0613268819 >
    0.4922506124    0.3101955256   -0.7942111782
CT  4  -1.8681517379   0.6791318741  -0.8502439541
   -0.3006528119   -0.7651010110    1.4238048166   -0.7650872753 >
   -0.3232500415   -0.4822502641    1.4238152097   -0.4823031850 >
    0.6239084611    1.6066080785    2.6886794766    0.4359187529 >
    2.6886575787   -7.0376952247    5.1029375423    0.4360400254 >
    5.1028021598    5.4312981555   -2.4194095711    0.2869108875 >
    2.5394308469    0.2868093982   -4.0946299798   -0.0525935804 >
    2.5394583524   -0.0523688354    6.5141645404
CT  5  -2.8603784792  -1.4842617111  -1.0619594092
   -1.1344586378    1.5749077030    0.3080938144    0.4576832801 >
    0.5983518414    1.4322036154   -0.3624021407    1.0156465000 >
   -1.6454023788   -0.8361221595    0.4453275266    0.8556186344 >
   -1.3423149994    1.1088075975    1.4405524713   -0.2188702524 >
    0.7713974064    0.5988760935   -0.4299545169   -0.2148160750 >
   -0.0969505277   -0.8694572923    0.9811921464   -0.0629799576 >
   -0.4908171769   -0.3086428490    0.7884133904
CT  6  -1.5068968637   0.1032092004   0.1058313247
    0.3145052029    0.7610671767   -1.4134904060    0.7611235796 >
    0.3210778416    0.4983016362   -1.4134588254    0.4981020167 >
   -0.6355893842   -1.6062625295   -2.6854582253   -0.4182399197 >
   -2.6855481445    6.9946648332   -5.0969661384   -0.4181502093 >
   -5.0968711824   -5.3886163409    2.4235505298   -0.2705737433 >
   -2.5484202549   -0.2705645277    4.0853888064    0.0867704628 >
   -2.5483366754    0.0866128285   -6.5090658729
CT  1  -2.7647551097   1.9445600423   0.9676218798 -- FOR W= 0.039002I A.U.
   -1.1453001187   -0.8915258574   -1.1608847814    0.1153648674 >
   -0.1413701511    1.4084314329   -0.5520321615    1.7842193976 >
   -0.9233476609    0.7557153920    0.2374361330   -0.1208665288 >
   -1.2144669614   -1.3228711536   -0.1384733525   -0.9976717581 >
   -0.6819911357   -0.9090681715    0.5489612571    0.8604664873 >
    0.0595364515   -0.3944068945   -1.1268776055   -0.5109949869 >
   -0.6985783848   -0.9803281952    0.5125815117
CT  2  -0.6117648404  -1.1598710169  -1.7159310937
    1.1393030426    0.8926209510    1.1553893280   -0.1136123737 >