! Gradient of H2O trimer using EFP2 including the E7 contribution to the dispersion energy
!                         ----------------------
!                         GRADIENT OF THE ENERGY
!                         ----------------------
!
! UNITS ARE HARTREE/BOHR    E'X               E'Y               E'Z
!      TOTAL QM TRANS.  0.000000000       0.000000000       0.000000000
!      TOTAL QM TORQUE  0.000000000       0.000000000       0.000000000
!  EFP           TRANS GRADIENT                           TORQUE
!    1  -0.0001583  0.0015390  0.0010996    -0.0024685 -0.0003729 -0.0006280
!    2   0.0016362 -0.0003236 -0.0007720     0.0001170 -0.0025187 -0.0007809
!    3  -0.0014779 -0.0012154 -0.0003277    -0.0023529  0.0013305 -0.0006083
!
!                   MAXIMUM GRADIENT =    0.002518708
!                       RMS GRADIENT =    0.001333746
!
 $CONTRL SCFTYP=RHF RUNTYP=GRADIENT COORD=FRAGONLY $END                  
 $SYSTEM TIMLIM=100 MWORDS=1000 $END                                            
 $BASIS GBASIS=N311 NGAUSS=6 NDFUNC=1                                           
  NPFUNC=1 DIFFSP=.TRUE. DIFFS=.TRUE. $END                                      
 $GUESS GUESS=HUCKEL $END                                                       
 $EFRAG
 coord=cart
 fragname=water   
 A01O          -0.167787    1.645761    0.108747
 A02H           0.613411    1.102620    0.113724
 A03H          -0.093821    2.209720   -0.643619
 fragname=water   
 A01O       1.51756895    -0.66742402    -0.08067400
 A02H       1.98964500    -1.09879899     0.61204702
 A03H       0.66839701    -1.09179795    -0.13974400
 fragname=water   
 A01O          -1.350388   -0.964879   -0.092208
 A02H          -1.908991   -1.211298    0.626207
 A03H          -1.263787   -0.018107   -0.055536 
 $END
 $WATER   
EFP DATA FOR WATER    SCFTYP=RHF     ... GENERATED WITH BASIS SET=XXX
 COORDINATES (BOHR)
A01O      -0.3170714543   3.1100373502   0.2055020320  15.9949100  8.0
A02H       1.1591787268   2.0836496875   0.2149071982   1.0078250  1.0
A03H      -0.1772959819   4.1757651206  -1.2162635505   1.0078250  1.0
BO21       0.4210536362   2.5968435188   0.2102046151   0.0000000  0.0
BO31      -0.2471837181   3.6429012354  -0.5053807593   0.0000000  0.0
 STOP
 MONOPOLES 
A01O      -8.1067529161   8.00000
A02H      -0.5490023566   1.00000
A03H      -0.5508093320   1.00000
BO21      -0.3924457824   0.00000
BO31      -0.4009896129   0.00000
 STOP
 DIPOLES 
A01O        0.5754168470    0.0211606792   -0.5116484901
A02H        0.0482030648   -0.0492763353    0.0195901219
A03H       -0.0149978426    0.0501965802   -0.0487474418
BO21       -0.3148633973    0.1636019427    0.0656606166
BO31       -0.1054725804   -0.1734967336    0.3012878614
 STOP
 QUADRUPOLES 
A01O       -3.9632930034   -4.0467314866   -4.0162055089   -0.3441915707 >
           -0.1254655999   -0.3993745665
A02H       -0.3027608494   -0.3152654918   -0.3168227325   -0.0086330233 >
           -0.0051349274   -0.0001606108
A03H       -0.3139590389   -0.3130971494   -0.3031145254    0.0010931659 >
           -0.0064311496   -0.0093589500
BO21       -0.0309088982   -0.1053579571   -0.1576585092   -0.0900082909 >
           -0.0089719455   -0.0055093195
BO31       -0.1681929086   -0.1116990726   -0.0499746546    0.0086606235 >
           -0.0216114938   -0.0923879852
 STOP
 OCTUPOLES  
A01O          1.508634208      0.052562009     -1.335427701      0.017878051 >
             -0.457235474      0.496620652     -0.441046945      0.511478025 >
              0.018747456     -0.000628387
A02H          0.042106532     -0.076316784      0.051718951     -0.019258555 >
              0.018835202      0.013340451      0.016832822      0.017199594 >
             -0.025987038     -0.000249588
A03H         -0.047434286      0.075371596     -0.046515610      0.025634005 >
             -0.017755504     -0.015874053     -0.013872926     -0.018173802 >
              0.019098463      0.001026080
BO21         -0.881217898      0.438099921      0.189826006      0.171906092 >
              0.062526031     -0.300623723      0.063198146     -0.279315183 >
              0.140341032      0.000473775
BO31         -0.307862782     -0.453809806      0.832452938     -0.142269632 >
              0.264567635     -0.106161671      0.285952850     -0.104916504 >
             -0.176292288      0.003441664
 STOP
 POLARIZABLE POINTS
CT1  -0.2079133105   3.6715254895  -0.5735488804
    0.8846382334    1.8152332564    2.5104782692   -0.0222306042 >
   -0.1149880173   -1.3873464202    0.0507640577   -0.2042423937 >
   -1.3257330086
CT2   0.4923158741   2.5734096076   0.1787154531
    2.6813604562    1.7687935783    0.8750535418   -1.3206549398 >
   -0.0342237543   -0.0974826902   -1.3942677557    0.0558825714 >
   -0.1595934167
CT3  -0.7576710455   2.7623681447   0.1078634288
    2.4977507989    1.9484751984    1.1769003252    0.8796815881 >
    0.2189115956    0.0291949984    0.9335154608    0.2946373245 >
    0.0765185804
CT4  -0.2868639186   3.4446417184   0.6655696873
    1.1416325577    1.8953738491    2.5861134872   -0.0677489302 >
    0.0866625098    0.9163512875   -0.1208254983    0.0100738410 >
    0.8698216381
 STOP
 DYNAMIC POLARIZABLE POINTS
CT  1  -0.2079133105   3.6715254895  -0.5735488804 -- FOR W= 0.002792I A.U.
    0.8846423435    1.8150863892    2.5102940211   -0.0222313570 >
   -0.1150482912   -1.3871895929    0.0506853128   -0.2042514697 >
   -1.3256333666
CT  2   0.4923158741   2.5734096076   0.1787154531
    2.6811712717    1.7686381087    0.8750506904   -1.3205445533 >
   -0.0342429549   -0.0974431420   -1.3941596227    0.0558159929 >
   -0.1595890767
CT  3  -0.7576710455   2.7623681447   0.1078634288
    2.4977802740    1.9486537310    1.1769525218    0.8796437906 >
    0.2189001206    0.0292243729    0.9335602584    0.2946923967 >
    0.0765311040
CT  4  -0.2868639186   3.4446417184   0.6655696873
    1.1416612451    1.8955883689    2.5861436632   -0.0677226554 >
    0.0867161172    0.9165109520   -0.1209347466    0.0100607599 >
    0.8697989753
CT  1  -0.2079133105   3.6715254895  -0.5735488804 -- FOR W= 0.015107I A.U.
    0.8845616882    1.8142892712    2.5088594142   -0.0224250782 >
   -0.1148274734   -1.3862508757    0.0505838399   -0.2041435044 >
   -1.3246167785
CT  2   0.4923158741   2.5734096076   0.1787154531
    2.6795799359    1.7678758213    0.8749792697   -1.3194916599 >
   -0.0342750155   -0.0974472481   -1.3932000877    0.0558981374 >
   -0.1596719904
CT  3  -0.7576710455   2.7623681447   0.1078634288
    2.4956894680    1.9473223870    1.1766361587    0.8785909166 >
    0.2188307027    0.0292889159    0.9321271186    0.2940758748 >
    0.0762553425
CT  4  -0.2868639186   3.4446417184   0.6655696873
    1.1413946355    1.8943143665    2.5839457598   -0.0678147810 >
    0.0863865290    0.9151072709   -0.1206455092    0.0102769386 >
    0.8687365244
CT  1  -0.2079133105   3.6715254895  -0.5735488804 -- FOR W= 0.039002I A.U.
    0.8840862464    1.8096348350    2.5004938135   -0.0235435871 >
   -0.1135491125   -1.3807705300    0.0499935429   -0.2035113351 >
   -1.3186905436
CT  2   0.4923158741   2.5734096076   0.1787154531
    2.6703018238    1.7634245312    0.8745574653   -1.3133554236 >
   -0.0344588559   -0.0974689364   -1.3875984051    0.0563682158 >
   -0.1601449172
CT  3  -0.7576710455   2.7623681447   0.1078634288
    2.4835479846    1.9395850732    1.1747807232    0.8724801458 >
    0.2184175463    0.0296564224    0.9238309712    0.2905184202 >
    0.0746668954
CT  4  -0.2868639186   3.4446417184   0.6655696873
    1.1398264378    1.8869101319    2.5711839404   -0.0683379345 >
    0.0844918197    0.9069811432   -0.1189770204    0.0115188936 >
    0.8625716352
CT  1  -0.2079133105   3.6715254895  -0.5735488804 -- FOR W= 0.077996I A.U.
    0.8823778338    1.7934948808    2.4716310420   -0.0272580892 >
   -0.1092591454   -1.3617803506    0.0479755234   -0.2012967714 >
   -1.2982682827
CT  2   0.4923158741   2.5734096076   0.1787154531
    2.6383093011    1.7479859197    0.8730313445   -1.2922307778 >
   -0.0350527712   -0.0975144630   -1.3681904225    0.0578742898 >
   -0.1616395474
CT  3  -0.7576710455   2.7623681447   0.1078634288
    2.4423034633    1.9132203436    1.1682424358    0.8517660616 >
    0.2168853642    0.0308118451    0.8959821126    0.2787195191 >
    0.0694336955
CT  4  -0.2868639186   3.4446417184   0.6655696873
    1.1342432463    1.8616779558    2.5278517005   -0.0699664547 >
    0.0782963864    0.8796964597   -0.1134508437    0.0155659090 >
    0.8416923788
CT  1  -0.2079133105   3.6715254895  -0.5735488804 -- FOR W= 0.138651I A.U.
    0.8772186471    1.7493126541    2.3937400165   -0.0361955611 >
   -0.0985874486   -1.3099453817    0.0426739989   -0.1950731353 >
   -1.2433640535
CT  2   0.4923158741   2.5734096076   0.1787154531
    2.5521155015    1.7056984882    0.8683429094   -1.2355988586 >
   -0.0363528755   -0.0974159833   -1.3152362695    0.0610731625 >
   -0.1646455981
CT  3  -0.7576710455   2.7623681447   0.1078634288
    2.3356240420    1.8443720929    1.1495949937    0.7985365199 >
    0.2119860545    0.0331358924    0.8263167999    0.2501636153 >
    0.0570230804
CT  4  -0.2868639186   3.4446417184   0.6655696873
    1.1179352880    1.7957646877    2.4158976027   -0.0731581894 >
    0.0639074732    0.8113946489   -0.1001656456    0.0247834775 >
    0.7881599458
CT  1  -0.2079133105   3.6715254895  -0.5735488804 -- FOR W= 0.233223I A.U.
    0.8621620499    1.6451845972    2.2160669284   -0.0510841968 >
   -0.0787787198   -1.1891439235    0.0313918778   -0.1796764612 >
   -1.1195182899
CT  2   0.4923158741   2.5734096076   0.1787154531
    2.3562744388    1.6058863275    0.8542535101   -1.1086781348 >
   -0.0377883816   -0.0960366690   -1.1919555940    0.0640903219 >
   -0.1663388451
CT  3  -0.7576710455   2.7623681447   0.1078634288
    2.1133813574    1.6971150872    1.1021735695    0.6896432814 >
    0.1973550755    0.0349681461    0.6918921876    0.1987899956 >
    0.0359142685
CT  4  -0.2868639186   3.4446417184   0.6655696873
    1.0749655472    1.6546202618    2.1830900863   -0.0755919004 >
    0.0404846881    0.6793744954   -0.0770357453    0.0380643077 >
    0.6791080197
CT  1  -0.2079133105   3.6715254895  -0.5735488804 -- FOR W= 0.385897I A.U.
    0.8184222360    1.4343179980    1.8770022646   -0.0618401887 >
   -0.0548399839   -0.9538192230    0.0133315826   -0.1468019561 >
   -0.8903600616
CT  2   0.4923158741   2.5734096076   0.1787154531
    1.9853526993    1.4031009598    0.8120785871   -0.8765741833 >
   -0.0355420029   -0.0891930590   -0.9524325147    0.0572600246 >
   -0.1532317840
CT  3  -0.7576710455   2.7623681447   0.1078634288
    1.7467558478    1.4390122146    0.9957001574    0.5187281868 >
    0.1606617773    0.0301129403    0.5003775198    0.1326428552 >
    0.0125555848
CT  4  -0.2868639186   3.4446417184   0.6655696873
    0.9754821973    1.4063879188    1.7996027641   -0.0700758450 >
    0.0155661601    0.4906570308   -0.0510367246    0.0427427110 >
    0.5087955481
CT  1  -0.2079133105   3.6715254895  -0.5735488804 -- FOR W= 0.649114I A.U.
    0.7041840501    1.0869061037    1.3626393054   -0.0488346145 >
   -0.0379149248   -0.6066331973   -0.0036636624   -0.0931751794 >
   -0.5685004668
CT  2   0.4923158741   2.5734096076   0.1787154531
    1.4290787800    1.0670225999    0.7000836831   -0.5557469309 >
   -0.0236157622   -0.0689957578   -0.6012298559    0.0320260766 >
   -0.1073918266
CT  3  -0.7576710455   2.7623681447   0.1078634288
    1.2698345953    1.0700324194    0.7976528553    0.3236212214 >
    0.0977990608    0.0153803938    0.3051429622    0.0703457293 >
   -0.0019210162
CT  4  -0.2868639186   3.4446417184   0.6655696873
    0.7868197945    1.0490478809    1.3016550710   -0.0522383113 >
   -0.0028134923    0.2976555149   -0.0334475806    0.0242576451 >
    0.3152206841
CT  1  -0.2079133105   3.6715254895  -0.5735488804 -- FOR W= 1.153904I A.U.
    0.4809489638    0.6492346400    0.7731981957   -0.0181187854 >
   -0.0239042291   -0.2670051119   -0.0066700095   -0.0379102015 >
   -0.2573401978
CT  2   0.4923158741   2.5734096076   0.1787154531
    0.8013542095    0.6399698428    0.4794663124   -0.2502595036 >
   -0.0068428324   -0.0352359701   -0.2616941579    0.0071458165 >
   -0.0448889596
CT  3  -0.7576710455   2.7623681447   0.1078634288
    0.7558886247    0.6416194128    0.5090959248    0.1633025881 >
    0.0377985400    0.0026712177    0.1568295620    0.0284518103 >
   -0.0032326445
CT  4  -0.2868639186   3.4446417184   0.6655696873
    0.5061534212    0.6305898982    0.7698618382   -0.0279226263 >
   -0.0094054853    0.1517694928   -0.0214636635   -0.0000415031 >
    0.1576614795
CT  1  -0.2079133105   3.6715254895  -0.5735488804 -- FOR W= 2.307592I A.U.
    0.2119271745    0.2585931253    0.2938189793   -0.0011282230 >
   -0.0088152347   -0.0707294971   -0.0013436995   -0.0085516396 >
   -0.0709113743
CT  2   0.4923158741   2.5734096076   0.1787154531
    0.3007554205    0.2556875741    0.2117343034   -0.0688519188 >
    0.0001956266   -0.0087378852   -0.0685961559   -0.0001172358 >
   -0.0085220041
CT  3  -0.7576710455   2.7623681447   0.1078634288
    0.3095437894    0.2628757650    0.2157435752    0.0603476550 >
    0.0094629678   -0.0002840234    0.0599414305    0.0089766331 >
   -0.0005840861
CT  4  -0.2868639186   3.4446417184   0.6655696873
    0.2155295813    0.2586921074    0.3139416890   -0.0096027666 >
   -0.0052829100    0.0577885313   -0.0092367894   -0.0047473560 >
    0.0580546231
CT  1  -0.2079133105   3.6715254895  -0.5735488804 -- FOR W= 5.957643I A.U.
    0.0442229037    0.0507785682    0.0559546466    0.0003323708 >
   -0.0014861103   -0.0096096005    0.0000300082   -0.0011162136 >
   -0.0098648418
CT  2   0.4923158741   2.5734096076   0.1787154531
    0.0568372398    0.0502979994    0.0441658907   -0.0095818275 >
    0.0001419642   -0.0009530550   -0.0092733883   -0.0002353541 >
   -0.0006926858
CT  3  -0.7576710455   2.7623681447   0.1078634288
    0.0627539676    0.0538390162    0.0452079756    0.0113838709 >
    0.0015494833    0.0000896859    0.0114085958    0.0016004325 >
    0.0001226938
CT  4  -0.2868639186   3.4446417184   0.6655696873
    0.0452012786    0.0530622112    0.0635374926   -0.0015747027 >
   -0.0010627790    0.0110195282   -0.0016055016   -0.0011063097 >
    0.0109813945
CT  1  -0.2079133105   3.6715254895  -0.5735488804 -- FOR W=32.239080I A.U.
    0.0017182339    0.0019325877    0.0021110640    0.0000129442 >
   -0.0000562976   -0.0003214402    0.0000006795   -0.0000412935 >
   -0.0003317936
CT  2   0.4923158741   2.5734096076   0.1787154531
    0.0021409495    0.0019151347    0.0017134870   -0.0003225273 >
    0.0000009712   -0.0000323705   -0.0003100745   -0.0000142625 >
   -0.0000218585
CT  3  -0.7576710455   2.7623681447   0.1078634288
    0.0024231959    0.0021092042    0.0018055047    0.0004138029 >
    0.0000565675    0.0000166996    0.0004153516    0.0000593107 >
    0.0000184815
CT  4  -0.2868639186   3.4446417184   0.6655696873
    0.0018035535    0.0020818714    0.0024524809   -0.0000429648 >
   -0.0000347282    0.0004031308   -0.0000447025   -0.0000372408 >
    0.0004011895
 STOP
 DIPOLE-QUADRUPOLE DYNAMIC POLARIZABLE POINTS
CT  1  -0.2079133105   3.6715254895  -0.5735488804 -- FOR W= 0.002792I A.U.
    0.3179652812    0.0638249629   -0.1943184138    0.0658734987 >
    0.1350823288    0.2179030747   -0.1968245062    0.2196324010 >
   -0.2982097609    0.0527835696    0.2393786975   -0.1475147791 >
    0.3005506902    0.1958663172    0.0980829927   -0.2223499681 >
    0.1497243669   -0.3153341986   -0.2756585050   -0.0454101481 >
    0.0364699305   -0.1219747574    0.3992443554   -0.4918252414 >
    0.1301357869   -0.5564610173   -0.1727211322
CT  2   0.4923158741   2.5734096076   0.1787154531
    0.1315774947    0.5962198996   -0.1726366413    0.5168306127 >
   -0.3564502708    0.1803191880   -0.0755136513    0.1132986983 >
    0.2914294532    0.2769010105   -0.0785197615    0.2585778122 >
   -0.0190208475   -0.2048325663   -0.2999504091    0.1857881908 >
   -0.2497213506    0.0024505738    0.2803421149   -0.1363838287 >
    0.2695262857   -0.1421528670   -0.1968096899   -0.0800229795 >
    0.2765840489   -0.0848932483   -0.2308844735
CT  3  -0.7576710455   2.7623681447   0.1078634288
    1.6971660329    0.9651924791    0.0433417199    0.9222457266 >
   -0.4769003159   -0.3815981289   -0.0170300414   -0.4198695635 >
   -1.2506767409    0.6010559003    1.3980434492   -0.2033669810 >
    1.3697477706    0.3516204881   -0.4492438032   -0.2425535944 >
   -0.4740706531   -0.9110499562    0.7163630914    0.3971789468 >
    0.3118169224    0.3950845326   -0.2282152528    0.2656578278 >
    0.3097015770    0.2643375076   -0.4029492274
CT  4  -0.2868639186   3.4446417184   0.6655696873
    0.3046754978   -0.2972464355   -0.2262017103   -0.2924396964 >
    0.1767105607   -0.2551284617   -0.2192773010   -0.2503192304 >
   -0.5699051714    0.7592054048    0.6494171534    0.4728833011 >
    0.6228853656   -0.2362233992   -1.2550363559    0.4340729367 >
   -1.2783271575   -0.5655623666    1.2437665278    0.5385659374 >
    0.4193186534    0.4961256591    0.5780284780   -0.8788525798 >
    0.3573313284   -0.9166262017   -1.8054286136
CT  1  -0.2079133105   3.6715254895  -0.5735488804 -- FOR W= 0.015107I A.U.
    0.3179102318    0.0637176309   -0.1942132832    0.0657687584 >
    0.1351829988    0.2177115582   -0.1967225461    0.2194430725 >
   -0.2980594932    0.0527383537    0.2392681354   -0.1474304353 >
    0.3005175181    0.1957826251    0.0980096499   -0.2223602999 >
    0.1497163524   -0.3152896488   -0.2755713243   -0.0452569630 >
    0.0363514737   -0.1219184353    0.3990817974   -0.4915283778 >
    0.1301358285   -0.5562459203   -0.1727079126
CT  2   0.4923158741   2.5734096076   0.1787154531
    0.1315756411    0.5960003708   -0.1726168154    0.5165104026 >
   -0.3562824644    0.1802166393   -0.0753706623    0.1131111604 >
    0.2913479069    0.2768657519   -0.0785444433    0.2585791482 >
   -0.0189700730   -0.2047380317   -0.2999110256    0.1856972213 >
   -0.2496182714    0.0024858031    0.2802053040   -0.1362361750 >
    0.2693991526   -0.1420125298   -0.1968825079   -0.0799110096 >
    0.2764658658   -0.0847874545   -0.2308617034
CT  3  -0.7576710455   2.7623681447   0.1078634288
    1.6951345502    0.9634813014    0.0431751121    0.9208374467 >
   -0.4762584590   -0.3813167484   -0.0167608577   -0.4193116729 >
   -1.2490722799    0.5998036960    1.3963131230   -0.2031664122 >
    1.3682170101    0.3513101535   -0.4488419536   -0.2420713456 >
   -0.4734902098   -0.9097808172    0.7153441796    0.3967086078 >
    0.3116454281    0.3946302500   -0.2280794861    0.2656660482 >
    0.3095453523    0.2643552258   -0.4026804674
CT  4  -0.2868639186   3.4446417184   0.6655696873
    0.3046199706   -0.2971925715   -0.2260896319   -0.2924202816 >
    0.1766315768   -0.2549214277   -0.2192145227   -0.2501484637 >
   -0.5691391766    0.7581555478    0.6486085420    0.4720347830 >
    0.6222669036   -0.2360369573   -1.2536497414    0.4335019838 >
   -1.2767704040   -0.5643885665    1.2422314419    0.5377583975 >
    0.4185087842    0.4956210650    0.5772675572   -0.8774947486 >
    0.3569627933   -0.9149924348   -1.8032534457
CT  1  -0.2079133105   3.6715254895  -0.5735488804 -- FOR W= 0.039002I A.U.
    0.3175790231    0.0630970265   -0.1936051055    0.0651629937 >
    0.1357601239    0.2165922201   -0.1961325226    0.2183362622 >
   -0.2971837574    0.0524785406    0.2386223352   -0.1469375353 >
    0.3003148507    0.1953009656    0.0975859097   -0.2224095104 >
    0.1496666821   -0.3150312122   -0.2750591787   -0.0443672825 >
    0.0356639451   -0.1215833913    0.3981333900   -0.4897996615 >
    0.1301268192   -0.5549854003   -0.1726275666
CT  2   0.4923158741   2.5734096076   0.1787154531
    0.1315608695    0.5947126334   -0.1724919389    0.5146461822 >
   -0.3553045497    0.1796129936   -0.0745405750    0.1120208810 >
    0.2908680600    0.2766628799   -0.0786854563    0.2585767463 >
   -0.0186790363   -0.2041938382   -0.2996732314    0.1851662946 >
   -0.2490157665    0.0026856018    0.2794065527   -0.1353726848 >
    0.2686618776   -0.1411909325   -0.1972970074   -0.0792628644 >
    0.2757798373   -0.0841746720   -0.2307183742
CT  3  -0.7576710455   2.7623681447   0.1078634288
    1.6833500497    0.9535794066    0.0422181753    0.9126762971 >
   -0.4725337150   -0.3796770533   -0.0152132277   -0.4160828249 >
   -1.2397778683    0.5925735417    1.3862857262   -0.2019987314 >
    1.3593365118    0.3494980668   -0.4465116384   -0.2392846715 >
   -0.4701333987   -0.9024247311    0.7094562335    0.3939858553 >
    0.3106338172    0.3919996438   -0.2272833027    0.2656971593 >
    0.3086214981    0.2644409272   -0.4011197676
CT  4  -0.2868639186   3.4446417184   0.6655696873
    0.3042880931   -0.2968645003   -0.2254216915   -0.2922901852 >
    0.1761652724   -0.2537212555   -0.2188299225   -0.2491566072 >
   -0.5647117698    0.7520693883    0.6439294607    0.4671292479 >
    0.6186805849   -0.2349438359   -1.2456047373    0.4301915574 >
   -1.2677475175   -0.5576115990    1.2333368865    0.5330871850 >
    0.4138301118    0.4926909694    0.5728518022   -0.8696269883 >
    0.3548205834   -0.9055387198   -1.7906376774
CT  1  -0.2079133105   3.6715254895  -0.5735488804 -- FOR W= 0.077996I A.U.
    0.3163042821    0.0610242561   -0.1915695573    0.0631378846 >
    0.1376222367    0.2126980844   -0.1941552813    0.2144823627 >
   -0.2941686665    0.0516318158    0.2363799681   -0.1452229683 >
    0.2994957141    0.1937209028    0.0961748496   -0.2224360650 >
    0.1494570383   -0.3141558119   -0.2732432706   -0.0413447899 >
    0.0333341183   -0.1203422505    0.3948543594   -0.4838660963 >
    0.1299762246   -0.5505555610   -0.1723075536
CT  2   0.4923158741   2.5734096076   0.1787154531
    0.1314581428    0.5901710827   -0.1719413828    0.5082533167 >
   -0.3519380309    0.1774575421   -0.0717253106    0.1083026584 >
    0.2891563226    0.2759971185   -0.0791340528    0.2584359571 >
   -0.0177401506   -0.2024069251   -0.2987469986    0.1833282051 >
   -0.2469183049    0.0033022013    0.2766378766   -0.1323622262 >
    0.2661704829   -0.1383150086   -0.1985952257   -0.0770886266 >
    0.2734530151   -0.0821139979   -0.2300874167
CT  3  -0.7576710455   2.7623681447   0.1078634288
    1.6434804028    0.9203883212    0.0390984851    0.8851683619 >
   -0.4599158098   -0.3740368611   -0.0101550409   -0.4052537283 >
   -1.2084952132    0.5685385288    1.3524850510   -0.1979960045 >
    1.3292802081    0.3432166152   -0.4386371498   -0.2299940058 >
   -0.4589061235   -0.8776131118    0.6898186855    0.3848431221 >
    0.3069995481    0.3831561361   -0.2244798389    0.2655928754 >
    0.3052737708    0.2645149483   -0.3958163470
CT  4  -0.2868639186   3.4446417184   0.6655696873
    0.3030398907   -0.2955577135   -0.2229389079   -0.2916296944 >
    0.1744839287   -0.2496689757   -0.2172723568   -0.2457830393 >
   -0.5499323074    0.7315274215    0.6282447850    0.4507432941 >
    0.6065632732   -0.2310983955   -1.2183664006    0.4190126333 >
   -1.2373154062   -0.5350890305    1.2033734040    0.5174516406 >
    0.3982471674    0.4827409691    0.5578916823   -0.8431204446 >
    0.3475201911   -0.8738524300   -1.7479826319
CT  1  -0.2079133105   3.6715254895  -0.5735488804 -- FOR W= 0.138651I A.U.
    0.3118815200    0.0559420747   -0.1865373931    0.0581578523 >
    0.1416691414    0.2019672880   -0.1892480818    0.2038378014 >
   -0.2860719139    0.0497115861    0.2302171329   -0.1404885865 >
    0.2963831847    0.1900480778    0.0927430540   -0.2214333021 >
    0.1486001377   -0.3118877163   -0.2679758541   -0.0335529734 >
    0.0273722239   -0.1163682747    0.3859411743   -0.4680824929 >
    0.1286849196   -0.5379947677   -0.1711117153
CT  2   0.4923158741   2.5734096076   0.1787154531
    0.1307850393    0.5771759946   -0.1695698531    0.4912919859 >
   -0.3428983482    0.1711091287   -0.0645019133    0.0986061955 >
    0.2841148516    0.2744285354   -0.0800578689    0.2570570953 >
   -0.0156914355   -0.1982415058   -0.2954495503    0.1783130797 >
   -0.2411116395    0.0044283111    0.2690636603   -0.1240244488 >
    0.2598274043   -0.1302654574   -0.2010978495   -0.0716842215 >
    0.2674625135   -0.0769528895   -0.2273716613
CT  3  -0.7576710455   2.7623681447   0.1078634288
    1.5415831990    0.8377069326    0.0318917454    0.8155787618 >
   -0.4275773059   -0.3589957991    0.0014816996   -0.3782562656 >
   -1.1296506741    0.5100698307    1.2668936220   -0.1874183094 >
    1.2523143681    0.3260917064   -0.4185672647   -0.2072208088 >
   -0.4311034011   -0.8147000523    0.6415195027    0.3619051890 >
    0.2962393874    0.3608965391   -0.2165274802    0.2638594750 >
    0.2951738602    0.2631927890   -0.3820458402
CT  4  -0.2868639186   3.4446417184   0.6655696873
    0.2989316441   -0.2908499281   -0.2150716969   -0.2884102985 >
    0.1694398595   -0.2393231354   -0.2115375596   -0.2369909665 >
   -0.5134751466    0.6793365758    0.5891520753    0.4103366936 >
    0.5756860363   -0.2202279080   -1.1485405916    0.3905959550 >
   -1.1601255189   -0.4803370311    1.1276445971    0.4786753603 >
    0.3601773802    0.4570691298    0.5195337309   -0.7761381501 >
    0.3285397762   -0.7949268837   -1.6391275380
CT  1  -0.2079133105   3.6715254895  -0.5735488804 -- FOR W= 0.233223I A.U.
    0.2969669487    0.0468905650   -0.1772266190    0.0492076648 >
    0.1458813611    0.1766436548   -0.1800612608    0.1785997047 >
   -0.2677111665    0.0470615412    0.2155477872   -0.1291325206 >
    0.2847394528    0.1843403723    0.0867266258   -0.2137786511 >
    0.1451376691   -0.3068278947   -0.2541264019   -0.0177666699 >
    0.0155136836   -0.1043689041    0.3651281382   -0.4332113040 >
    0.1214591612   -0.5063201854   -0.1665781377
CT  2   0.4923158741   2.5734096076   0.1787154531
    0.1271704657    0.5438561878   -0.1598820765    0.4540466128 >
   -0.3223739693    0.1541588804   -0.0500122131    0.0783423727 >
    0.2704960399    0.2716227097   -0.0807005177    0.2488603215 >
   -0.0133920383   -0.1917247582   -0.2838842779    0.1665174749 >
   -0.2270629889    0.0044021642    0.2512070652   -0.1042114711 >
    0.2470923006   -0.1107377517   -0.2016580233   -0.0616560613 >
    0.2550763575   -0.0671655207   -0.2162401943
CT  3  -0.7576710455   2.7623681447   0.1078634288
    1.3356568811    0.6798080555    0.0200587823    0.6780167064 >
   -0.3621166315   -0.3260858034    0.0189158076   -0.3267760914 >
   -0.9747605371    0.4044764613    1.0965616706   -0.1647178987 >
    1.0953814315    0.2867257283   -0.3780828191   -0.1655342918 >
   -0.3785793497   -0.6894372465    0.5511308897    0.3168040306 >
    0.2682492327    0.3168046027   -0.1968443255    0.2539639831 >
    0.2682091844    0.2539375770   -0.3526470590
CT  4  -0.2868639186   3.4446417184   0.6655696873
    0.2861647557   -0.2754804256   -0.1930255239   -0.2753500006 >
    0.1557853961   -0.2179304140   -0.1928068868   -0.2179696620 >
   -0.4446272991    0.5748907176    0.5141426033    0.3350528069 >
    0.5134226958   -0.1936659679   -1.0057587587    0.3339093135 >
   -1.0058916246   -0.3815706602    0.9777275139    0.4055030203 >
    0.2912089626    0.4042721366    0.4417338954   -0.6439110100 >
    0.2892517228   -0.6441264955   -1.4195471805
CT  1  -0.2079133105   3.6715254895  -0.5735488804 -- FOR W= 0.385897I A.U.
    0.2542804099    0.0372786197   -0.1647600960    0.0393905109 >
    0.1376741102    0.1278347842   -0.1673436945    0.1296175955 >
   -0.2323279871    0.0466928169    0.1852993192   -0.1057671655 >
    0.2483631845    0.1792264385    0.0803737021   -0.1829168133 >
    0.1336115059   -0.2946650581   -0.2221342304    0.0048975831 >
   -0.0008734476   -0.0740349228    0.3226712915   -0.3701931829 >
    0.0956892201   -0.4368270945   -0.1511912664
CT  2   0.4923158741   2.5734096076   0.1787154531
    0.1130534600    0.4692913368   -0.1294498945    0.3874828310 >
   -0.2824660446    0.1158249342   -0.0293686633    0.0467631683 >
    0.2379973346    0.2656771429   -0.0773071747    0.2174752553 >
   -0.0159951584   -0.1859410324   -0.2490441102    0.1424685763 >
   -0.1972852159   -0.0029462083    0.2149446999   -0.0661179573 >
    0.2265296890   -0.0720628154   -0.1859672907   -0.0494561391 >
    0.2338024225   -0.0544747427   -0.1808175346
CT  3  -0.7576710455   2.7623681447   0.1078634288
    1.0180665777    0.4598693357    0.0060663170    0.4744864200 >
   -0.2627405305   -0.2694301606    0.0283845764   -0.2552378289 >
   -0.7449135077    0.2717298565    0.8363738308   -0.1272345141 >
    0.8460043685    0.2143454808   -0.3142223283   -0.1127371731 >
   -0.3050081252   -0.5002023998    0.4244091036    0.2470131508 >
    0.2105987593    0.2477324675   -0.1565466757    0.2221359903 >
    0.2113807611    0.2226260121   -0.2993948905
CT  4  -0.2868639186   3.4446417184   0.6655696873
    0.2522002890   -0.2370807690   -0.1464915393   -0.2388006052 >
    0.1250258480   -0.1805805225   -0.1489464435   -0.1824261494 >
   -0.3457568387    0.4154838967    0.4062352012    0.2349366840 >
    0.4157281922   -0.1416918919   -0.7774970961    0.2486941780 >
   -0.7684531498   -0.2574044636    0.7512266778    0.3055637489 >
    0.2062172158    0.3207525825    0.3227596192   -0.4480957735 >
    0.2281935231   -0.4334280685   -1.0805753390
CT  1  -0.2079133105   3.6715254895  -0.5735488804 -- FOR W= 0.649114I A.U.
    0.1713555514    0.0325352529   -0.1449632628    0.0338042949 >
    0.0992055549    0.0629968737   -0.1465157558    0.0640681552 >
   -0.1746410049    0.0507788604    0.1343519288   -0.0687589495 >
    0.1722472024    0.1666002992    0.0770169574   -0.1151184161 >
    0.1090076548   -0.2586886455   -0.1666320227    0.0220103088 >
   -0.0126893543   -0.0254204936    0.2478993989   -0.2806362498 >