!Total energy of the molecule: Eunco+D(2)=     -291.486116250
!Total energy of the molecule: Euncorr(2)=     -291.485299766
!     (2) MAXIMUM GRADIENT =  0.0169508    RMS GRADIENT = 0.0078812
!
 $SYSTEM MWORDS=125 memddi=30 $END
 $GDDI   NGROUP=1 $END
 $SCF  
   CONV=1E-7 DIRSCF=.T. NPUNCH=0 
   DIIS=.T. SOSCF=.F.
   damp=.t.
 $END
 $statpt
   nstep=0
 $end
 $CONTRL 
    NPRINT=-5 ISPHER=1
    RUNTYP=gradient
    PP=sbkjc
    ICHARG=2
 $END
    DFTTYP=B3LYP
 $BASIS 
   GBASIS=sbkjc
   NDFUNC=1 
 $END
 $fmoprp
   modorb=3
 $end
 $DFT
   SG1=.t.
   IDCVER=3
   DC=.t.
 $END
 $FMO
      modgrd=42
      NBODY=2
      RESDIM=2.0
      resppc=0.0
      NLAYER=1
      NFRAG=5
      ICHARG(1)=  2,  0,  0,  0,  0
      FRGNAM(1)=  None001,  None002,  None003,  None004,  None005 
      MPLEVL(1)=0
      INDAT(1)=0
                1    0 
                2    -4       0
                5    -7       0
                8    -10      0
               11    -13      0
 $END
 $DATA

c1
H-1  1
O-1  8
Zn-1 30
 $END
 $FMOXYZ
   1   Zn        -4.22772        5.17049        0.05631
   2   O         -7.75866        8.11442        2.38868
   3   H         -8.68687        8.21373        2.65223
   4   H         -7.26649        8.91452        2.63055
   5   O         -3.95090        3.77153        4.61237
   6   H         -3.35952        3.27569        5.20000
   7   H         -4.23486        4.58765        5.05307
   8   O         -1.14684        2.44913       -2.44810
   9   H         -0.27297        2.81036       -2.23185
  10   H         -1.04342        1.57602       -2.85785
  11   O         -5.35009        7.68399       -4.73755
  12   H         -4.82793        8.34680       -5.21601
  13   H         -6.12222        7.43521       -5.26937
 $END
