!
 $CONTRL SCFTYP=RHF MPLEVL=2 RUNTYP=ENERGY $END
 $SYSTEM MWORDS=500 memddi=1000 $END
 $SCF    DIRSCF=.TRUE. $END
 $INTGRL INTOMP=1 $END

 $mp2    code=omprimp2 $end
 $rimp2  othaux=.f. ivmtd=0 gosmp=.f. usedm=.true. $end
 $auxbas cabnam=ccd $end

 $BASIS GBASIS=N31 NGAUSS=6 NPFUNC=1 $END
 $GUESS GUESS=MOREAD NORB=180 $END
 $DATA 
C60
C1
C     6.0     3.48066     0.69779     0.00000
C     6.0     3.03153     1.42458     1.17575
C     6.0     2.60050     0.72667     2.30460
C     6.0     2.60050    -0.72667     2.30460
C     6.0     3.03153    -1.42458     1.17575
C     6.0     3.48066    -0.69779     0.00000
C     6.0     3.03153     1.42458    -1.17575
C     6.0     2.30460     2.60050    -0.72667
C     6.0     2.30460     2.60050     0.72667
C     6.0     1.17575     3.03153     1.42458
C     6.0     1.42458     1.17575     3.03153
C     6.0     1.42458    -1.17575     3.03153
C     6.0     0.72667    -2.30460     2.60050
C     6.0     1.17575    -3.03153     1.42458
C     6.0     2.30460    -2.60050     0.72667
C     6.0     2.30460    -2.60050    -0.72667
C     6.0     3.03153    -1.42458    -1.17575
C     6.0     2.60050    -0.72667    -2.30460
C     6.0     2.60050     0.72667    -2.30460
C     6.0     1.17575     3.03153    -1.42458
C     6.0     0.72667     2.30460    -2.60050
C     6.0     1.42458     1.17575    -3.03153
C     6.0     0.69779     0.00000    -3.48066
C     6.0     1.42458    -1.17575    -3.03153
C     6.0     0.72667    -2.30460    -2.60050
C     6.0     1.17575    -3.03153    -1.42458
C     6.0     0.00000    -3.48066    -0.69779
C     6.0     0.00000    -3.48066     0.69779
C     6.0     0.69779     0.00000     3.48066
C     6.0    -3.03153    -1.42458     1.17575
C     6.0    -2.60050    -0.72667     2.30460
C     6.0    -2.60050     0.72667     2.30460
C     6.0    -3.03153     1.42458     1.17575
C     6.0    -3.48066     0.69779     0.00000
C     6.0    -3.03153    -1.42458    -1.17575
C     6.0    -2.30460    -2.60050    -0.72667
C     6.0    -2.30460    -2.60050     0.72667
C     6.0    -1.17575    -3.03153     1.42458
C     6.0    -0.72667    -2.30460     2.60050
C     6.0    -1.42458    -1.17575     3.03153
C     6.0    -1.42458     1.17575     3.03153
C     6.0    -0.72667     2.30460     2.60050
C     6.0    -1.17575     3.03153     1.42458
C     6.0    -2.30460     2.60050     0.72667
C     6.0    -2.30460     2.60050    -0.72667
C     6.0    -3.03153     1.42458    -1.17575
C     6.0    -2.60050     0.72667    -2.30460
C     6.0    -2.60050    -0.72667    -2.30460
C     6.0    -1.17575    -3.03153    -1.42458
C     6.0    -0.72667    -2.30460    -2.60050
C     6.0    -1.42458    -1.17575    -3.03153
C     6.0    -0.69779     0.00000    -3.48066
C     6.0    -1.42458     1.17575    -3.03153
C     6.0    -0.72667     2.30460    -2.60050
C     6.0    -1.17575     3.03153    -1.42458
C     6.0     0.00000     3.48066    -0.69779
C     6.0     0.00000     3.48066     0.69779
C     6.0    -0.69779     0.00000     3.48066
C     6.0     0.72667     2.30460     2.60050
C     6.0    -3.48066    -0.69779     0.00000
 $END
 $VEC
 1  1 1.28306001E-01 2.88100005E-03-2.20000002E-05 1.60000000E-05 0.00000000E+00
 1  2-5.38000022E-04 1.99999999E-06-2.99999992E-05-0.00000000E+00 1.28718004E-01
 1  3 2.89299991E-03-1.29999999E-05 9.99999997E-07-2.40000008E-05-5.51000005E-04
 1  4-6.00000021E-06-1.40000002E-05 2.80000004E-05 1.28507003E-01 2.88600009E-03
 1  5-2.30000005E-05-1.49999996E-05 1.99999999E-06-5.38999971E-04 1.20000004E-05
 1  6 1.80000006E-05-2.40000008E-05 1.28507003E-01 2.88600009E-03-2.30000005E-05
 1  7 1.49999996E-05 1.99999999E-06-5.38999971E-04 1.20000004E-05-1.80000006E-05
 1  8-2.40000008E-05 1.28719002E-01 2.89299991E-03-1.29999999E-05-9.99999997E-07
 1  9-2.40000008E-05-5.51000005E-04-6.00000021E-06 1.40000002E-05 2.80000004E-05
 1 10 1.28306001E-01 2.88100005E-03-2.20000002E-05-1.60000000E-05 0.00000000E+00
 1 11-5.38000022E-04 1.99999999E-06 2.99999992E-05-0.00000000E+00 1.28719002E-01
 1 12 2.89299991E-03-1.29999999E-05 9.99999997E-07 2.40000008E-05-5.51000005E-04
 1 13-6.00000021E-06-1.40000002E-05-2.80000004E-05 1.28489003E-01 2.88600009E-03
 1 14 1.99999999E-06-2.30000005E-05 1.49999996E-05-5.38999971E-04-2.40000008E-05
 1 15 1.20000004E-05-1.80000006E-05 1.28489003E-01 2.88600009E-03 1.99999999E-06
 1 16-2.30000005E-05-1.49999996E-05-5.38999971E-04-2.40000008E-05 1.20000004E-05
 1 17 1.80000006E-05 1.28695995E-01 2.89199990E-03-2.40000008E-05-1.29999999E-05
 1 18 9.99999997E-07-5.51000005E-04 2.80000004E-05-6.00000021E-06-1.40000002E-05
 1 19 1.28719002E-01 2.89299991E-03 9.99999997E-07-2.40000008E-05-1.29999999E-05
 1 20-5.51000005E-04-1.40000002E-05 2.80000004E-05-6.00000021E-06 1.28719002E-01
 1 21 2.89299991E-03 9.99999997E-07 2.40000008E-05-1.29999999E-05-5.51000005E-04
 1 22-1.40000002E-05-2.80000004E-05-6.00000021E-06 1.28490001E-01 2.88600009E-03
 1 23-1.49999996E-05-1.99999999E-06-2.30000005E-05-5.38999971E-04 1.80000006E-05
 1 24 2.40000008E-05 1.20000004E-05 1.28696993E-01 2.89199990E-03-2.40000008E-05
 1 25 1.29999999E-05 9.99999997E-07-5.51000005E-04 2.80000004E-05 6.00000021E-06
 1 26-1.40000002E-05 1.28490001E-01 2.88600009E-03 1.99999999E-06 2.30000005E-05
 1 27-1.49999996E-05-5.38999971E-04-2.40000008E-05-1.20000004E-05 1.80000006E-05
 1 28 1.28490001E-01 2.88600009E-03 1.99999999E-06 2.30000005E-05 1.49999996E-05
 1 29-5.38999971E-04-2.40000008E-05-1.20000004E-05-1.80000006E-05 1.28719002E-01
 1 30 2.89299991E-03-1.29999999E-05-9.99999997E-07 2.40000008E-05-5.51000005E-04
 1 31-6.00000021E-06 1.40000002E-05-2.80000004E-05 1.28507003E-01 2.88600009E-03
 1 32-2.30000005E-05 1.49999996E-05-1.99999999E-06-5.38999971E-04 1.20000004E-05
 1 33-1.80000006E-05 2.40000008E-05 1.28507003E-01 2.88600009E-03-2.30000005E-05
 1 34-1.49999996E-05-1.99999999E-06-5.38999971E-04 1.20000004E-05 1.80000006E-05
 1 35 2.40000008E-05 1.28696993E-01 2.89199990E-03-2.40000008E-05-1.29999999E-05
 1 36-9.99999997E-07-5.51000005E-04 2.80000004E-05-6.00000021E-06 1.40000002E-05
 1 37 1.28490001E-01 2.88600009E-03-1.49999996E-05 1.99999999E-06 2.30000005E-05
 1 38-5.38999971E-04 1.80000006E-05-2.40000008E-05-1.20000004E-05 1.28719002E-01
 1 39 2.89299991E-03 9.99999997E-07-2.40000008E-05 1.29999999E-05-5.51000005E-04
 1 40-1.40000002E-05 2.80000004E-05 6.00000021E-06 1.28309995E-01 2.88200006E-03
 1 41 1.60000000E-05-0.00000000E+00 2.20000002E-05-5.38000022E-04-2.99999992E-05
 1 42-0.00000000E+00-1.99999999E-06 1.28719002E-01 2.89299991E-03 9.99999997E-07
 1 43 2.40000008E-05 1.29999999E-05-5.51000005E-04-1.40000002E-05-2.80000004E-05
 1 44 6.00000021E-06 1.28490001E-01 2.88600009E-03-1.49999996E-05-1.99999999E-06
 1 45 2.30000005E-05-5.38999971E-04 1.80000006E-05 2.40000008E-05-1.20000004E-05
 1 46 1.28696993E-01 2.89199990E-03-2.40000008E-05 1.29999999E-05-9.99999997E-07
 1 47-5.51000005E-04 2.80000004E-05 6.00000021E-06 1.40000002E-05 1.28273994E-01
 1 48 2.88100005E-03-0.00000000E+00 2.20000002E-05-1.60000000E-05-5.37000014E-04
 1 49 0.00000000E+00-1.99999999E-06 2.99999992E-05 1.28273994E-01 2.88100005E-03
 1 50-0.00000000E+00 2.20000002E-05 1.60000000E-05-5.37000014E-04 0.00000000E+00
 1 51-1.99999999E-06-2.99999992E-05 1.28309995E-01 2.88200006E-03 1.60000000E-05
 1 52 0.00000000E+00-2.20000002E-05-5.38000022E-04-2.99999992E-05-0.00000000E+00
 1 53 1.99999999E-06 1.28719002E-01 2.89299991E-03 1.29999999E-05-9.99999997E-07
 1 54-2.40000008E-05-5.51000005E-04 6.00000021E-06 1.40000002E-05 2.80000004E-05
 1 55 1.28507003E-01 2.88600009E-03 2.30000005E-05 1.49999996E-05 1.99999999E-06
 1 56-5.38999971E-04-1.20000004E-05-1.80000006E-05-2.40000008E-05 1.28507003E-01
 1 57 2.88600009E-03 2.30000005E-05-1.49999996E-05 1.99999999E-06-5.38999971E-04
 1 58-1.20000004E-05 1.80000006E-05-2.40000008E-05 1.28719002E-01 2.89299991E-03
 1 59 1.29999999E-05 9.99999997E-07-2.40000008E-05-5.51000005E-04 6.00000021E-06
 1 60-1.40000002E-05 2.80000004E-05 1.28306001E-01 2.88100005E-03 2.20000002E-05
 1 61 1.60000000E-05-0.00000000E+00-5.38000022E-04-1.99999999E-06-2.99999992E-05
 1 62 0.00000000E+00 1.28718004E-01 2.89299991E-03 1.29999999E-05-9.99999997E-07
 1 63 2.40000008E-05-5.51000005E-04 6.00000021E-06 1.40000002E-05-2.80000004E-05
 1 64 1.28489003E-01 2.88600009E-03-1.99999999E-06 2.30000005E-05 1.49999996E-05
 1 65-5.38999971E-04 2.40000008E-05-1.20000004E-05-1.80000006E-05 1.28489003E-01
 1 66 2.88600009E-03-1.99999999E-06 2.30000005E-05-1.49999996E-05-5.38999971E-04
 1 67 2.40000008E-05-1.20000004E-05 1.80000006E-05 1.28696993E-01 2.89199990E-03
 1 68 2.40000008E-05 1.29999999E-05 9.99999997E-07-5.51000005E-04-2.80000004E-05
 1 69 6.00000021E-06-1.40000002E-05 1.28490001E-01 2.88600009E-03 1.49999996E-05
 1 70-1.99999999E-06-2.30000005E-05-5.38999971E-04-1.80000006E-05 2.40000008E-05
 1 71 1.20000004E-05 1.28719002E-01 2.89299991E-03-9.99999997E-07 2.40000008E-05
 1 72-1.29999999E-05-5.51000005E-04 1.40000002E-05-2.80000004E-05-6.00000021E-06
 1 73 1.28719002E-01 2.89299991E-03-9.99999997E-07-2.40000008E-05-1.29999999E-05
 1 74-5.51000005E-04 1.40000002E-05 2.80000004E-05-6.00000021E-06 1.28490001E-01
 1 75 2.88600009E-03 1.49999996E-05 1.99999999E-06-2.30000005E-05-5.38999971E-04
 1 76-1.80000006E-05-2.40000008E-05 1.20000004E-05 1.28696993E-01 2.89199990E-03
 1 77 2.40000008E-05-1.29999999E-05 9.99999997E-07-5.51000005E-04-2.80000004E-05
 1 78-6.00000021E-06-1.40000002E-05 1.28490001E-01 2.88600009E-03-1.99999999E-06
 1 79-2.30000005E-05-1.49999996E-05-5.38999971E-04 2.40000008E-05 1.20000004E-05
 1 80 1.80000006E-05 1.28490001E-01 2.88600009E-03-1.99999999E-06-2.30000005E-05
 1 81 1.49999996E-05-5.38999971E-04 2.40000008E-05 1.20000004E-05-1.80000006E-05
 1 82 1.28719002E-01 2.89299991E-03 1.29999999E-05 9.99999997E-07 2.40000008E-05
 1 83-5.51000005E-04 6.00000021E-06-1.40000002E-05-2.80000004E-05 1.28507003E-01
 1 84 2.88600009E-03 2.30000005E-05-1.49999996E-05-1.99999999E-06-5.38999971E-04
 1 85-1.20000004E-05 1.80000006E-05 2.40000008E-05 1.28507003E-01 2.88600009E-03
 1 86 2.30000005E-05 1.49999996E-05-1.99999999E-06-5.38999971E-04-1.20000004E-05
 1 87-1.80000006E-05 2.40000008E-05 1.28695995E-01 2.89199990E-03 2.40000008E-05
 1 88 1.29999999E-05-9.99999997E-07-5.51000005E-04-2.80000004E-05 6.00000021E-06
 1 89 1.40000002E-05 1.28490001E-01 2.88600009E-03 1.49999996E-05-1.99999999E-06
 1 90 2.30000005E-05-5.38999971E-04-1.80000006E-05 2.40000008E-05-1.20000004E-05
 1 91 1.28719002E-01 2.89299991E-03-9.99999997E-07 2.40000008E-05 1.29999999E-05
 1 92-5.51000005E-04 1.40000002E-05-2.80000004E-05 6.00000021E-06 1.28309995E-01
 1 93 2.88200006E-03-1.60000000E-05-0.00000000E+00 2.20000002E-05-5.38000022E-04
 1 94 2.99999992E-05 0.00000000E+00-1.99999999E-06 1.28719002E-01 2.89299991E-03
 1 95-9.99999997E-07-2.40000008E-05 1.29999999E-05-5.51000005E-04 1.40000002E-05
 1 96 2.80000004E-05 6.00000021E-06 1.28490001E-01 2.88600009E-03 1.49999996E-05
 1 97 1.99999999E-06 2.30000005E-05-5.38999971E-04-1.80000006E-05-2.40000008E-05
 1 98-1.20000004E-05 1.28696993E-01 2.89199990E-03 2.40000008E-05-1.29999999E-05
 1 99-9.99999997E-07-5.51000005E-04-2.80000004E-05-6.00000021E-06 1.40000002E-05
 1100 1.28273994E-01 2.88100005E-03 0.00000000E+00-2.20000002E-05-1.60000000E-05
 1101-5.37000014E-04-0.00000000E+00 1.99999999E-06 2.99999992E-05 1.28273994E-01
 1102 2.88100005E-03 0.00000000E+00-2.20000002E-05 1.60000000E-05-5.37000014E-04
 1103-0.00000000E+00 1.99999999E-06-2.99999992E-05 1.28309995E-01 2.88200006E-03
 1104-1.60000000E-05 0.00000000E+00-2.20000002E-05-5.38000022E-04 2.99999992E-05
 1105 0.00000000E+00 1.99999999E-06 1.28490001E-01 2.88600009E-03-1.49999996E-05
 1106 1.99999999E-06-2.30000005E-05-5.38999971E-04 1.80000006E-05-2.40000008E-05
 1107 1.20000004E-05 1.28306001E-01 2.88100005E-03 2.20000002E-05-1.60000000E-05
 1108-0.00000000E+00-5.38000022E-04-1.99999999E-06 2.99999992E-05 0.00000000E+00
 2  1-2.16852993E-01-4.95199999E-03 3.79999983E-05-2.70000000E-05-7.00000010E-06
 2  2 1.23000005E-03-2.40000008E-05 1.14000002E-04 4.09999993E-05-1.78540006E-01
 2  3-4.09599999E-03 4.30000000E-05-1.70000003E-05 1.20000004E-05 1.03499996E-03
 2  4-1.21999998E-04 1.14000002E-04 9.69999965E-05-1.46825999E-01-3.33800004E-03
 2  5 4.40000003E-05-0.00000000E+00-2.70000000E-05 8.34000006E-04-1.84999997E-04
 2  6 2.40000008E-05 2.30999998E-04-1.47245005E-01-3.34800011E-03 4.40000003E-05
 2  7 0.00000000E+00-2.70000000E-05 8.36000021E-04-1.84999997E-04-2.09999998E-05
 2  8 2.32000006E-04-1.79299995E-01-4.11299989E-03 4.30000000E-05 1.60000000E-05
 2  9 1.29999999E-05 1.03900000E-03-1.20999997E-04-1.12000002E-04 9.69999965E-05
 2 10-2.17194006E-01-4.96000005E-03 3.79999983E-05 2.70000000E-05-7.00000010E-06
 2 11 1.23199995E-03-2.40000008E-05-1.11000001E-04 4.09999993E-05-1.97273999E-01
 2 12-4.51599993E-03 3.79999983E-05-1.80000006E-05-2.30000005E-05 1.14199996E-03
 2 13-8.90000010E-05 1.32999994E-04-1.70000003E-05-1.45260006E-01-3.34600010E-03
 2 14 3.50000009E-05 1.10000001E-05-2.20000002E-05 8.29000026E-04-2.09999998E-04
 2 15 1.36000002E-04 9.00000032E-06-1.33695006E-01-3.08599998E-03 3.60000013E-05
 2 16 1.29999999E-05 9.00000032E-06 7.65000004E-04-2.30000005E-04 1.21999998E-04
 2 17 7.20000025E-05-6.61479980E-02-1.47899997E-03 4.19999997E-05-1.70000003E-05
 2 18-1.20000004E-05 3.77999997E-04-3.33000004E-04 1.23999998E-04 1.15000003E-04
 2 19-6.38139993E-02-1.47599995E-03 5.09999991E-05 1.40000002E-05-7.99999998E-06
 2 20 3.71000002E-04-3.08999995E-04 2.70000000E-05 1.04999999E-04-6.44909963E-02
 2 21-1.49099994E-03 5.09999991E-05-1.40000002E-05-9.00000032E-06 3.75000003E-04
 2 22-3.07999988E-04-2.40000008E-05 1.06000000E-04-2.86270007E-02-6.36000012E-04
 2 23 5.19999994E-05 3.00000011E-06-1.70000003E-05 1.57999995E-04-3.38999991E-04
 2 24-5.50000004E-05 7.79999973E-05-6.77940026E-02-1.51700003E-03 4.19999997E-05
 2 25 1.70000003E-05-1.20000004E-05 3.87999986E-04-3.33000004E-04-1.23000005E-04
 2 26 1.16000003E-04-1.35129005E-01-3.11900000E-03 3.60000013E-05-1.40000002E-05
 2 27 9.00000032E-06 7.73000007E-04-2.28000004E-04-1.20999997E-04 7.20000025E-05
 2 28-1.46693006E-01-3.37800011E-03 3.40000006E-05-1.10000001E-05-2.20000002E-05
 2 29 8.37000029E-04-2.09000005E-04-1.34000002E-04 9.00000032E-06-1.98034003E-01
 2 30-4.53400007E-03 3.79999983E-05 1.70000003E-05-2.30000005E-05 1.14600000E-03
 2 31-8.80000007E-05-1.30999993E-04-1.80000006E-05-1.81143001E-01-4.12900001E-03
 2 32 4.70000014E-05-3.99999999E-06 1.89999992E-05 1.03000004E-03-1.53999994E-04
 2 33-2.80000004E-05-1.78999995E-04-1.80723995E-01-4.12000017E-03 4.70000014E-05
 2 34 3.00000011E-06 1.89999992E-05 1.02700002E-03-1.53999994E-04 3.09999996E-05
 2 35-1.78000002E-04-8.71580020E-02-1.96400005E-03 4.60000010E-05-1.80000006E-05
 2 36-0.00000000E+00 5.00000024E-04-3.25000001E-04 1.46999999E-04-4.30000000E-05
 2 37-6.70439973E-02-1.51099998E-03 5.29999998E-05-9.00000032E-06 6.00000021E-06
 2 38 3.76000011E-04-3.33000004E-04 1.07000000E-04-3.60000013E-05-1.09337002E-01
 2 39-2.51900009E-03 4.70000014E-05 1.80000006E-05-9.99999997E-07 6.33999996E-04
 2 40-2.80000007E-04 4.09999993E-05-7.99999980E-05-6.52209967E-02-1.52799999E-03
 2 41 3.50000009E-05-0.00000000E+00-2.09999998E-05 3.77999997E-04-3.46999994E-04
 2 42 9.99999997E-07-1.70000003E-05-1.10013999E-01-2.53399997E-03 4.70000014E-05
 2 43-1.80000006E-05-9.99999997E-07 6.38000027E-04-2.79000000E-04-3.79999983E-05
 2 44-8.09999983E-05-6.82689995E-02-1.53899996E-03 5.29999998E-05 9.00000032E-06
 2 45 6.00000021E-06 3.83000006E-04-3.33000004E-04-1.04999999E-04-3.70000016E-05
 2 46-8.88039991E-02-2.00100010E-03 4.60000010E-05 1.80000006E-05-0.00000000E+00
 2 47 5.09999983E-04-3.25000001E-04-1.46000006E-04-4.50000007E-05-5.65999979E-03
 2 48-1.34000002E-04 5.70000011E-05-1.99999999E-06-3.99999999E-06 3.30000003E-05
 2 49-3.41000006E-04-1.99999999E-06 4.30000000E-05 3.76300002E-03 9.10000017E-05
 2 50 5.70000011E-05 1.99999999E-06-4.99999987E-06-2.20000002E-05-3.41000006E-04
 2 51 1.99999999E-06 4.40000003E-05-1.27490005E-02-3.30000010E-04 4.09999993E-05
 2 52-0.00000000E+00 1.20000004E-05 7.99999980E-05-3.75000003E-04 9.99999997E-07
 2 53 2.30000005E-05 1.97273999E-01 4.51599993E-03 3.79999983E-05-1.80000006E-05
 2 54-2.30000005E-05-1.14199996E-03-8.90000010E-05 1.32999994E-04-1.70000003E-05
 2 55 1.80723995E-01 4.12000017E-03 4.70000014E-05 3.00000011E-06 1.89999992E-05
 2 56-1.02700002E-03-1.53999994E-04 3.09999996E-05-1.78000002E-04 1.81143001E-01
 2 57 4.12900001E-03 4.70000014E-05-3.99999999E-06 1.89999992E-05-1.03000004E-03
 2 58-1.53999994E-04-2.80000004E-05-1.78999995E-04 1.98034003E-01 4.53400007E-03
 2 59 3.79999983E-05 1.70000003E-05-2.30000005E-05-1.14600000E-03-8.80000007E-05
 2 60-1.30999993E-04-1.80000006E-05 2.17194006E-01 4.96000005E-03 3.79999983E-05
 2 61 2.70000000E-05-7.00000010E-06-1.23199995E-03-2.40000008E-05-1.11000001E-04
 2 62 4.09999993E-05 1.78540006E-01 4.09599999E-03 4.30000000E-05-1.70000003E-05
 2 63 1.20000004E-05-1.03499996E-03-1.21999998E-04 1.14000002E-04 9.69999965E-05
 2 64 1.33695006E-01 3.08599998E-03 3.60000013E-05 1.29999999E-05 9.00000032E-06
 2 65-7.65000004E-04-2.30000005E-04 1.21999998E-04 7.20000025E-05 1.45260006E-01
 2 66 3.34600010E-03 3.50000009E-05 1.10000001E-05-2.20000002E-05-8.29000026E-04
 2 67-2.09999998E-04 1.36000002E-04 9.00000032E-06 8.71580020E-02 1.96400005E-03
 2 68 4.60000010E-05-1.80000006E-05-0.00000000E+00-5.00000024E-04-3.25000001E-04
 2 69 1.46999999E-04-4.30000000E-05 6.70439973E-02 1.51099998E-03 5.29999998E-05
 2 70-9.00000032E-06 6.00000021E-06-3.76000011E-04-3.33000004E-04 1.07000000E-04
 2 71-3.60000013E-05 1.09337002E-01 2.51900009E-03 4.70000014E-05 1.80000006E-05
 2 72-9.99999997E-07-6.33999996E-04-2.80000007E-04 4.09999993E-05-7.99999980E-05
 2 73 1.10013999E-01 2.53399997E-03 4.70000014E-05-1.80000006E-05-9.99999997E-07
 2 74-6.38000027E-04-2.79000000E-04-3.79999983E-05-8.09999983E-05 6.82689995E-02
 2 75 1.53899996E-03 5.29999998E-05 9.00000032E-06 6.00000021E-06-3.83000006E-04
 2 76-3.33000004E-04-1.04999999E-04-3.70000016E-05 8.88039991E-02 2.00100010E-03
 2 77 4.60000010E-05 1.80000006E-05-0.00000000E+00-5.09999983E-04-3.25000001E-04
 2 78-1.46000006E-04-4.50000007E-05 1.46693006E-01 3.37800011E-03 3.40000006E-05
 2 79-1.10000001E-05-2.20000002E-05-8.37000029E-04-2.09000005E-04-1.34000002E-04
 2 80 9.00000032E-06 1.35129005E-01 3.11900000E-03 3.60000013E-05-1.40000002E-05
 2 81 9.00000032E-06-7.73000007E-04-2.28000004E-04-1.20999997E-04 7.20000025E-05
 2 82 1.79299995E-01 4.11299989E-03 4.30000000E-05 1.60000000E-05 1.29999999E-05
 2 83-1.03900000E-03-1.20999997E-04-1.12000002E-04 9.69999965E-05 1.47245005E-01
 2 84 3.34800011E-03 4.40000003E-05 0.00000000E+00-2.70000000E-05-8.36000021E-04
 2 85-1.84999997E-04-2.09999998E-05 2.32000006E-04 1.46825999E-01 3.33800004E-03
 2 86 4.40000003E-05-0.00000000E+00-2.70000000E-05-8.34000006E-04-1.84999997E-04
 2 87 2.40000008E-05 2.30999998E-04 6.61479980E-02 1.47899997E-03 4.19999997E-05
 2 88-1.70000003E-05-1.20000004E-05-3.77999997E-04-3.33000004E-04 1.23999998E-04
 2 89 1.15000003E-04 2.74010003E-02 6.07999973E-04 5.19999994E-05-3.00000011E-06
 2 90-1.70000003E-05-1.51000000E-04-3.39999999E-04 5.70000011E-05 7.69999970E-05
 2 91 6.38139993E-02 1.47599995E-03 5.09999991E-05 1.40000002E-05-7.99999998E-06
 2 92-3.71000002E-04-3.08999995E-04 2.70000000E-05 1.04999999E-04 1.27490005E-02
 2 93 3.30000010E-04 4.09999993E-05-0.00000000E+00 1.20000004E-05-7.99999980E-05
 2 94-3.75000003E-04 9.99999997E-07 2.30000005E-05 6.44909963E-02 1.49099994E-03
 2 95 5.09999991E-05-1.40000002E-05-9.00000032E-06-3.75000003E-04-3.07999988E-04
 2 96-2.40000008E-05 1.06000000E-04 2.86270007E-02 6.36000012E-04 5.19999994E-05
 2 97 3.00000011E-06-1.70000003E-05-1.57999995E-04-3.38999991E-04-5.50000004E-05
 2 98 7.79999973E-05 6.77940026E-02 1.51700003E-03 4.19999997E-05 1.70000003E-05
 2 99-1.20000004E-05-3.87999986E-04-3.33000004E-04-1.23000005E-04 1.16000003E-04
 2100-3.76300002E-03-9.10000017E-05 5.70000011E-05 1.99999999E-06-4.99999987E-06
 2101 2.20000002E-05-3.41000006E-04 1.99999999E-06 4.40000003E-05 5.65999979E-03
 2102 1.34000002E-04 5.70000011E-05-1.99999999E-06-3.99999999E-06-3.30000003E-05
 2103-3.41000006E-04-1.99999999E-06 4.30000000E-05 6.52209967E-02 1.52799999E-03
 2104 3.50000009E-05-0.00000000E+00-2.09999998E-05-3.77999997E-04-3.46999994E-04
 2105 9.99999997E-07-1.70000003E-05-2.74010003E-02-6.07999973E-04 5.19999994E-05
 2106-3.00000011E-06-1.70000003E-05 1.51000000E-04-3.39999999E-04 5.70000011E-05
 2107 7.69999970E-05 2.16852993E-01 4.95199999E-03 3.79999983E-05-2.70000000E-05
 2108-7.00000010E-06-1.23000005E-03-2.40000008E-05 1.14000002E-04 4.09999993E-05
 3  1 2.60039996E-02 5.93999983E-04-4.99999987E-06 3.99999999E-06-5.70000011E-05
 3  2-1.48000006E-04 3.00000011E-06-1.60000000E-05 3.41000006E-04 9.97370034E-02
 3  3 2.24999990E-03 1.29999999E-05 7.99999998E-06-4.60000010E-05-5.72999998E-04
 3  4-1.21999998E-04-9.60000034E-05 3.22000007E-04 1.59749001E-01 3.67800007E-03
 3  5-1.80000006E-05-1.60000000E-05-3.30000003E-05-9.12000018E-04-1.07000000E-04
 3  6-3.70000016E-05 1.95000001E-04 1.60302997E-01 3.68999992E-03-1.80000006E-05
 3  7 1.60000000E-05-3.19999999E-05-9.14999982E-04-1.08000000E-04 3.30000003E-05
 3  8 1.93999993E-04 1.00744002E-01 2.27300008E-03 1.29999999E-05-7.99999998E-06
 3  9-4.60000010E-05-5.78999985E-04-1.23000005E-04 9.30000024E-05 3.22000007E-04
 3 10 2.64550000E-02 6.04000001E-04-4.99999987E-06-3.00000011E-06-5.70000011E-05
 3 11-1.50000007E-04 3.00000011E-06 1.20000004E-05 3.41000006E-04-5.52310012E-02
 3 12-1.23000005E-03-2.30000005E-05-3.00000011E-06-4.19999997E-05 3.15000012E-04
 3 13 1.48000006E-04 6.29999995E-05 3.35999997E-04-3.18389982E-02-7.04000005E-04
 3 14-9.99999975E-06-1.29999999E-05-4.99999987E-05 1.76000001E-04 1.09000001E-04
 3 15 4.09999993E-05 3.39999999E-04 6.38279989E-02 1.44200004E-03 1.99999999E-06
 3 16 1.10000001E-05-5.40000001E-05-3.58999998E-04-5.29999998E-05-7.40000032E-05
 3 17 3.33000004E-04 9.51749980E-02 2.18999991E-03-2.09999998E-05 6.00000021E-06
 3 18-4.80000017E-05-5.52000012E-04 7.99999998E-06-1.10000001E-04 2.84999987E-04
 3 19 1.98344007E-01 4.54699993E-03 1.10000001E-05-1.89999992E-05-3.99999990E-05
 3 20-1.14900002E-03-8.60000000E-05-6.29999995E-05 9.40000027E-05 1.99240997E-01
 3 21 4.56700008E-03 1.10000001E-05 1.99999995E-05-3.99999990E-05-1.15400006E-03
 3 22-8.70000003E-05 5.90000018E-05 9.30000024E-05 1.70561001E-01 3.88199999E-03
 3 23-7.99999998E-06-2.30000005E-05-4.40000003E-05-9.68999986E-04 1.40000002E-05
 3 24 2.13000007E-04 1.61999997E-04 9.73540023E-02 2.24000006E-03-2.09999998E-05
 3 25-6.00000021E-06-4.80000017E-05-5.63999987E-04 7.00000010E-06 1.09000001E-04
 3 26 2.84000009E-04 6.57270029E-02 1.48600002E-03 1.99999999E-06-9.99999975E-06
 3 27-5.40000001E-05-3.68999987E-04-5.60000008E-05 7.20000025E-05 3.31999996E-04
 3 28-2.99410000E-02-6.61000027E-04-9.99999975E-06 1.40000002E-05-4.99999987E-05
 3 29 1.65000005E-04 1.06000000E-04-4.30000000E-05 3.39999999E-04-5.42250015E-02
 3 30-1.20699999E-03-2.20000002E-05 3.99999999E-06-4.19999997E-05 3.08999995E-04
 3 31 1.46999999E-04-6.60000005E-05 3.35999997E-04-1.20111004E-01-2.77499994E-03
 3 32 7.00000010E-06-1.49999996E-05-3.79999983E-05 6.86999992E-04 1.48000006E-04
 3 33-3.09999996E-05 2.43999995E-04-1.20664999E-01-2.78800004E-03 7.00000010E-06
 3 34 1.60000000E-05-3.79999983E-05 6.90000015E-04 1.49000000E-04 2.70000000E-05
 3 35 2.43999995E-04-7.86269978E-02-1.81900000E-03 1.10000001E-05-9.99999997E-07
 3 36-4.99999987E-05 4.56999987E-04 7.30000029E-05 7.59999966E-05 3.03000008E-04
 3 37-1.58997998E-01-3.62200011E-03-4.99999987E-06-2.20000002E-05-4.70000014E-05
 3 38 9.04000015E-04 6.70000009E-05 1.93999993E-04 1.76000001E-04-1.78232998E-01
 3 39-4.08300012E-03-2.30000005E-05 1.60000000E-05-4.09999993E-05 1.03199994E-03
 3 40 1.57999995E-04 5.19999994E-05 1.15000003E-04-2.12320000E-01-4.84400010E-03
 3 41-3.19999999E-05 0.00000000E+00-3.60000013E-05 1.20399997E-03 1.55999995E-04
 3 42-1.99999999E-06 2.70000000E-05-1.77334994E-01-4.06200020E-03-2.30000005E-05
 3 43-1.60000000E-05-4.09999993E-05 1.02700002E-03 1.57000002E-04-5.50000004E-05
 3 44 1.17000003E-04-1.57374993E-01-3.58500006E-03-4.99999987E-06 2.20000002E-05
 3 45-4.70000014E-05 8.95000005E-04 6.70000009E-05-1.95999994E-04 1.76999994E-04
 3 46-7.64480010E-02-1.76899997E-03 1.10000001E-05 1.99999999E-06-4.99999987E-05
 3 47 4.44000005E-04 7.20000025E-05-7.79999973E-05 3.03999986E-04-3.77219990E-02
 3 48-8.99999985E-04-7.00000010E-06-1.60000000E-05-3.79999983E-05 2.22000002E-04
 3 49 4.09999993E-05-1.99999995E-05 3.61999992E-04 4.02330011E-02 9.57000011E-04
 3 50-7.00000010E-06 1.70000003E-05-3.79999983E-05-2.36000007E-04 4.09999993E-05
 3 51 1.99999995E-05 3.60000005E-04 2.21743003E-01 5.06799994E-03 2.30000005E-05
 3 52 0.00000000E+00-3.99999990E-05-1.25900004E-03-6.90000015E-05-1.99999999E-06
 3 53 2.20000002E-05 5.52310012E-02 1.23000005E-03-2.30000005E-05-3.00000011E-06
 3 54-4.19999997E-05-3.15000012E-04 1.48000006E-04 6.29999995E-05 3.35999997E-04
 3 55 1.20664999E-01 2.78800004E-03 7.00000010E-06 1.60000000E-05-3.79999983E-05
 3 56-6.90000015E-04 1.49000000E-04 2.70000000E-05 2.43999995E-04 1.20111004E-01
 3 57 2.77499994E-03 7.00000010E-06-1.49999996E-05-3.79999983E-05-6.86999992E-04
 3 58 1.48000006E-04-3.09999996E-05 2.43999995E-04 5.42250015E-02 1.20699999E-03
 3 59-2.20000002E-05 3.99999999E-06-4.19999997E-05-3.08999995E-04 1.46999999E-04
 3 60-6.60000005E-05 3.35999997E-04-2.64550000E-02-6.04000001E-04-4.99999987E-06
 3 61-3.00000011E-06-5.70000011E-05 1.50000007E-04 3.00000011E-06 1.20000004E-05
 3 62 3.41000006E-04-9.97370034E-02-2.24999990E-03 1.29999999E-05 7.99999998E-06
 3 63-4.60000010E-05 5.72999998E-04-1.21999998E-04-9.60000034E-05 3.22000007E-04
 3 64-6.38279989E-02-1.44200004E-03 1.99999999E-06 1.10000001E-05-5.40000001E-05
 3 65 3.58999998E-04-5.29999998E-05-7.40000032E-05 3.33000004E-04 3.18389982E-02
 3 66 7.04000005E-04-9.99999975E-06-1.29999999E-05-4.99999987E-05-1.76000001E-04
 3 67 1.09000001E-04 4.09999993E-05 3.39999999E-04 7.86269978E-02 1.81900000E-03
 3 68 1.10000001E-05-9.99999997E-07-4.99999987E-05-4.56999987E-04 7.30000029E-05
 3 69 7.59999966E-05 3.03000008E-04 1.58997998E-01 3.62200011E-03-4.99999987E-06
 3 70-2.20000002E-05-4.70000014E-05-9.04000015E-04 6.70000009E-05 1.93999993E-04
 3 71 1.76000001E-04 1.78232998E-01 4.08300012E-03-2.30000005E-05 1.60000000E-05
 3 72-4.09999993E-05-1.03199994E-03 1.57999995E-04 5.19999994E-05 1.15000003E-04
 3 73 1.77334994E-01 4.06200020E-03-2.30000005E-05-1.60000000E-05-4.09999993E-05
 3 74-1.02700002E-03 1.57000002E-04-5.50000004E-05 1.17000003E-04 1.57374993E-01
 3 75 3.58500006E-03-4.99999987E-06 2.20000002E-05-4.70000014E-05-8.95000005E-04
 3 76 6.70000009E-05-1.95999994E-04 1.76999994E-04 7.64480010E-02 1.76899997E-03
 3 77 1.10000001E-05 1.99999999E-06-4.99999987E-05-4.44000005E-04 7.20000025E-05
 3 78-7.79999973E-05 3.03999986E-04 2.99410000E-02 6.61000027E-04-9.99999975E-06
 3 79 1.40000002E-05-4.99999987E-05-1.65000005E-04 1.06000000E-04-4.30000000E-05
 3 80 3.39999999E-04-6.57270029E-02-1.48600002E-03 1.99999999E-06-9.99999975E-06
 3 81-5.40000001E-05 3.68999987E-04-5.60000008E-05 7.20000025E-05 3.31999996E-04
 3 82-1.00744002E-01-2.27300008E-03 1.29999999E-05-7.99999998E-06-4.60000010E-05
 3 83 5.78999985E-04-1.23000005E-04 9.30000024E-05 3.22000007E-04-1.60302997E-01
 3 84-3.68999992E-03-1.80000006E-05 1.60000000E-05-3.19999999E-05 9.14999982E-04
 3 85-1.08000000E-04 3.30000003E-05 1.93999993E-04-1.59749001E-01-3.67800007E-03
 3 86-1.80000006E-05-1.60000000E-05-3.30000003E-05 9.12000018E-04-1.07000000E-04
 3 87-3.70000016E-05 1.95000001E-04-9.51749980E-02-2.18999991E-03-2.09999998E-05
 3 88 6.00000021E-06-4.80000017E-05 5.52000012E-04 7.99999998E-06-1.10000001E-04
 3 89 2.84999987E-04-1.68937996E-01-3.84399993E-03-7.99999998E-06 2.40000008E-05
 3 90-4.40000003E-05 9.59000026E-04 1.49999996E-05-2.16000000E-04 1.63000004E-04
 3 91-1.98344007E-01-4.54699993E-03 1.10000001E-05-1.89999992E-05-3.99999990E-05
 3 92 1.14900002E-03-8.60000000E-05-6.29999995E-05 9.40000027E-05-2.21743003E-01
 3 93-5.06799994E-03 2.30000005E-05 0.00000000E+00-3.99999990E-05 1.25900004E-03
 3 94-6.90000015E-05-1.99999999E-06 2.20000002E-05-1.99240997E-01-4.56700008E-03
 3 95 1.10000001E-05 1.99999995E-05-3.99999990E-05 1.15400006E-03-8.70000003E-05
 3 96 5.90000018E-05 9.30000024E-05-1.70561001E-01-3.88199999E-03-7.99999998E-06
 3 97-2.30000005E-05-4.40000003E-05 9.68999986E-04 1.40000002E-05 2.13000007E-04
 3 98 1.61999997E-04-9.73540023E-02-2.24000006E-03-2.09999998E-05-6.00000021E-06
 3 99-4.80000017E-05 5.63999987E-04 7.00000010E-06 1.09000001E-04 2.84000009E-04
 3100-4.02330011E-02-9.57000011E-04-7.00000010E-06 1.70000003E-05-3.79999983E-05
 3101 2.36000007E-04 4.09999993E-05 1.99999995E-05 3.60000005E-04 3.77219990E-02
 3102 8.99999985E-04-7.00000010E-06-1.60000000E-05-3.79999983E-05-2.22000002E-04
 3103 4.09999993E-05-1.99999995E-05 3.61999992E-04 2.12320000E-01 4.84400010E-03
 3104-3.19999999E-05 0.00000000E+00-3.60000013E-05-1.20399997E-03 1.55999995E-04
 3105-1.99999999E-06 2.70000000E-05 1.68937996E-01 3.84399993E-03-7.99999998E-06
 3106 2.40000008E-05-4.40000003E-05-9.59000026E-04 1.49999996E-05-2.16000000E-04
 3107 1.63000004E-04-2.60039996E-02-5.93999983E-04-4.99999987E-06 3.99999999E-06
 3108-5.70000011E-05 1.48000006E-04 3.00000011E-06-1.60000000E-05 3.41000006E-04
 4  1 4.03640009E-02 9.60999983E-04-1.70000003E-05-3.79999983E-05-0.00000000E+00
 4  2-2.37000000E-04-1.99999995E-05 3.62999999E-04 1.99999999E-06 8.89030024E-02
 4  3 2.05000001E-03 3.99999999E-06-4.89999984E-05-1.60000000E-05-5.15999971E-04
 4  4-9.40000027E-05 2.95000005E-04-3.09999996E-05 4.97479998E-02 1.11700001E-03
 4  5 1.20000004E-05-5.29999998E-05 6.00000021E-06-2.77999992E-04-5.80000014E-05
 4  6 3.38999991E-04-8.19999987E-05-4.66330014E-02-1.04600005E-03-1.20000004E-05
 4  7-5.29999998E-05-6.00000021E-06 2.60000001E-04 5.80000014E-05 3.38999991E-04