!This runs utilizes the  non-threaded RIMP2 code.
!You can request the non-threaded RIMP2	code even
!when you compile with OpenMP.
!
 $CONTRL SCFTYP=RHF MPLEVL=2 RUNTYP=ENERGY ispher=1 $END
 $SYSTEM MWORDS=50 memddi=100 $END
 $INTGRL INTOMP=1 $END
 $mp2    code=rimp2 $end
 $rimp2  othaux=.f. ivmtd=0 gosmp=.f. usedm=.true. $end
 $auxbas cabnam=ccd $end

 $BASIS GBASIS=N31 NGAUSS=6 NDFUNC=1 $END
 $GUESS GUESS=MOREAD NORB=78 $END
 $SCF DIRSCF=.TRUE. $END
 $DATA 
C24H12
C1
C     6.0    -2.27445    -2.39182    -0.00014
C     6.0    -0.84919    -2.39182    -0.00014
C     6.0    -0.16661    -1.15956    -0.00014
C     6.0    -0.90304     0.06522     0.00004
C     6.0    -2.31149     0.04020    -0.00008
C     6.0    -2.97987    -1.21862    -0.00014
C     6.0     1.26228    -1.13419    -0.00009
C     6.0    -0.21056     1.31536     0.00040
C     6.0     1.21833     1.34074     0.00080
C     6.0     1.95476     0.11596     0.00051
C     6.0     1.90088     2.57300     0.00154
C     6.0     1.14489     3.78124     0.00169
C     6.0    -0.22384     3.75693     0.00115
C     6.0    -0.93646     2.52261     0.00062
C     6.0    -2.36082     2.47202     0.00031
C     6.0    -3.02413     1.27451     0.00000
H     1.0    -4.12441     1.24208    -0.00015
H     1.0    -2.91696     3.42196     0.00037
H     1.0    -2.79652    -3.36090    -0.00015
H     1.0    -4.08060    -1.22527    -0.00013
H     1.0     1.68949     4.73783     0.00221
H     1.0    -0.80208     4.69358     0.00117
C     6.0    -0.09321    -3.60006    -0.00032
C     6.0     1.27554    -3.57575    -0.00066
C     6.0     1.98816    -2.34143    -0.00052
H     1.0    -0.63779    -4.55668    -0.00024
H     1.0     1.85376    -4.51241    -0.00090
C     6.0     3.41253    -2.29084    -0.00048
C     6.0     4.07584    -1.09333     0.00036
C     6.0     3.36319     0.14097     0.00092
H     1.0     3.96866    -3.24077    -0.00098
H     1.0     5.17612    -1.06090     0.00061
C     6.0     3.32615     2.57300     0.00233
H     1.0     3.84821     3.54211     0.00334
C     6.0     4.03157     1.39980     0.00192
H     1.0     5.13231     1.40649     0.00237
 $END
 $VEC
 1  1 1.26670003E-02 8.80000007E-05-7.79999973E-05-4.30000000E-05 0.00000000E+00
 1  2 5.00000024E-04 3.03000008E-04 7.69999970E-05-0.00000000E+00-5.60000008E-05
 1  3 5.29999998E-05 3.00000011E-06 1.10000001E-05-0.00000000E+00-0.00000000E+00
 1  4 1.55780002E-01 3.54800001E-03-7.69999970E-05-1.38999996E-04-0.00000000E+00
 1  5-9.13999975E-04 3.22999986E-04 5.86999988E-04 0.00000000E+00 6.70000009E-05
 1  6-5.40000001E-05-1.29999999E-05-1.12000002E-04 0.00000000E+00 0.00000000E+00
 1  7 3.75483990E-01 8.77800025E-03-6.09999988E-05-1.10000001E-04 0.00000000E+00
 1  8-2.61699990E-03 2.20000002E-04 3.95000010E-04-0.00000000E+00-4.99999987E-05
 1  9 4.40000003E-05 6.00000021E-06 8.70000003E-05 0.00000000E+00 0.00000000E+00
 1 10 3.75418007E-01 8.77599977E-03-1.25000006E-04-1.99999999E-06-0.00000000E+00
 1 11-2.61799991E-03 4.49000014E-04 9.00000032E-06 0.00000000E+00 8.60000000E-05
 1 12-9.20000020E-05 6.00000021E-06 3.99999999E-06 0.00000000E+00-0.00000000E+00
 1 13 1.55630007E-01 3.54499999E-03-1.59000003E-04-3.00000011E-06 0.00000000E+00
 1 14-9.13000025E-04 6.68999972E-04 9.99999975E-06-0.00000000E+00-1.08000000E-04
 1 15 1.20999997E-04-1.29999999E-05-4.99999987E-06-0.00000000E+00 0.00000000E+00
 1 16 1.26560004E-02 8.80000007E-05-7.40000032E-05-4.89999984E-05-0.00000000E+00
 1 17 5.00000024E-04 2.09999998E-04 2.30999998E-04 0.00000000E+00 3.70000016E-05
 1 18-3.89999987E-05 3.00000011E-06-4.60000010E-05 0.00000000E+00 0.00000000E+00
 1 19 3.75064999E-01 8.76799971E-03 6.50000002E-05-1.08000000E-04-0.00000000E+00
 1 20-2.61699990E-03-2.30000005E-04 3.87000007E-04 0.00000000E+00-4.50000007E-05
 1 21 3.89999987E-05 6.00000021E-06-9.10000017E-05-0.00000000E+00 0.00000000E+00
 1 22 3.75128001E-01 8.76899995E-03-6.50000002E-05 1.08000000E-04 0.00000000E+00
 1 23-2.61699990E-03 2.35000000E-04-3.87000007E-04-0.00000000E+00-4.50000007E-05
 1 24 3.89999987E-05 6.00000021E-06-9.10000017E-05-0.00000000E+00 0.00000000E+00
 1 25 3.74897987E-01 8.76399968E-03 6.09999988E-05 1.10000001E-04 0.00000000E+00
 1 26-2.61999993E-03-2.16999993E-04-3.95000010E-04 0.00000000E+00-5.09999991E-05
 1 27 4.40000003E-05 6.00000021E-06 8.70000003E-05 0.00000000E+00 0.00000000E+00
 1 28 3.74938995E-01 8.76499992E-03 1.25999999E-04 1.99999999E-06 0.00000000E+00
 1 29-2.61899992E-03-4.52999986E-04-7.00000010E-06-0.00000000E+00 8.60000000E-05
 1 30-9.20000020E-05 6.00000021E-06 3.99999999E-06 0.00000000E+00-0.00000000E+00
 1 31 1.55393004E-01 3.53899994E-03 7.69999970E-05 1.38999996E-04 0.00000000E+00
 1 32-9.07999987E-04-3.26000008E-04-5.84999972E-04-9.99999997E-07 6.70000009E-05
 1 33-5.40000001E-05-1.29999999E-05-1.12000002E-04 0.00000000E+00-0.00000000E+00
 1 34 1.26400003E-02 8.80000007E-05-4.99999987E-06 8.80000007E-05 0.00000000E+00
 1 35 4.98000009E-04 9.60000034E-05-2.96999991E-04 0.00000000E+00 1.40000002E-05
 1 36-1.70000003E-05 3.00000011E-06 6.09999988E-05 0.00000000E+00 0.00000000E+00
 1 37 1.26489997E-02 8.80000007E-05 1.99999999E-06 8.80000007E-05 0.00000000E+00
 1 38 5.01999981E-04-8.49999997E-05-3.02000000E-04-0.00000000E+00 1.80000006E-05
 1 39-2.09999998E-05 3.00000011E-06-5.99999985E-05-0.00000000E+00-0.00000000E+00
 1 40 1.55532002E-01 3.54199996E-03-8.19999987E-05 1.36000002E-04 0.00000000E+00
 1 41-9.10000002E-04 3.42999992E-04-5.76000020E-04 0.00000000E+00 5.99999985E-05
 1 42-4.70000014E-05-1.29999999E-05 1.17000003E-04 0.00000000E+00-0.00000000E+00
 1 43 1.26499999E-02 8.80000007E-05-7.89999976E-05 3.99999990E-05-0.00000000E+00
 1 44 4.98000009E-04 3.04999994E-04-6.50000002E-05-0.00000000E+00-5.50000004E-05
 1 45 5.19999994E-05 3.00000011E-06-1.49999996E-05-0.00000000E+00 0.00000000E+00
 1 46 1.26580000E-02 8.80000007E-05-7.59999966E-05 4.60000010E-05-0.00000000E+00
 1 47 5.01999981E-04 2.20000002E-04-2.24000003E-04 0.00000000E+00 3.40000006E-05
 1 48-3.60000013E-05 3.00000011E-06 4.89999984E-05 0.00000000E+00-0.00000000E+00
 1 49-2.09999998E-05 1.11000001E-04-2.20000002E-05 1.10000001E-04-2.20000002E-05
 1 50 1.11000001E-04-2.09999998E-05 1.11000001E-04-2.20000002E-05 1.10000001E-04
 1 51-2.20000002E-05 1.11000001E-04 1.26750004E-02 8.80000007E-05 4.99999987E-06
 1 52-8.80000007E-05-0.00000000E+00 5.01999981E-04-9.60000034E-05 2.99000007E-04
 1 53-0.00000000E+00 1.40000002E-05-1.70000003E-05 3.00000011E-06 6.09999988E-05
 1 54 0.00000000E+00-0.00000000E+00 1.26540000E-02 8.80000007E-05-1.99999999E-06
 1 55-8.90000010E-05-0.00000000E+00 4.98000009E-04 8.49999997E-05 3.00000014E-04
 1 56 0.00000000E+00 1.80000006E-05-2.09999998E-05 3.00000011E-06-5.99999985E-05
 1 57-0.00000000E+00 0.00000000E+00 1.55498996E-01 3.54199996E-03 8.19999987E-05
 1 58-1.36000002E-04 0.00000000E+00-9.11000010E-04-3.46999994E-04 5.71999990E-04
 1 59-0.00000000E+00 5.99999985E-05-4.70000014E-05-1.29999999E-05 1.17000003E-04
 1 60 0.00000000E+00-0.00000000E+00-2.20000002E-05 1.11000001E-04-2.20000002E-05
 1 61 1.10000001E-04 1.26470001E-02 8.80000007E-05 7.89999976E-05-3.99999990E-05
 1 62-0.00000000E+00 5.01999981E-04-3.07000009E-04 6.70000009E-05 0.00000000E+00
 1 63-5.50000004E-05 5.19999994E-05 3.00000011E-06-1.49999996E-05-0.00000000E+00
 1 64 0.00000000E+00 1.26430001E-02 8.80000007E-05 7.59999966E-05-4.60000010E-05
 1 65-0.00000000E+00 4.98000009E-04-2.16999993E-04 2.24000003E-04 0.00000000E+00
 1 66 3.40000006E-05-3.60000013E-05 3.00000011E-06 4.89999984E-05 0.00000000E+00
 1 67-0.00000000E+00 1.55444995E-01 3.53999995E-03 1.59000003E-04 3.00000011E-06
 1 68 0.00000000E+00-9.06999980E-04-6.70999987E-04-1.29999999E-05-0.00000000E+00
 1 69-1.07000000E-04 1.20999997E-04-1.29999999E-05-4.99999987E-06-0.00000000E+00
 1 70 0.00000000E+00-2.09999998E-05 1.11000001E-04-2.20000002E-05 1.10000001E-04
 1 71 1.26430001E-02 8.80000007E-05 7.79999973E-05 4.19999997E-05 0.00000000E+00
 1 72 5.00000024E-04-3.03000008E-04-7.69999970E-05-0.00000000E+00-5.60000008E-05
 1 73 5.29999998E-05 3.00000011E-06 1.10000001E-05-0.00000000E+00 0.00000000E+00
 1 74-2.20000002E-05 1.10000001E-04 1.26449997E-02 8.80000007E-05 7.40000032E-05
 1 75 4.89999984E-05 0.00000000E+00 5.00000024E-04-2.09999998E-04-2.32000006E-04
 1 76-0.00000000E+00 3.70000016E-05-3.89999987E-05 3.00000011E-06-4.60000010E-05
 1 77-0.00000000E+00-0.00000000E+00-2.20000002E-05 1.10000001E-04
 2  1-2.33449992E-02-2.37999993E-04 1.50000007E-04 5.50000004E-05-0.00000000E+00
 2  2-1.32999994E-04-2.07000005E-04-4.57999995E-04 0.00000000E+00 1.04999999E-04
 2  3-7.69999970E-05-2.80000004E-05-1.20000004E-05 0.00000000E+00 0.00000000E+00
 2  4-2.69268990E-01-6.56099990E-03 4.09999993E-05 1.95000001E-04 0.00000000E+00
 2  5 5.62300021E-03 1.98299997E-03 9.30000024E-05-9.99999997E-07-8.09999983E-05
 2  6 9.30000024E-05-1.20000004E-05 1.69000006E-04-0.00000000E+00-0.00000000E+00
 2  7-4.60909992E-01-1.10390000E-02-1.61000004E-04-1.28000000E-04-0.00000000E+00
 2  8-1.97599991E-03-6.84999977E-04 2.07199994E-03 9.99999997E-07-1.38000003E-04
 2  9 2.80000004E-05 1.09000001E-04-7.20000025E-05 0.00000000E+00 0.00000000E+00
 2 10-3.87901008E-01-9.29099973E-03-1.57999995E-04-1.36000002E-04-0.00000000E+00
 2 11-1.66499999E-03 1.29799999E-03-2.69100000E-03-0.00000000E+00-4.80000017E-05
 2 12-4.50000007E-05 9.20000020E-05-2.03000003E-04-0.00000000E+00-0.00000000E+00
 2 13-2.26366997E-01-5.51499985E-03 1.61999997E-04-9.60000034E-05-0.00000000E+00
 2 14 4.73200018E-03 8.29000026E-04 2.87600001E-03 0.00000000E+00 1.48000006E-04
 2 15-1.38000003E-04-9.99999975E-06 1.29999999E-05 0.00000000E+00-0.00000000E+00
 2 16-2.00880002E-02-2.26999997E-04 1.25000006E-04 9.69999965E-05 0.00000000E+00
 2 17 1.06599997E-03 1.28000000E-04 2.22999995E-04-0.00000000E+00-3.79999983E-05
 2 18 6.60000005E-05-2.80000004E-05 7.10000022E-05-0.00000000E+00 0.00000000E+00
 2 19-7.24150017E-02-1.73400005E-03-1.65999998E-04-1.34999995E-04-0.00000000E+00
 2 20-3.15000012E-04-3.82099999E-03-2.02200003E-03-9.99999997E-07 2.39000001E-04
 2 21-2.55999999E-04 1.70000003E-05-1.50000007E-04-0.00000000E+00-0.00000000E+00
 2 22 7.31009990E-02 1.75099995E-03-1.65000005E-04-1.34000002E-04-0.00000000E+00
 2 23 3.07999988E-04-3.82099999E-03-2.02300004E-03-9.99999997E-07-2.37999993E-04
 2 24 2.55999999E-04-1.70000003E-05 1.50000007E-04-0.00000000E+00 0.00000000E+00
 2 25 4.61057007E-01 1.10419998E-02-1.61000004E-04-1.28000000E-04-0.00000000E+00
 2 26 1.97699992E-03-6.84999977E-04 2.07199994E-03 0.00000000E+00 1.38000003E-04
 2 27-2.80000004E-05-1.09000001E-04 7.30000029E-05 0.00000000E+00 0.00000000E+00
 2 28 3.88458014E-01 9.30400006E-03-1.57999995E-04-1.34999995E-04-0.00000000E+00
 2 29 1.66099996E-03 1.29799999E-03-2.69100000E-03-9.99999997E-07 4.80000017E-05
 2 30 4.40000003E-05-9.20000020E-05 2.03000003E-04 0.00000000E+00 0.00000000E+00
 2 31 2.69005001E-01 6.55400008E-03 4.09999993E-05 1.95000001E-04 0.00000000E+00
 2 32-5.61900018E-03 1.98399997E-03 9.40000027E-05 9.99999997E-07 8.09999983E-05
 2 33-9.40000027E-05 1.20000004E-05-1.69000006E-04-0.00000000E+00-0.00000000E+00
 2 34 2.22529992E-02 1.74000001E-04-4.70000014E-05 9.69999965E-05 0.00000000E+00
 2 35 2.89899996E-03-5.29000012E-04-1.76799996E-03-9.99999997E-07 1.70000003E-05
 2 36-3.30000003E-05 1.60000000E-05 9.10000017E-05 0.00000000E+00 0.00000000E+00
 2 37 5.06500015E-03 1.18000004E-04-1.70000003E-05 9.89999971E-05 0.00000000E+00
 2 38-3.48499999E-03-3.30999988E-04 1.63299998E-03 0.00000000E+00 3.00000011E-06
 2 39-2.30000005E-05 1.89999992E-05-2.59999997E-05-0.00000000E+00-0.00000000E+00
 2 40 4.26689982E-02 1.03900000E-03-1.50000007E-04-5.50000004E-05-0.00000000E+00
 2 41-8.90000025E-04 3.81399994E-03 2.48500006E-03 1.99999999E-06 1.99999995E-05
 2 42-2.20000002E-05 1.99999999E-06 2.20000002E-05 0.00000000E+00 0.00000000E+00
 2 43 2.16499995E-03-5.29999998E-05 3.89999987E-05-5.19999994E-05 0.00000000E+00
 2 44 3.96500016E-03 1.52299996E-03-1.34199997E-03 0.00000000E+00 4.99999987E-06
 2 45 7.99999998E-06-1.20000004E-05-4.99999987E-06-0.00000000E+00-0.00000000E+00
 2 46-1.82649996E-02-1.19999997E-04 2.90000007E-05-6.70000009E-05-0.00000000E+00
 2 47-3.61800008E-03-2.08100001E-03 4.79999988E-04-0.00000000E+00-3.79999983E-05
 2 48 4.60000010E-05-9.00000032E-06-5.90000018E-05-0.00000000E+00-0.00000000E+00
 2 49-2.09999998E-05-5.10999991E-04 2.20000002E-05 3.94000002E-04-9.99999997E-07
 2 50-2.28999997E-04 4.99999987E-06-8.60000000E-05 1.70000003E-05 4.79999988E-04
 2 51-1.89999992E-05-2.81999994E-04-2.22830009E-02-1.74999994E-04-4.70000014E-05
 2 52 9.69999965E-05 0.00000000E+00-2.89899996E-03-5.29000012E-04-1.76799996E-03
 2 53 0.00000000E+00-1.70000003E-05 3.30000003E-05-1.60000000E-05-9.10000017E-05
 2 54 0.00000000E+00 0.00000000E+00-5.03699994E-03-1.18000004E-04-1.70000003E-05
 2 55 9.89999971E-05 0.00000000E+00 3.48600000E-03-3.30000010E-04 1.63399999E-03
 2 56 0.00000000E+00-3.00000011E-06 2.30000005E-05-1.89999992E-05 2.49999994E-05
 2 57-0.00000000E+00-0.00000000E+00-4.22639996E-02-1.03000004E-03-1.50000007E-04
 2 58-5.50000004E-05-0.00000000E+00 8.87000002E-04 3.81399994E-03 2.48700008E-03
 2 59 9.99999997E-07-1.99999995E-05 2.20000002E-05-1.99999999E-06-2.20000002E-05
 2 60 0.00000000E+00 0.00000000E+00-1.70000003E-05-4.79999988E-04 1.89999992E-05
 2 61 2.81999994E-04-2.12899991E-03 5.29999998E-05 3.89999987E-05-5.19999994E-05
 2 62-0.00000000E+00-3.96399992E-03 1.52299996E-03-1.34199997E-03-9.99999997E-07
 2 63-4.99999987E-06-7.00000010E-06 1.20000004E-05 4.99999987E-06 0.00000000E+00
 2 64-0.00000000E+00 1.82959996E-02 1.19999997E-04 2.90000007E-05-6.70000009E-05
 2 65-0.00000000E+00 3.61800008E-03-2.08100001E-03 4.79999988E-04-0.00000000E+00
 2 66 3.79999983E-05-4.70000014E-05 9.00000032E-06 5.90000018E-05 0.00000000E+00
 2 67-0.00000000E+00 2.26715997E-01 5.52400015E-03 1.61999997E-04-9.60000034E-05
 2 68-0.00000000E+00-4.73499997E-03 8.28000018E-04 2.87500001E-03 1.99999999E-06
 2 69-1.48000006E-04 1.38000003E-04 9.99999975E-06-1.29999999E-05-0.00000000E+00
 2 70 0.00000000E+00-2.20000002E-05-3.94000002E-04 2.09999998E-05 5.10999991E-04
 2 71 2.33369991E-02 2.37999993E-04 1.50000007E-04 5.60000008E-05 0.00000000E+00
 2 72 1.32000001E-04-2.07000005E-04-4.59000003E-04-0.00000000E+00-1.04999999E-04
 2 73 7.69999970E-05 2.80000004E-05 1.20000004E-05-0.00000000E+00 0.00000000E+00
 2 74 9.99999997E-07 2.28999997E-04 2.01219991E-02 2.28000004E-04 1.25000006E-04
 2 75 9.69999965E-05 0.00000000E+00-1.06399995E-03 1.27000007E-04 2.22000002E-04
 2 76 0.00000000E+00 3.79999983E-05-6.60000005E-05 2.90000007E-05-7.20000025E-05
 2 77-0.00000000E+00-0.00000000E+00-4.99999987E-06 8.70000003E-05
 3  1-7.65699986E-03-9.99999997E-07-3.00000011E-06-4.19999997E-05-0.00000000E+00
 3  2-4.10200004E-03-1.56300003E-03-1.53899996E-03-0.00000000E+00 1.99999995E-05
 3  3-2.59999997E-05 6.00000021E-06-7.00000010E-06-0.00000000E+00-0.00000000E+00
 3  4-1.06500998E-01-2.59499997E-03 1.65999998E-04-6.00000021E-06 0.00000000E+00
 3  5 2.22199992E-03-3.54299997E-03 2.43299990E-03 0.00000000E+00-4.09999993E-05
 3  6 4.60000010E-05-4.99999987E-06 5.99999985E-05 0.00000000E+00-0.00000000E+00
 3  7-1.82260007E-01-4.36499994E-03 1.36999995E-04-1.61999997E-04-0.00000000E+00
 3  8-7.77999987E-04 3.83400009E-03-1.45500002E-03-0.00000000E+00 2.03000003E-04
 3  9-2.46000011E-04 4.30000000E-05 1.57000002E-04 0.00000000E+00-0.00000000E+00
 3 10 3.08243990E-01 7.38300011E-03 1.30000000E-04-1.65000005E-04-0.00000000E+00
 3 11 1.31900003E-03-9.28999973E-04-3.43500008E-03-9.99999997E-07 5.09999991E-05
 3 12 2.30000005E-05-7.30000029E-05-2.54999992E-04-0.00000000E+00 0.00000000E+00
 3 13 1.79919004E-01 4.38399985E-03-1.25000006E-04-1.27000007E-04-0.00000000E+00
 3 14-3.75699997E-03-7.60999974E-04 3.59000009E-03 0.00000000E+00-1.18000004E-04
 3 15 1.10000001E-04 7.99999998E-06 3.99999999E-06-0.00000000E+00 0.00000000E+00
 3 16 1.40899997E-02 7.00000019E-05 1.99999999E-06-4.70000014E-05 0.00000000E+00
 3 17 3.96300014E-03 2.14700005E-03 6.20000006E-04 0.00000000E+00 3.40000006E-05
 3 18-3.60000013E-05 1.99999999E-06-3.99999990E-05-0.00000000E+00-0.00000000E+00
 3 19-4.90161002E-01-1.17389997E-02 1.30999993E-04-1.57000002E-04-0.00000000E+00
 3 20-2.10299995E-03-2.64000002E-04 1.68300001E-03 9.99999997E-07-9.00000014E-05
 3 21-2.59999997E-05 1.16000003E-04 3.19999999E-05 0.00000000E+00-0.00000000E+00
 3 22 4.90258992E-01 1.17419995E-02 1.30999993E-04-1.57000002E-04 0.00000000E+00
 3 23 2.10099993E-03-2.64000002E-04 1.68200000E-03 0.00000000E+00 9.00000014E-05
 3 24 2.59999997E-05-1.16000003E-04-3.19999999E-05 0.00000000E+00 0.00000000E+00
 3 25 1.81984007E-01 4.35899990E-03 1.36999995E-04-1.61999997E-04-0.00000000E+00
 3 26 7.82000017E-04 3.83400009E-03-1.45500002E-03 9.99999997E-07-2.03000003E-04
 3 27 2.46000011E-04-4.30000000E-05-1.57000002E-04-0.00000000E+00 0.00000000E+00
 3 28-3.08178008E-01-7.38100009E-03 1.30000000E-04-1.65000005E-04 0.00000000E+00
 3 29-1.32100005E-03-9.28999973E-04-3.43500008E-03-1.99999999E-06-5.09999991E-05
 3 30-2.30000005E-05 7.30000029E-05 2.54999992E-04 0.00000000E+00-0.00000000E+00
 3 31 1.06198996E-01 2.58699991E-03 1.65999998E-04-6.00000021E-06 0.00000000E+00
 3 32-2.21899990E-03-3.54299997E-03 2.43299990E-03-9.99999997E-07 4.09999993E-05
 3 33-4.60000010E-05 4.99999987E-06-5.99999985E-05-0.00000000E+00-0.00000000E+00
 3 34 1.03630004E-02 1.61999997E-04 3.00000011E-06 1.25000006E-04 0.00000000E+00
 3 35-2.90399999E-03 1.57000002E-04 1.27699994E-03 9.99999997E-07 6.00000021E-06
 3 36-2.90000007E-05 2.30000005E-05 4.80000017E-05 0.00000000E+00-0.00000000E+00
 3 37 2.40310002E-02 2.07000005E-04 4.09999993E-05 1.25000006E-04 0.00000000E+00
 3 38 2.16499995E-03 5.31000027E-04-1.41499995E-03-0.00000000E+00 2.40000008E-05
 3 39-4.50000007E-05 2.09999998E-05-9.69999965E-05-0.00000000E+00-0.00000000E+00
 3 40 2.86215991E-01 6.97299978E-03-8.39999993E-05 1.84999997E-04 0.00000000E+00
 3 41-5.97900013E-03-1.15100003E-03 6.02999993E-04 0.00000000E+00 7.69999970E-05
 3 42-9.00000014E-05 1.29999999E-05 1.86000005E-04 0.00000000E+00-0.00000000E+00
 3 43 2.44640000E-02 2.32000006E-04-1.46999999E-04 3.89999987E-05-0.00000000E+00
 3 44 1.05900003E-03 5.84000023E-04-7.75999972E-04-0.00000000E+00-1.06000000E-04
 3 45 7.99999980E-05 2.59999997E-05-2.09999998E-05-0.00000000E+00 0.00000000E+00
 3 46 1.63920000E-02 2.05999997E-04-1.25999999E-04 7.89999976E-05-0.00000000E+00
 3 47-1.93599996E-03-6.23999978E-04 3.34999990E-04 0.00000000E+00 2.49999994E-05
 3 48-5.19999994E-05 2.70000000E-05 6.39999998E-05 0.00000000E+00-0.00000000E+00
 3 49-9.99999975E-06-2.99999992E-05 7.00000010E-06 3.26999987E-04-2.30000005E-05
 3 50-4.57999995E-04 2.20000002E-05 5.03999996E-04-1.60000000E-05-1.76999994E-04
 3 51 1.29999999E-05 4.26999992E-04-1.03920000E-02-1.61999997E-04 3.00000011E-06
 3 52 1.25000006E-04 0.00000000E+00 2.90399999E-03 1.57000002E-04 1.27699994E-03
 3 53 0.00000000E+00-6.00000021E-06 2.90000007E-05-2.40000008E-05-4.89999984E-05
 3 54-0.00000000E+00 0.00000000E+00-2.40369998E-02-2.07000005E-04 4.09999993E-05
 3 55 1.25000006E-04 0.00000000E+00-2.16499995E-03 5.31000027E-04-1.41499995E-03
 3 56-9.99999997E-07-2.40000008E-05 4.50000007E-05-2.09999998E-05 9.69999965E-05
 3 57 0.00000000E+00-0.00000000E+00-2.86134988E-01-6.97100023E-03-8.39999993E-05
 3 58 1.84999997E-04-0.00000000E+00 5.97900013E-03-1.15100003E-03 6.04000001E-04
 3 59 9.99999997E-07-7.69999970E-05 9.00000014E-05-1.29999999E-05-1.86000005E-04
 3 60-0.00000000E+00 0.00000000E+00 1.60000000E-05 1.76999994E-04-1.29999999E-05
 3 61-4.27999999E-04-2.44570002E-02-2.32000006E-04-1.46999999E-04 3.89999987E-05
 3 62 0.00000000E+00-1.05900003E-03 5.83000015E-04-7.75999972E-04-9.99999997E-07
 3 63 1.06000000E-04-7.99999980E-05-2.59999997E-05 2.09999998E-05 0.00000000E+00
 3 64-0.00000000E+00-1.63899995E-02-2.05999997E-04-1.25999999E-04 7.89999976E-05
 3 65 0.00000000E+00 1.93599996E-03-6.23999978E-04 3.34999990E-04 0.00000000E+00
 3 66-2.49999994E-05 5.19999994E-05-2.70000000E-05-6.39999998E-05-0.00000000E+00
 3 67 0.00000000E+00-1.79895997E-01-4.38300008E-03-1.25000006E-04-1.27000007E-04
 3 68-0.00000000E+00 3.75699997E-03-7.60999974E-04 3.58900009E-03 1.99999999E-06
 3 69 1.18000004E-04-1.10000001E-04-7.99999998E-06-3.99999999E-06 0.00000000E+00
 3 70-0.00000000E+00-7.00000010E-06-3.26999987E-04 9.99999975E-06 2.99999992E-05
 3 71 7.63500016E-03 9.99999997E-07-3.00000011E-06-4.19999997E-05-0.00000000E+00
 3 72 4.10099979E-03-1.56200002E-03-1.53899996E-03-1.99999999E-06-1.99999995E-05
 3 73 2.59999997E-05-6.00000021E-06 7.00000010E-06 0.00000000E+00 0.00000000E+00
 3 74 2.30000005E-05 4.57999995E-04-1.40950000E-02-7.00000019E-05 1.99999999E-06
 3 75-4.70000014E-05-0.00000000E+00-3.96199990E-03 2.14700005E-03 6.20000006E-04
 3 76 9.99999997E-07-3.40000006E-05 3.60000013E-05-1.99999999E-06 3.99999990E-05
 3 77 0.00000000E+00 0.00000000E+00-2.20000002E-05-5.05000004E-04
 4  1 3.98860015E-02 7.32999993E-04-1.78000002E-04 3.99999990E-05 0.00000000E+00
 4  2 1.00599998E-03 9.22999985E-04-4.17000003E-04-0.00000000E+00-2.14999993E-04
 4  3 9.30000024E-05 1.20999997E-04-1.80000006E-05-0.00000000E+00-0.00000000E+00
 4  4 4.66060996E-01 1.15369996E-02-2.90000007E-05-3.19999999E-05-0.00000000E+00
 4  5-4.84800013E-03 6.91000023E-04 1.06100005E-03 0.00000000E+00 1.14000002E-04
 4  6 3.19999999E-05-1.46000006E-04-7.79999973E-05-0.00000000E+00 0.00000000E+00
 4  7 3.29346001E-01 8.24599992E-03 7.59999966E-05 1.74999994E-04 0.00000000E+00
 4  8-4.06400021E-03 3.16999998E-04 5.20000001E-04-0.00000000E+00 1.65000005E-04
 4  9-2.80000004E-05-1.36999995E-04-2.11999999E-04 0.00000000E+00 0.00000000E+00
 4 10-1.89963996E-01-4.75599989E-03-1.12000002E-04 1.67999999E-04 0.00000000E+00
 4 11 2.33500008E-03-3.56000004E-04-2.43000002E-04 0.00000000E+00 7.40000032E-05
 4 12-1.53000001E-04 7.89999976E-05 1.82000003E-04 0.00000000E+00-0.00000000E+00
 4 13-2.68132001E-01-6.63700001E-03 2.30000005E-05 9.30000024E-05 0.00000000E+00
 4 14 2.78300000E-03-7.14999973E-04-8.77999992E-04-0.00000000E+00 3.99999999E-06
 4 15-8.70000003E-05 8.39999993E-05 1.29999999E-05-0.00000000E+00-0.00000000E+00
 4 16-2.01370008E-02-4.03000013E-04-1.40000002E-05 9.99999975E-05 0.00000000E+00
 4 17-8.75999976E-04-1.34999995E-04-8.81000014E-04 0.00000000E+00 9.99999997E-07
 4 18 7.50000036E-05-7.59999966E-05 8.29999990E-05 0.00000000E+00 0.00000000E+00
 4 19-1.40633002E-01-3.52100004E-03 2.01999996E-04 2.80000004E-05-0.00000000E+00
 4 20 1.72299996E-03-8.29999990E-05-3.68000008E-04 0.00000000E+00-2.20000002E-04
 4 21 1.61999997E-04 5.90000018E-05 1.99999999E-06-0.00000000E+00 0.00000000E+00
 4 22-1.39475003E-01-3.49300005E-03-2.03000003E-04-2.80000004E-05-0.00000000E+00
 4 23 1.73999998E-03 1.04999999E-04 3.23999993E-04 0.00000000E+00-2.20000002E-04
 4 24 1.61999997E-04 5.80000014E-05 3.00000011E-06-0.00000000E+00 0.00000000E+00
 4 25 3.29315007E-01 8.24599992E-03-7.59999966E-05-1.74999994E-04-0.00000000E+00
 4 26-4.08100011E-03-2.92000012E-04-4.75999987E-04-0.00000000E+00 1.63999997E-04
 4 27-2.70000000E-05-1.36999995E-04-2.11999999E-04-0.00000000E+00 0.00000000E+00
 4 28-1.88933998E-01-4.73099994E-03 1.12000002E-04-1.67999999E-04-0.00000000E+00
 4 29 2.35099997E-03 3.06000002E-04 2.37000000E-04-0.00000000E+00 7.40000032E-05
 4 30-1.51999993E-04 7.79999973E-05 1.82000003E-04 0.00000000E+00-0.00000000E+00
 4 31 4.64536011E-01 1.14989998E-02 2.90000007E-05 3.30000003E-05 0.00000000E+00
 4 32-4.86000022E-03-6.82000013E-04-1.04200002E-03-9.99999997E-07 1.14000002E-04
 4 33 3.09999996E-05-1.44999998E-04-7.79999973E-05 0.00000000E+00 0.00000000E+00
 4 34 4.03969996E-02 7.34000001E-04-1.23000005E-04 1.38000003E-04 0.00000000E+00
 4 35 9.42000013E-04 7.86999997E-04-5.10999991E-04 0.00000000E+00 2.20000002E-05
 4 36-1.42000004E-04 1.18999997E-04 1.53000001E-04 0.00000000E+00-0.00000000E+00
 4 37-1.36930002E-02-2.88999989E-04-7.69999970E-05-1.60000000E-05-0.00000000E+00
 4 38-7.68999977E-04 5.69999975E-04 5.25999989E-04 0.00000000E+00-4.99999987E-06
 4 39 6.29999995E-05-5.80000014E-05 5.19999994E-05 0.00000000E+00 0.00000000E+00
 4 40-1.96950004E-01-4.87599988E-03-7.89999976E-05-6.90000015E-05-0.00000000E+00
 4 41 2.06699991E-03 5.54000027E-04 9.43000021E-04 0.00000000E+00-5.60000008E-05
 4 42-6.00000021E-06 6.09999988E-05-2.90000007E-05-0.00000000E+00-0.00000000E+00
 4 43-2.02949997E-02-3.31999996E-04 1.01999998E-04-2.49999994E-05 0.00000000E+00
 4 44-6.09999988E-05-4.99999987E-06-1.08000000E-04-0.00000000E+00 9.69999965E-05
 4 45-5.29999998E-05-4.30000000E-05-9.99999997E-07 0.00000000E+00 0.00000000E+00
 4 46-2.61160005E-02-4.41999990E-04 7.89999976E-05-9.89999971E-05-0.00000000E+00
 4 47-2.41999995E-04 6.50000002E-05 2.46999989E-04 0.00000000E+00-9.99999975E-06
 4 48 7.20000025E-05-6.29999995E-05-1.02999998E-04-0.00000000E+00 0.00000000E+00
 4 49 4.30000000E-05 9.00000032E-06 2.99999992E-05 3.00000011E-06-8.09999983E-05
 4 50-2.90000007E-05 4.99999987E-05 2.40000008E-05-7.99999980E-05-2.59999997E-05
 4 51 3.79999983E-05 1.89999992E-05 4.05419990E-02 7.37000024E-04 1.23000005E-04
 4 52-1.38000003E-04-0.00000000E+00 9.39999998E-04-7.96000008E-04 5.08999976E-04
 4 53 0.00000000E+00 2.30000005E-05-1.42000004E-04 1.19999997E-04 1.53999994E-04
 4 54 0.00000000E+00-0.00000000E+00-1.38259996E-02-2.91000004E-04 7.69999970E-05
 4 55 1.60000000E-05 0.00000000E+00-7.63999997E-04-5.78999985E-04-5.24999981E-04
 4 56 0.00000000E+00-4.99999987E-06 6.39999998E-05-5.90000018E-05 5.29999998E-05
 4 57 0.00000000E+00 0.00000000E+00-1.98550001E-01-4.91499994E-03 7.79999973E-05
 4 58 6.80000012E-05 0.00000000E+00 2.05900008E-03-5.40999987E-04-9.58000019E-04
 4 59-0.00000000E+00-5.60000008E-05-6.00000021E-06 6.19999992E-05-2.90000007E-05
 4 60-0.00000000E+00-0.00000000E+00-8.09999983E-05-2.80000004E-05 3.79999983E-05
 4 61 2.09999998E-05-2.04269998E-02-3.34999990E-04-1.01999998E-04 2.49999994E-05
 4 62-0.00000000E+00-6.29999995E-05 9.99999975E-06 1.14000002E-04 0.00000000E+00
 4 63 9.69999965E-05-5.40000001E-05-4.40000003E-05-9.99999997E-07 0.00000000E+00
 4 64-0.00000000E+00-2.60000005E-02-4.40000003E-04-7.89999976E-05 9.89999971E-05
 4 65 0.00000000E+00-2.39999994E-04-6.29999995E-05-2.39999994E-04-0.00000000E+00
 4 66-9.99999975E-06 7.20000025E-05-6.19999992E-05-1.01999998E-04-0.00000000E+00
 4 67 0.00000000E+00-2.66690999E-01-6.60199998E-03-2.30000005E-05-9.30000024E-05
 4 68-0.00000000E+00 2.79500009E-03 6.94999995E-04 8.82999972E-04 9.99999997E-07
 4 69 3.99999999E-06-8.70000003E-05 8.29999990E-05 1.29999999E-05-0.00000000E+00
 4 70-0.00000000E+00 3.09999996E-05 3.99999999E-06 4.30000000E-05 7.99999998E-06
 4 71 3.97799984E-02 7.30000029E-04 1.76999994E-04-3.89999987E-05 0.00000000E+00
 4 72 1.00900000E-03-9.20000020E-04 4.07999993E-04-0.00000000E+00-2.14000000E-04
 4 73 9.30000024E-05 1.20999997E-04-1.80000006E-05-0.00000000E+00-0.00000000E+00
 4 74-8.09999983E-05-2.70000000E-05-2.00270005E-02-4.00999998E-04 1.49999996E-05
 4 75-9.99999975E-05-0.00000000E+00-8.82000022E-04 1.40999997E-04 8.75000027E-04
 4 76 0.00000000E+00 9.99999997E-07 7.50000036E-05-7.59999966E-05 8.29999990E-05
 4 77 0.00000000E+00 0.00000000E+00 4.99999987E-05 2.20000002E-05
 5  1-7.09100021E-03-8.70000003E-05 4.19999997E-05 4.50000007E-05 0.00000000E+00
 5  2 3.03999986E-04 3.26000008E-04-3.30000003E-05 0.00000000E+00 2.49999994E-05
 5  3-2.20000002E-05-1.99999999E-06 9.99999997E-07-0.00000000E+00 0.00000000E+00
 5  4-4.01419997E-02-9.94000002E-04-9.69999965E-05 5.80000014E-05-0.00000000E+00
 5  5 4.18999989E-04 8.70999997E-04-6.05000008E-04-0.00000000E+00-1.99999995E-05
 5  6 7.00000010E-06 1.29999999E-05-0.00000000E+00 0.00000000E+00 0.00000000E+00
 5  7-2.83579994E-02-7.09999993E-04-1.88999998E-04 8.60000000E-05 0.00000000E+00
 5  8 3.52000003E-04 2.24999996E-04-1.80999996E-04-0.00000000E+00-1.74000001E-04
 5  9 1.61999997E-04 1.20000004E-05-9.69999965E-05-0.00000000E+00 0.00000000E+00
 5 10-2.71055013E-01-6.78700022E-03-1.53999994E-04-1.20999997E-04-0.00000000E+00
 5 11 3.35199991E-03-4.83999989E-04 1.55999995E-04 0.00000000E+00 1.17000003E-04
 5 12-2.30000005E-04 1.13000002E-04-1.17000003E-04-0.00000000E+00-0.00000000E+00
 5 13-3.82741004E-01-9.47399996E-03 3.60000013E-05-6.39999998E-05-0.00000000E+00
 5 14 3.99099989E-03-1.04200002E-03 5.86999988E-04 0.00000000E+00 6.00000021E-06
 5 15-1.25000006E-04 1.19999997E-04-4.99999987E-06-0.00000000E+00 0.00000000E+00
 5 16-3.51010002E-02-6.16999983E-04 7.50000036E-05 1.44999998E-04 0.00000000E+00
 5 17-5.78999985E-04 2.70000000E-05-5.78999985E-04-0.00000000E+00-1.70000003E-05
 5 18 1.11000001E-04-9.40000027E-05 1.36000002E-04-0.00000000E+00 0.00000000E+00
 5 19 2.99528003E-01 7.49999983E-03-1.40000002E-05 1.93000000E-04 0.00000000E+00
 5 20-3.70400003E-03-3.76000011E-04 3.91000009E-04 0.00000000E+00 7.99999980E-05
 5 21 4.40000003E-05-1.23999998E-04 2.34000006E-04 0.00000000E+00 0.00000000E+00
 5 22 2.99499989E-01 7.49900006E-03 1.40000002E-05-1.93000000E-04 0.00000000E+00
 5 23-3.70400003E-03 3.77999997E-04-3.92999995E-04-0.00000000E+00 7.99999980E-05
 5 24 4.40000003E-05-1.23999998E-04 2.35000000E-04 0.00000000E+00 0.00000000E+00
 5 25-2.85390001E-02-7.14999973E-04 1.88999998E-04-8.60000000E-05-0.00000000E+00
 5 26 3.50999995E-04-2.24000003E-04 1.82999996E-04 0.00000000E+00-1.74000001E-04
 5 27 1.61999997E-04 1.20000004E-05-9.69999965E-05-0.00000000E+00 0.00000000E+00
 5 28-2.71003991E-01-6.78599998E-03 1.53999994E-04 1.21999998E-04 0.00000000E+00
 5 29 3.35199991E-03 4.80999995E-04-1.55000002E-04 0.00000000E+00 1.17000003E-04
 5 30-2.30000005E-04 1.13000002E-04-1.17000003E-04-0.00000000E+00-0.00000000E+00
 5 31-4.02810015E-02-9.97000025E-04 9.69999965E-05-5.80000014E-05-0.00000000E+00
 5 32 4.19999997E-04-8.69999989E-04 6.06000016E-04-0.00000000E+00-1.99999995E-05
 5 33 7.00000010E-06 1.29999999E-05-0.00000000E+00-0.00000000E+00-0.00000000E+00
 5 34 1.57000002E-04-3.99999990E-05 3.70000016E-05 3.70000016E-05 0.00000000E+00
 5 35-4.72000014E-04-3.42000014E-04 3.50999995E-04 0.00000000E+00 6.00000021E-06
 5 36 1.20000004E-05-1.89999992E-05-1.99999999E-06 0.00000000E+00 0.00000000E+00