!   LiF...ORMAS + PT2 test case...from Luke...created in 2012
!   unknown basis set...90 AOs
!
!     TOTAL   (MCSCF)          0TH + 1ST ORDER ENERGY  =  -106.901381307
!     TOTAL MRPT2, E(MP2) 0TH + 1ST + 2ND ORDER ENERGY =  -107.0516980661
!
!   this test takes 14 seconds on 2.66 GHz Cloverton (31 July 2012)
!
!   -----------------------------------------------------------------------
!   breakdown of the correlation energy:
!                                            V -> A    -0.011799452
!                                            V -> E    -0.032730839
!                                            A -> E    -0.019134006
!                                           VV -> AA   -0.002487023
!                                           VV -> AE   -0.000930976
!          (2 ELECTRONS ARE DIFFERENT SPIN) VA -> AE   -0.016950051
!                                           VV -> EE   -0.007198037
!                                           VA -> EE   -0.016509765
!                                           AA -> EE   -0.042032179
!                                      INTERNAL CCAS   -0.000544432
!
!   by the way, running with a CAS reference gives
!        TOTAL   (MC-SCF)         0TH + 1ST ORDER ENERGY  =  -106.902096329
!        TOTAL MRPT2, E-MP2  0TH + 1ST + 2ND ORDER ENERGY =  -107.0518596866
!
 $contrl scftyp=mcscf mplevl=2 runtyp=energy units=bohr $end
 $system mwords=1 memddi=10 parall=.t. $end
 $scf    dirscf=.t. $end
 $trans  dirtrf=.t. $end
 $mcscf  cistep=ormas fullnr=.true. soscf=.false. $end
 $det    ncore=3 nact=9 nels=6 nstate=10 $end
 $ORMAS  nspace=3 mstart(1)=4 7 10 mine(1)=2 2 2 maxe(1)=2 2 2 $end
 $guess  guess=moread norb=90 $end
 $data
lif_2-state.ormas-gen.inp...not the same basis as the CAS-MCQDPT run!
Cnv 2

Li 3.0 0 0 14.0
S   6
  1    900.4600000              0.00228704
  2    134.4330000              0.0176350
  3     30.4365000              0.0873434
  4      8.6263900              0.2809770
  5      2.4833200              0.6587410
  6      0.3031790              0.1187120
L   3
  1      4.8689000              0.0933293              0.0327661
  2      0.8569240              0.9430450              0.1597920
  3      0.2432270             -0.00279827             0.8856670
L   1
  1      0.0635070              1.0000000              1.0000000
L   1
  1      0.0243683              1.0000000              1.0000000
L   1
  1      0.0074000              1.0000000              1.0000000
D   1
  1      0.8000000              1.0000000
D   1
  1      0.2000000              1.0000000
D   1
  1      0.0500000              1.0000000
F   1
  1      0.1500000              1.0000000

F 9.0 0 0 0
S   6
  1  11427.1000000              0.00180093
  2   1722.3500000              0.0137419
  3    395.7460000              0.0681334
  4    115.1390000              0.2333250
  5     33.6026000              0.5890860
  6      4.9190100              0.2995050
L   3
  1     55.4441000              0.1145360              0.0354609
  2     12.6323000              0.9205120              0.2374510
  3      3.7175600             -0.00337804             0.8204580
L   1
  1      1.1654500              1.0000000              1.0000000
L   1
  1      0.3218920              1.0000000              1.0000000
L   1
  1      0.1076000              1.0000000              1.0000000
D   1
  1      7.0000000              1.0000000
D   1
  1      1.7500000              1.0000000
D   1
  1      0.4375000              1.0000000
F   1
  1      1.8500000              1.0000000

$END

--- OPTIMIZED MCSCF MO-S --- GENERATED AT Wed Apr 14 12:11:19 2010
E(MCSCF)=     -106.8749778312, E(NUC)=        1.9285714286
 $VEC
 1  1 2.53124822E-08-4.60398221E-07 0.00000000E+00 0.00000000E+00-3.47573392E-07
 1  2 7.37976446E-06 0.00000000E+00 0.00000000E+00 3.22232108E-06-1.01487639E-05
 1  3 0.00000000E+00 0.00000000E+00 2.75923320E-06 8.91838430E-06 0.00000000E+00
 1  4 0.00000000E+00-9.24576122E-06-3.92137183E-07-3.92134773E-07-8.65647332E-08
 1  5 0.00000000E+00 0.00000000E+00 0.00000000E+00-8.95652718E-07-8.95680173E-07
 1  6-1.89008868E-06 0.00000000E+00 0.00000000E+00 0.00000000E+00-8.46257551E-07
 1  7-8.46264037E-07 1.06034774E-06 0.00000000E+00 0.00000000E+00 0.00000000E+00
 1  8 0.00000000E+00 0.00000000E+00-1.81867065E-06 0.00000000E+00-7.95795163E-07
 1  9 0.00000000E+00-7.95810845E-07 0.00000000E+00 0.00000000E+00 0.00000000E+00
 1 10 5.47563815E-01 4.74328287E-01 0.00000000E+00 0.00000000E+00 3.25237050E-05
 1 11 2.68051346E-03 0.00000000E+00 0.00000000E+00-7.27909828E-05-4.38637767E-03
 1 12 0.00000000E+00 0.00000000E+00 9.45530103E-06-7.65358469E-05 0.00000000E+00
 1 13 0.00000000E+00-3.65675649E-06 8.30804897E-04 8.30804897E-04 9.14323813E-04
 1 14 0.00000000E+00 0.00000000E+00 0.00000000E+00 1.82628734E-03 1.82628734E-03
 1 15 1.56977166E-03 0.00000000E+00 0.00000000E+00 0.00000000E+00 1.33952987E-03
 1 16 1.33952987E-03 1.32890497E-03 0.00000000E+00 0.00000000E+00 0.00000000E+00
 1 17 0.00000000E+00 0.00000000E+00 3.56725897E-05 0.00000000E+00 1.59256554E-05
 1 18 0.00000000E+00 1.59256604E-05 0.00000000E+00 0.00000000E+00 0.00000000E+00
 2  1 6.17556809E-01 4.29652219E-01 0.00000000E+00 0.00000000E+00 3.47729561E-04
 2  2 2.26180361E-03 0.00000000E+00 0.00000000E+00 1.63386201E-04 4.04388508E-03
 2  3 0.00000000E+00 0.00000000E+00-2.51234482E-05-4.20935254E-04 0.00000000E+00
 2  4 0.00000000E+00 1.35236620E-06-8.20021043E-04-8.20021043E-04-8.37381637E-04
 2  5 0.00000000E+00 0.00000000E+00 0.00000000E+00-1.83611570E-03-1.83611570E-03
 2  6-1.84755710E-03 0.00000000E+00 0.00000000E+00 0.00000000E+00-1.64429251E-03
 2  7-1.64429251E-03-1.64109251E-03 0.00000000E+00 0.00000000E+00 0.00000000E+00
 2  8 0.00000000E+00 0.00000000E+00-1.60970072E-04 0.00000000E+00-7.29309827E-05
 2  9 0.00000000E+00-7.29310981E-05 0.00000000E+00 0.00000000E+00 0.00000000E+00
 2 10-5.71161464E-08 4.86021371E-07 0.00000000E+00 0.00000000E+00 1.48249098E-06
 2 11 1.47578890E-06 0.00000000E+00 0.00000000E+00-6.07563836E-06-7.74503414E-06
 2 12 0.00000000E+00 0.00000000E+00 1.78086265E-05-3.46279908E-06 0.00000000E+00
 2 13 0.00000000E+00-3.28909444E-05 3.92415900E-07 3.92399430E-07 2.48190597E-07
 2 14 0.00000000E+00 0.00000000E+00 0.00000000E+00 9.98436454E-07 9.98438200E-07
 2 15 1.93379281E-06 0.00000000E+00 0.00000000E+00 0.00000000E+00 5.67828050E-06
 2 16 5.67827676E-06 1.99571862E-06 0.00000000E+00 0.00000000E+00 0.00000000E+00
 2 17 0.00000000E+00 0.00000000E+00 8.94929765E-07 0.00000000E+00 4.09344809E-07
 2 18 0.00000000E+00 4.09361534E-07 0.00000000E+00 0.00000000E+00 0.00000000E+00
 3  1-5.57817650E-07 1.95226485E-05 0.00000000E+00 0.00000000E+00 2.84730624E-05
 3  2 7.19288619E-05 0.00000000E+00 0.00000000E+00-2.37120029E-04-5.36095249E-04
 3  3 0.00000000E+00 0.00000000E+00 1.62281766E-04 9.56680476E-05 0.00000000E+00
 3  4 0.00000000E+00-6.79499299E-05 1.22868594E-05 1.22868678E-05 1.02702469E-05
 3  5 0.00000000E+00 0.00000000E+00 0.00000000E+00 4.13696382E-05 4.13696786E-05
 3  6 5.12055988E-05 0.00000000E+00 0.00000000E+00 0.00000000E+00 1.61322304E-04
 3  7 1.61322586E-04 1.38910473E-04 0.00000000E+00 0.00000000E+00 0.00000000E+00
 3  8 0.00000000E+00 0.00000000E+00 8.19876524E-05 0.00000000E+00 3.73004505E-05
 3  9 0.00000000E+00 3.73005551E-05 0.00000000E+00 0.00000000E+00 0.00000000E+00
 3 10-1.24329993E-01-2.32472268E-01 0.00000000E+00 0.00000000E+00-3.47400274E-04
 3 11 6.55889459E-01 0.00000000E+00 0.00000000E+00-4.63000414E-04 6.98510484E-01
 3 12 0.00000000E+00 0.00000000E+00-7.32997089E-05 2.61598094E-02 0.00000000E+00
 3 13 0.00000000E+00 7.01979506E-05-1.40602653E-02-1.40602653E-02-1.45127251E-02
 3 14 0.00000000E+00 0.00000000E+00 0.00000000E+00-4.74339190E-02-4.74339190E-02
 3 15-4.75396662E-02 0.00000000E+00 0.00000000E+00 0.00000000E+00-7.34051179E-02
 3 16-7.34051179E-02-7.57755527E-02 0.00000000E+00 0.00000000E+00 0.00000000E+00
 3 17 0.00000000E+00 0.00000000E+00-1.45728439E-05 0.00000000E+00-5.97663117E-06
 3 18 0.00000000E+00-5.97657911E-06 0.00000000E+00 0.00000000E+00 0.00000000E+00
 4  1 1.84654555E-05-1.41430884E-03 0.00000000E+00 0.00000000E+00-2.16965700E-03
 4  2-6.36869612E-03 0.00000000E+00 0.00000000E+00 1.77877642E-02 3.78001123E-02
 4  3 0.00000000E+00 0.00000000E+00-1.38923141E-02-1.96290085E-03 0.00000000E+00
 4  4 0.00000000E+00 1.03813933E-03-7.86323071E-04-7.86323073E-04-6.45912221E-04
 4  5 0.00000000E+00 0.00000000E+00 0.00000000E+00-2.69140716E-03-2.69140716E-03
 4  6-3.61123352E-03 0.00000000E+00 0.00000000E+00 0.00000000E+00-1.24523404E-02
 4  7-1.24523404E-02-8.65540500E-03 0.00000000E+00 0.00000000E+00 0.00000000E+00
 4  8 0.00000000E+00 0.00000000E+00-5.71470705E-03 0.00000000E+00-2.48080547E-03
 4  9 0.00000000E+00-2.48080548E-03 0.00000000E+00 0.00000000E+00 0.00000000E+00
 4 10 1.39293901E-04 2.01941225E-04 0.00000000E+00 0.00000000E+00 2.96868353E-01
 4 11-1.32847521E-03 0.00000000E+00 0.00000000E+00 4.49399469E-01-1.85509308E-03
 4 12 0.00000000E+00 0.00000000E+00 4.01490318E-01 7.28528741E-03 0.00000000E+00
 4 13 0.00000000E+00 1.28874223E-01-4.78137889E-05-4.78137387E-05 9.32233424E-06
 4 14 0.00000000E+00 0.00000000E+00 0.00000000E+00-1.26340621E-04-1.26340434E-04
 4 15-1.13390925E-04 0.00000000E+00 0.00000000E+00 0.00000000E+00-1.39546133E-03
 4 16-1.39546134E-03 8.39175029E-04 0.00000000E+00 0.00000000E+00 0.00000000E+00
 4 17 0.00000000E+00 0.00000000E+00 1.47908682E-03 0.00000000E+00-1.62190877E-03
 4 18 0.00000000E+00-1.62190877E-03 0.00000000E+00 0.00000000E+00 0.00000000E+00
 5  1-9.68741687E-02-1.48240403E-01 0.00000000E+00 0.00000000E+00-2.96938133E-04
 5  2 6.22500823E-01 0.00000000E+00 0.00000000E+00-1.22656259E-03 2.84277752E-01
 5  3 0.00000000E+00 0.00000000E+00-5.99268773E-04 1.19283891E-02 0.00000000E+00
 5  4 0.00000000E+00 1.32421889E-04 1.69653667E-03 1.69653667E-03 1.69968264E-03
 5  5 0.00000000E+00 0.00000000E+00 0.00000000E+00 3.57686054E-02 3.57686054E-02
 5  6 3.57723641E-02 0.00000000E+00 0.00000000E+00 0.00000000E+00 4.28569836E-02
 5  7 4.28569836E-02 4.33467192E-02 0.00000000E+00 0.00000000E+00 0.00000000E+00
 5  8 0.00000000E+00 0.00000000E+00 9.04486868E-06 0.00000000E+00 4.05907315E-05
 5  9 0.00000000E+00 4.05901372E-05 0.00000000E+00 0.00000000E+00 0.00000000E+00
 5 10 8.92953923E-05 1.70526676E-04 0.00000000E+00 0.00000000E+00-7.98993578E-04
 5 11-4.96486392E-04 0.00000000E+00 0.00000000E+00-1.16490013E-03-7.76095250E-04
 5 12 0.00000000E+00 0.00000000E+00-1.20201935E-03-5.86962160E-04 0.00000000E+00
 5 13 0.00000000E+00-8.15148220E-04 8.92818541E-06 8.92817650E-06 1.44168887E-05
 5 14 0.00000000E+00 0.00000000E+00 0.00000000E+00 2.79790807E-05 2.79791095E-05
 5 15 5.47051624E-05 0.00000000E+00 0.00000000E+00 0.00000000E+00 7.39148320E-05
 5 16 7.39138017E-05 7.81476048E-05 0.00000000E+00 0.00000000E+00 0.00000000E+00
 5 17 0.00000000E+00 0.00000000E+00 4.86430760E-06 0.00000000E+00-3.72902804E-06
 5 18 0.00000000E+00-3.72904405E-06 0.00000000E+00 0.00000000E+00 0.00000000E+00
 6  1-7.55283675E-04 1.32483045E-03 0.00000000E+00 0.00000000E+00 4.67775230E-03
 6  2 2.44456893E-02 0.00000000E+00 0.00000000E+00-3.75427963E-02-7.99135477E-02
 6  3 0.00000000E+00 0.00000000E+00 3.25848323E-02 3.33087533E-03 0.00000000E+00
 6  4 0.00000000E+00-1.65602776E-03 1.30129337E-03 1.30128380E-03 1.05020496E-03
 6  5 0.00000000E+00 0.00000000E+00 0.00000000E+00 4.51197463E-03 4.51197463E-03
 6  6 6.51452608E-03 0.00000000E+00 0.00000000E+00 0.00000000E+00 2.65308592E-02
 6  7 2.65308592E-02 1.65715899E-02 0.00000000E+00 0.00000000E+00 0.00000000E+00
 6  8 0.00000000E+00 0.00000000E+00 1.13565982E-02 0.00000000E+00 4.86597025E-03
 6  9 0.00000000E+00 4.86597025E-03 0.00000000E+00 0.00000000E+00 0.00000000E+00
 6 10-7.35897867E-04-1.11177316E-03 0.00000000E+00 0.00000000E+00 4.37854857E-01
 6 11 5.55168957E-03 0.00000000E+00 0.00000000E+00 5.93021632E-01 7.18091273E-03
 6 12 0.00000000E+00 0.00000000E+00-5.89876227E-01-2.39971220E-02 0.00000000E+00
 6 13 0.00000000E+00-4.16159917E-01 1.21751852E-04 1.21751851E-04 2.63232513E-05
 6 14 0.00000000E+00 0.00000000E+00 0.00000000E+00 3.39201179E-04 3.39202653E-04
 6 15 9.06324235E-04 0.00000000E+00 0.00000000E+00 0.00000000E+00 5.19510005E-03
 6 16 5.19510667E-03-3.38316161E-03 0.00000000E+00 0.00000000E+00 0.00000000E+00
 6 17 0.00000000E+00 0.00000000E+00-7.71095910E-02 0.00000000E+00-4.88610257E-02
 6 18 0.00000000E+00-4.88610257E-02 0.00000000E+00 0.00000000E+00 0.00000000E+00
 7  1 0.00000000E+00 0.00000000E+00 0.00000000E+00-8.16030151E-06 0.00000000E+00
 7  2 0.00000000E+00 0.00000000E+00 3.15649225E-04 0.00000000E+00 0.00000000E+00
 7  3 0.00000000E+00-1.20400285E-03 0.00000000E+00 0.00000000E+00 0.00000000E+00
 7  4 3.17945791E-03 0.00000000E+00 0.00000000E+00 0.00000000E+00 0.00000000E+00
 7  5 0.00000000E+00 0.00000000E+00-1.55973077E-05 0.00000000E+00 0.00000000E+00
 7  6 0.00000000E+00 0.00000000E+00 0.00000000E+00 9.96367194E-05 0.00000000E+00
 7  7 0.00000000E+00 0.00000000E+00 0.00000000E+00 0.00000000E+00-4.65564637E-04
 7  8 0.00000000E+00-1.73336151E-05 0.00000000E+00-7.75094148E-06 0.00000000E+00
 7  9 0.00000000E+00 0.00000000E+00 0.00000000E+00 3.21665063E-06 0.00000000E+00
 7 10 0.00000000E+00 0.00000000E+00 0.00000000E+00 3.06735377E-01 0.00000000E+00
 7 11 0.00000000E+00 0.00000000E+00 4.65952932E-01 0.00000000E+00 0.00000000E+00
 7 12 0.00000000E+00 3.95154916E-01 0.00000000E+00 0.00000000E+00 0.00000000E+00
 7 13 9.44929299E-02 0.00000000E+00 0.00000000E+00 0.00000000E+00 0.00000000E+00
 7 14 0.00000000E+00 0.00000000E+00 1.30458503E-05 0.00000000E+00 0.00000000E+00
 7 15 0.00000000E+00 0.00000000E+00 0.00000000E+00-6.98662427E-05 0.00000000E+00
 7 16 0.00000000E+00 0.00000000E+00 0.00000000E+00 0.00000000E+00 4.52108985E-04
 7 17 0.00000000E+00-5.58203624E-04 0.00000000E+00-2.91308317E-04 0.00000000E+00
 7 18 0.00000000E+00 0.00000000E+00 0.00000000E+00 2.43604589E-03 0.00000000E+00
 8  1 0.00000000E+00 0.00000000E+00 0.00000000E+00 4.44182664E-04 0.00000000E+00
 8  2 0.00000000E+00 0.00000000E+00-3.09720186E-04 0.00000000E+00 0.00000000E+00
 8  3 0.00000000E+00-8.65538605E-03 0.00000000E+00 0.00000000E+00 0.00000000E+00
 8  4 3.27668498E-02 0.00000000E+00 0.00000000E+00 0.00000000E+00 0.00000000E+00
 8  5 0.00000000E+00 0.00000000E+00-1.54523755E-04 0.00000000E+00 0.00000000E+00
 8  6 0.00000000E+00 0.00000000E+00 0.00000000E+00 1.06347019E-03 0.00000000E+00
 8  7 0.00000000E+00 0.00000000E+00 0.00000000E+00 0.00000000E+00-5.76740730E-03
 8  8 0.00000000E+00 8.38999669E-04 0.00000000E+00 3.75086707E-04 0.00000000E+00
 8  9 0.00000000E+00 0.00000000E+00 0.00000000E+00 4.99215372E-04 0.00000000E+00
 8 10 0.00000000E+00 0.00000000E+00 0.00000000E+00-8.62620637E-02 0.00000000E+00
 8 11 0.00000000E+00 0.00000000E+00-3.83817101E-01 0.00000000E+00 0.00000000E+00
 8 12 0.00000000E+00-7.31025909E-02 0.00000000E+00 0.00000000E+00 0.00000000E+00
 8 13 1.01588586E+00 0.00000000E+00 0.00000000E+00 0.00000000E+00 0.00000000E+00
 8 14 0.00000000E+00 0.00000000E+00 5.19510333E-04 0.00000000E+00 0.00000000E+00
 8 15 0.00000000E+00 0.00000000E+00 0.00000000E+00 2.25468196E-03 0.00000000E+00
 8 16 0.00000000E+00 0.00000000E+00 0.00000000E+00 0.00000000E+00 1.52716085E-02
 8 17 0.00000000E+00-1.55273414E-02 0.00000000E+00-5.68329573E-03 0.00000000E+00
 8 18 0.00000000E+00 0.00000000E+00 0.00000000E+00-3.34780805E-02 0.00000000E+00
 9  1 0.00000000E+00 0.00000000E+00 0.00000000E+00-4.78371265E-04 0.00000000E+00
 9  2 0.00000000E+00 0.00000000E+00 1.45086267E-03 0.00000000E+00 0.00000000E+00
 9  3 0.00000000E+00 4.41207613E-03 0.00000000E+00 0.00000000E+00 0.00000000E+00
 9  4-2.16372764E-02 0.00000000E+00 0.00000000E+00 0.00000000E+00 0.00000000E+00
 9  5 0.00000000E+00 0.00000000E+00 9.54216542E-05 0.00000000E+00 0.00000000E+00
 9  6 0.00000000E+00 0.00000000E+00 0.00000000E+00-7.02141978E-04 0.00000000E+00
 9  7 0.00000000E+00 0.00000000E+00 0.00000000E+00 0.00000000E+00 4.12658915E-03
 9  8 0.00000000E+00-9.10315003E-04 0.00000000E+00-4.06937733E-04 0.00000000E+00
 9  9 0.00000000E+00 0.00000000E+00 0.00000000E+00-4.92862653E-04 0.00000000E+00
 9 10 0.00000000E+00 0.00000000E+00 0.00000000E+00-7.26396393E-01 0.00000000E+00
 9 11 0.00000000E+00 0.00000000E+00-3.59896336E-01 0.00000000E+00 0.00000000E+00
 9 12 0.00000000E+00 1.09394528E+00 0.00000000E+00 0.00000000E+00 0.00000000E+00
 9 13-7.14435735E-01 0.00000000E+00 0.00000000E+00 0.00000000E+00 0.00000000E+00
 9 14 0.00000000E+00 0.00000000E+00-8.16161742E-04 0.00000000E+00 0.00000000E+00
 9 15 0.00000000E+00 0.00000000E+00 0.00000000E+00-4.70771715E-03 0.00000000E+00
 9 16 0.00000000E+00 0.00000000E+00 0.00000000E+00 0.00000000E+00-1.50800985E-02
 9 17 0.00000000E+00 2.10792198E-01 0.00000000E+00 9.43229188E-02 0.00000000E+00
 9 18 0.00000000E+00 0.00000000E+00 0.00000000E+00 1.23637280E-01 0.00000000E+00
10  1 0.00000000E+00 0.00000000E+00-8.15832880E-06 0.00000000E+00 0.00000000E+00
10  2 0.00000000E+00 3.15641921E-04 0.00000000E+00 0.00000000E+00 0.00000000E+00
10  3-1.20398572E-03 0.00000000E+00 0.00000000E+00 0.00000000E+00 3.17943743E-03
10  4 0.00000000E+00 0.00000000E+00 0.00000000E+00 0.00000000E+00 0.00000000E+00
10  5 0.00000000E+00-1.55975074E-05 0.00000000E+00 0.00000000E+00 0.00000000E+00
10  6 0.00000000E+00 0.00000000E+00 9.96383534E-05 0.00000000E+00 0.00000000E+00
10  7 0.00000000E+00 0.00000000E+00 0.00000000E+00-4.65563938E-04 0.00000000E+00
10  8-1.73317223E-05 0.00000000E+00 0.00000000E+00 0.00000000E+00 0.00000000E+00
10  9-7.74973597E-06 0.00000000E+00 3.21597402E-06 0.00000000E+00 0.00000000E+00
10 10 0.00000000E+00 0.00000000E+00 3.06735376E-01 0.00000000E+00 0.00000000E+00
10 11 0.00000000E+00 4.65952937E-01 0.00000000E+00 0.00000000E+00 0.00000000E+00
10 12 3.95154906E-01 0.00000000E+00 0.00000000E+00 0.00000000E+00 9.44929377E-02
10 13 0.00000000E+00 0.00000000E+00 0.00000000E+00 0.00000000E+00 0.00000000E+00
10 14 0.00000000E+00 1.30458413E-05 0.00000000E+00 0.00000000E+00 0.00000000E+00
10 15 0.00000000E+00 0.00000000E+00-6.98665152E-05 0.00000000E+00 0.00000000E+00
10 16 0.00000000E+00 0.00000000E+00 0.00000000E+00 4.52109398E-04 0.00000000E+00
10 17-5.58203451E-04 0.00000000E+00 0.00000000E+00 0.00000000E+00 0.00000000E+00
10 18-2.91308316E-04 0.00000000E+00 2.43604592E-03 0.00000000E+00 0.00000000E+00
11  1 0.00000000E+00 0.00000000E+00 4.44187786E-04 0.00000000E+00 0.00000000E+00
11  2 0.00000000E+00-3.09625619E-04 0.00000000E+00 0.00000000E+00 0.00000000E+00
11  3-8.65537889E-03 0.00000000E+00 0.00000000E+00 0.00000000E+00 3.27667524E-02
11  4 0.00000000E+00 0.00000000E+00 0.00000000E+00 0.00000000E+00 0.00000000E+00
11  5 0.00000000E+00-1.54523741E-04 0.00000000E+00 0.00000000E+00 0.00000000E+00
11  6 0.00000000E+00 0.00000000E+00 1.06347920E-03 0.00000000E+00 0.00000000E+00
11  7 0.00000000E+00 0.00000000E+00 0.00000000E+00-5.76733560E-03 0.00000000E+00
11  8 8.38976133E-04 0.00000000E+00 0.00000000E+00 0.00000000E+00 0.00000000E+00
11  9 3.75089040E-04 0.00000000E+00 4.99197951E-04 0.00000000E+00 0.00000000E+00
11 10 0.00000000E+00 0.00000000E+00-8.62621021E-02 0.00000000E+00 0.00000000E+00
11 11 0.00000000E+00-3.83817451E-01 0.00000000E+00 0.00000000E+00 0.00000000E+00
11 12-7.31018916E-02 0.00000000E+00 0.00000000E+00 0.00000000E+00 1.01588545E+00
11 13 0.00000000E+00 0.00000000E+00 0.00000000E+00 0.00000000E+00 0.00000000E+00
11 14 0.00000000E+00 5.19509921E-04 0.00000000E+00 0.00000000E+00 0.00000000E+00
11 15 0.00000000E+00 0.00000000E+00 2.25468523E-03 0.00000000E+00 0.00000000E+00
11 16 0.00000000E+00 0.00000000E+00 0.00000000E+00 1.52716025E-02 0.00000000E+00
11 17-1.55273335E-02 0.00000000E+00 0.00000000E+00 0.00000000E+00 0.00000000E+00
11 18-5.68331471E-03 0.00000000E+00-3.34780901E-02 0.00000000E+00 0.00000000E+00
12  1 0.00000000E+00 0.00000000E+00-4.78369124E-04 0.00000000E+00 0.00000000E+00
12  2 0.00000000E+00 1.45081013E-03 0.00000000E+00 0.00000000E+00 0.00000000E+00
12  3 4.41206591E-03 0.00000000E+00 0.00000000E+00 0.00000000E+00-2.16372344E-02
12  4 0.00000000E+00 0.00000000E+00 0.00000000E+00 0.00000000E+00 0.00000000E+00
12  5 0.00000000E+00 9.54208648E-05 0.00000000E+00 0.00000000E+00 0.00000000E+00
12  6 0.00000000E+00 0.00000000E+00-7.02116149E-04 0.00000000E+00 0.00000000E+00
12  7 0.00000000E+00 0.00000000E+00 0.00000000E+00 4.12654952E-03 0.00000000E+00
12  8-9.10292621E-04 0.00000000E+00 0.00000000E+00 0.00000000E+00 0.00000000E+00
12  9-4.06933274E-04 0.00000000E+00-4.92877917E-04 0.00000000E+00 0.00000000E+00
12 10 0.00000000E+00 0.00000000E+00-7.26396680E-01 0.00000000E+00 0.00000000E+00
12 11 0.00000000E+00-3.59895826E-01 0.00000000E+00 0.00000000E+00 0.00000000E+00
12 12 1.09394473E+00 0.00000000E+00 0.00000000E+00 0.00000000E+00-7.14435747E-01
12 13 0.00000000E+00 0.00000000E+00 0.00000000E+00 0.00000000E+00 0.00000000E+00
12 14 0.00000000E+00-8.16161952E-04 0.00000000E+00 0.00000000E+00 0.00000000E+00
12 15 0.00000000E+00 0.00000000E+00-4.70772426E-03 0.00000000E+00 0.00000000E+00
12 16 0.00000000E+00 0.00000000E+00 0.00000000E+00-1.50801009E-02 0.00000000E+00
12 17 2.10792330E-01 0.00000000E+00 0.00000000E+00 0.00000000E+00 0.00000000E+00
12 18 9.43229531E-02 0.00000000E+00 1.23637370E-01 0.00000000E+00 0.00000000E+00
13  1 0.00000000E+00 0.00000000E+00 0.00000000E+00 1.10500743E-01 0.00000000E+00
13  2 0.00000000E+00 0.00000000E+00 1.78672422E-01 0.00000000E+00 0.00000000E+00
13  3 0.00000000E+00 5.08805116E-01 0.00000000E+00 0.00000000E+00 0.00000000E+00
13  4 3.75905302E-01 0.00000000E+00 0.00000000E+00 0.00000000E+00 0.00000000E+00
13  5 0.00000000E+00 0.00000000E+00 6.98123423E-04 0.00000000E+00 0.00000000E+00
13  6 0.00000000E+00 0.00000000E+00 0.00000000E+00-2.93707648E-03 0.00000000E+00
13  7 0.00000000E+00 0.00000000E+00 0.00000000E+00 0.00000000E+00 5.04863437E-02
13  8 0.00000000E+00 3.80599175E-02 0.00000000E+00 1.70209248E-02 0.00000000E+00
13  9 0.00000000E+00 0.00000000E+00 0.00000000E+00 1.58968134E-02 0.00000000E+00
13 10 0.00000000E+00 0.00000000E+00 0.00000000E+00-2.90424706E-03 0.00000000E+00
13 11 0.00000000E+00 0.00000000E+00-1.07257395E-02 0.00000000E+00 0.00000000E+00
13 12 0.00000000E+00 4.61957919E-02 0.00000000E+00 0.00000000E+00 0.00000000E+00
13 13-6.82532039E-02 0.00000000E+00 0.00000000E+00 0.00000000E+00 0.00000000E+00
13 14 0.00000000E+00 0.00000000E+00-1.19282379E-05 0.00000000E+00 0.00000000E+00
13 15 0.00000000E+00 0.00000000E+00 0.00000000E+00 1.75503645E-05 0.00000000E+00
13 16 0.00000000E+00 0.00000000E+00 0.00000000E+00 0.00000000E+00-5.68110996E-04
13 17 0.00000000E+00 1.47509360E-03 0.00000000E+00 6.58191218E-04 0.00000000E+00
13 18 0.00000000E+00 0.00000000E+00 0.00000000E+00 8.42981125E-04 0.00000000E+00
14  1 0.00000000E+00 0.00000000E+00 1.10500734E-01 0.00000000E+00 0.00000000E+00
14  2 0.00000000E+00 1.78672416E-01 0.00000000E+00 0.00000000E+00 0.00000000E+00
14  3 5.08805051E-01 0.00000000E+00 0.00000000E+00 0.00000000E+00 3.75905400E-01
14  4 0.00000000E+00 0.00000000E+00 0.00000000E+00 0.00000000E+00 0.00000000E+00
14  5 0.00000000E+00 6.98123231E-04 0.00000000E+00 0.00000000E+00 0.00000000E+00
14  6 0.00000000E+00 0.00000000E+00-2.93707487E-03 0.00000000E+00 0.00000000E+00
14  7 0.00000000E+00 0.00000000E+00 0.00000000E+00 5.04863276E-02 0.00000000E+00
14  8 3.80599132E-02 0.00000000E+00 0.00000000E+00 0.00000000E+00 0.00000000E+00
14  9 1.70209223E-02 0.00000000E+00 1.58968100E-02 0.00000000E+00 0.00000000E+00
14 10 0.00000000E+00 0.00000000E+00-2.90425123E-03 0.00000000E+00 0.00000000E+00
14 11 0.00000000E+00-1.07257441E-02 0.00000000E+00 0.00000000E+00 0.00000000E+00
14 12 4.61958036E-02 0.00000000E+00 0.00000000E+00 0.00000000E+00-6.82532109E-02
14 13 0.00000000E+00 0.00000000E+00 0.00000000E+00 0.00000000E+00 0.00000000E+00
14 14 0.00000000E+00-1.19282437E-05 0.00000000E+00 0.00000000E+00 0.00000000E+00
14 15 0.00000000E+00 0.00000000E+00 1.75503004E-05 0.00000000E+00 0.00000000E+00
14 16 0.00000000E+00 0.00000000E+00 0.00000000E+00-5.68111250E-04 0.00000000E+00
14 17 1.47509613E-03 0.00000000E+00 0.00000000E+00 0.00000000E+00 0.00000000E+00
14 18 6.58192274E-04 0.00000000E+00 8.42982484E-04 0.00000000E+00 0.00000000E+00
15  1 1.41538849E-02 3.11291450E-02 0.00000000E+00 0.00000000E+00 8.24660122E-02
15  2 1.08902919E-02 0.00000000E+00 0.00000000E+00 1.90000869E-01-7.30415598E-01
15  3 0.00000000E+00 0.00000000E+00 3.19842860E-01 7.83046534E-01 0.00000000E+00
15  4 0.00000000E+00 4.64676765E-01 3.75052471E-03 3.75052475E-03 4.91901716E-03
15  5 0.00000000E+00 0.00000000E+00 0.00000000E+00 1.35234322E-02 1.35234323E-02
15  6 8.29247740E-03 0.00000000E+00 0.00000000E+00 0.00000000E+00 6.05036819E-02
15  7 6.05036819E-02 1.42178604E-01 0.00000000E+00 0.00000000E+00 0.00000000E+00
15  8 0.00000000E+00 0.00000000E+00 1.58162540E-02 0.00000000E+00 8.13138395E-03
15  9 0.00000000E+00 8.13138397E-03 0.00000000E+00 0.00000000E+00 0.00000000E+00
15 10-3.26310246E-04-1.56019057E-03 0.00000000E+00 0.00000000E+00-2.43060446E-03
15 11-1.09660574E-03 0.00000000E+00 0.00000000E+00-3.02130333E-03 1.24613180E-02
15 12 0.00000000E+00 0.00000000E+00-4.36813643E-03 3.77707000E-02 0.00000000E+00
15 13 0.00000000E+00 3.42389786E-02-5.81452498E-04-5.81452495E-04-5.77883679E-04
15 14 0.00000000E+00 0.00000000E+00 0.00000000E+00-2.25963702E-03-2.25963703E-03
15 15-2.34037778E-03 0.00000000E+00 0.00000000E+00 0.00000000E+00-9.56243070E-03
15 16-9.56243077E-03-9.34910589E-03 0.00000000E+00 0.00000000E+00 0.00000000E+00
15 17 0.00000000E+00 0.00000000E+00 1.40359635E-04 0.00000000E+00 9.45951970E-05
15 18 0.00000000E+00 9.45951980E-05 0.00000000E+00 0.00000000E+00 0.00000000E+00
16  1-1.56616797E-02-5.31450586E-02 0.00000000E+00 0.00000000E+00 1.06134039E-01
16  2-4.17852750E-01 0.00000000E+00 0.00000000E+00 1.18572945E-01 2.18238662E+00
16  3 0.00000000E+00 0.00000000E+00 6.09046171E-01-1.42373641E+00 0.00000000E+00
16  4 0.00000000E+00-3.65069194E-01-1.47767783E-02-1.47767782E-02-1.34659955E-02
16  5 0.00000000E+00 0.00000000E+00 0.00000000E+00-5.01455400E-02-5.01455399E-02
16  6-5.58794412E-02 0.00000000E+00 0.00000000E+00 0.00000000E+00-3.82814471E-01
16  7-3.82814471E-01-2.89110032E-01 0.00000000E+00 0.00000000E+00 0.00000000E+00
16  8 0.00000000E+00 0.00000000E+00 4.70431056E-02 0.00000000E+00 2.20262858E-02
16  9 0.00000000E+00 2.20262858E-02 0.00000000E+00 0.00000000E+00 0.00000000E+00
16 10-5.11010612E-04-1.81010705E-03 0.00000000E+00 0.00000000E+00-3.65534192E-03
16 11 3.09298065E-04 0.00000000E+00 0.00000000E+00-4.37623989E-03 1.25247825E-02
16 12 0.00000000E+00 0.00000000E+00-7.44434642E-03 3.69923617E-02 0.00000000E+00
16 13 0.00000000E+00 5.53514193E-02-5.42405838E-04-5.42405845E-04-5.38475032E-04
16 14 0.00000000E+00 0.00000000E+00 0.00000000E+00-2.09316203E-03-2.09316204E-03
16 15-2.17646948E-03 0.00000000E+00 0.00000000E+00 0.00000000E+00-8.75766948E-03
16 16-8.75766960E-03-8.49564951E-03 0.00000000E+00 0.00000000E+00 0.00000000E+00
16 17 0.00000000E+00 0.00000000E+00 2.14806033E-04 0.00000000E+00 1.41638779E-04
16 18 0.00000000E+00 1.41638782E-04 0.00000000E+00 0.00000000E+00 0.00000000E+00
17  1 0.00000000E+00 0.00000000E+00-1.28574644E-01 0.00000000E+00 0.00000000E+00
17  2 0.00000000E+00 1.59863226E-01 0.00000000E+00 0.00000000E+00 0.00000000E+00
17  3-9.95368628E-01 0.00000000E+00 0.00000000E+00 0.00000000E+00 1.26756106E+00
17  4 0.00000000E+00 0.00000000E+00 0.00000000E+00 0.00000000E+00 0.00000000E+00
17  5 0.00000000E+00-1.48964681E-05 0.00000000E+00 0.00000000E+00 0.00000000E+00
17  6 0.00000000E+00 0.00000000E+00-1.20092746E-03 0.00000000E+00 0.00000000E+00
17  7 0.00000000E+00 0.00000000E+00 0.00000000E+00-1.44952510E-02 0.00000000E+00
17  8-1.18711461E-01 0.00000000E+00 0.00000000E+00 0.00000000E+00 0.00000000E+00
17  9-5.30893619E-02 0.00000000E+00-5.22609014E-02 0.00000000E+00 0.00000000E+00
17 10 0.00000000E+00 0.00000000E+00-3.85746206E-03 0.00000000E+00 0.00000000E+00
17 11 0.00000000E+00-1.56351429E-02 0.00000000E+00 0.00000000E+00 0.00000000E+00
17 12 6.87139484E-02 0.00000000E+00 0.00000000E+00 0.00000000E+00-1.08628440E-01
17 13 0.00000000E+00 0.00000000E+00 0.00000000E+00 0.00000000E+00 0.00000000E+00
17 14 0.00000000E+00-1.86179304E-05 0.00000000E+00 0.00000000E+00 0.00000000E+00
17 15 0.00000000E+00 0.00000000E+00 2.33552982E-05 0.00000000E+00 0.00000000E+00
17 16 0.00000000E+00 0.00000000E+00 0.00000000E+00-8.73114414E-04 0.00000000E+00
17 17 2.02592424E-03 0.00000000E+00 0.00000000E+00 0.00000000E+00 0.00000000E+00
17 18 9.03903261E-04 0.00000000E+00 1.15664556E-03 0.00000000E+00 0.00000000E+00
18  1 0.00000000E+00 0.00000000E+00 0.00000000E+00-1.28574638E-01 0.00000000E+00
18  2 0.00000000E+00 0.00000000E+00 1.59863275E-01 0.00000000E+00 0.00000000E+00
18  3 0.00000000E+00-9.95368613E-01 0.00000000E+00 0.00000000E+00 0.00000000E+00
18  4 1.26756109E+00 0.00000000E+00 0.00000000E+00 0.00000000E+00 0.00000000E+00
18  5 0.00000000E+00 0.00000000E+00-1.48958839E-05 0.00000000E+00 0.00000000E+00
18  6 0.00000000E+00 0.00000000E+00 0.00000000E+00-1.20093140E-03 0.00000000E+00
18  7 0.00000000E+00 0.00000000E+00 0.00000000E+00 0.00000000E+00-1.44952065E-02
18  8 0.00000000E+00-1.18711467E-01 0.00000000E+00-5.30893641E-02 0.00000000E+00
18  9 0.00000000E+00 0.00000000E+00 0.00000000E+00-5.22609023E-02 0.00000000E+00
18 10 0.00000000E+00 0.00000000E+00 0.00000000E+00-3.85746707E-03 0.00000000E+00
18 11 0.00000000E+00 0.00000000E+00-1.56351708E-02 0.00000000E+00 0.00000000E+00
18 12 0.00000000E+00 6.87140671E-02 0.00000000E+00 0.00000000E+00 0.00000000E+00
18 13-1.08628606E-01 0.00000000E+00 0.00000000E+00 0.00000000E+00 0.00000000E+00
18 14 0.00000000E+00 0.00000000E+00-1.86179551E-05 0.00000000E+00 0.00000000E+00
18 15 0.00000000E+00 0.00000000E+00 0.00000000E+00 2.33553159E-05 0.00000000E+00
18 16 0.00000000E+00 0.00000000E+00 0.00000000E+00 0.00000000E+00-8.73115614E-04
18 17 0.00000000E+00 2.02592526E-03 0.00000000E+00 9.03903817E-04 0.00000000E+00
18 18 0.00000000E+00 0.00000000E+00 0.00000000E+00 1.15664623E-03 0.00000000E+00
19  1-1.81464926E-02-2.93271338E-02 0.00000000E+00 0.00000000E+00-1.03081593E-01