! bolt, with GPU
!
!RESULTS OF MOLLER-PLESSET 2ND ORDER CORRECTION ARE
!              E(0)=     -1090.4323334620
!              E(1)=         0.0
!              E(2)=        -2.2661588405
!            E(MP2)=     -1092.6984923024

 $contrl icut=11 scftyp=rhf mult=1 icharg=0 mplevl=2 ispher=1 $end

 $basis gbasis=ccd $end
 $scf conv=1e-7 shift=.t. diis=.t.  dirscf=.true. $end

 $cchemri iauxbf=1 $end
 $mp2    code=ricchem $end
 $auxbas cabnam=CCt $end

 $system mwords=100 memddi=2000 $end
 $guess guess=moread norb=313 $end

 $data
rimp2-ketamine.neutral.ccd_cct.inp
C1
C    6.0  -3.9118886915   0.9281432841  -0.1614390386
C    6.0  -3.7410183670  -0.5409975867  -0.4855769802
C    6.0  -2.9144539729   1.7772788234  -0.9174968541
C    6.0  -1.4378801684   1.4260868859  -0.5419965043
C    6.0  -2.3125811068  -0.9887375130  -0.2515673902
C    6.0  -1.3480142446  -0.0667939663  -0.9463086120
O    8.0  -0.6147115759  -0.4503692709  -1.8619793490
H    1.0  -3.7873762873   1.0897320776   0.9421580648
H    1.0  -4.9504672080   1.2521705383  -0.4347352731
H    1.0  -4.0213576792  -0.7262108992  -1.5560370244
H    1.0  -4.4293270970  -1.1535302741   0.1527940621
H    1.0  -3.0458771431   1.6001973564  -2.0195783087
H    1.0  -3.1135887666   2.8638240588  -0.7395844183
C    6.0  -1.1893548992   1.6218627422   0.9464182500
N    7.0  -0.5544771337   2.3121980944  -1.3171202429
H    1.0  -2.0882436636  -0.9831122607   0.8481100056
H    1.0  -2.1710164463  -2.0356733847  -0.6282843155
C    6.0   0.8556842716   2.1990656965  -1.0510675478
H    1.0  -0.7270758595   2.1394499799  -2.2934500067
H    1.0   1.2772192591   1.1804345921  -1.2740141548
H    1.0   1.0564125998   2.4393505778   0.0258665891
H    1.0   1.3840604314   2.9543782728  -1.6917294700
C    6.0  -1.8383280596   2.6860552963   1.5936970930
C    6.0  -0.3063183666   0.8425690947   1.7139699662
C    6.0  -0.1428238632   1.0760813876   3.0866200843
C    6.0  -0.8297677467   2.1122091300   3.7095867364
C    6.0  -1.6708577961   2.9273170879   2.9543514901
H    1.0  -2.4871226825   3.3643353973   1.0184539358
CL  17.0   0.6473840734  -0.4050901895   1.0509893304
H    1.0   0.5418649637   0.4415304682   3.6710460272
H    1.0  -0.6989040900   2.2912897218   4.7868003776
H    1.0  -2.1996297960   3.7667734745   3.4298744421
 $END
--- CLOSED SHELL ORBITALS --- GENERATED AT Mon May 11 17:20:49 2015
rimp2-ketamine.neutral.ccd_cct.inp
E(RHF)=    -1090.4323334599, E(NUC)= 1301.6330629313,   18 ITERS
 $VEC
 1  1-1.58672811E-06-2.90377715E-06-2.49794132E-05-2.20058354E-06 1.53598491E-07
 1  2-1.26914578E-06 3.18886353E-06 1.30285655E-05 4.54331059E-05 7.71647719E-07
 1  3-6.89127490E-07-8.25202288E-08-5.31946900E-07 2.16791945E-06-1.57309493E-06
 1  4-7.11826489E-06-1.18324173E-05 9.13168521E-05 3.80810940E-06-9.31299623E-07
 1  5 1.80334973E-06 3.68935512E-05 5.22137510E-06-6.05049316E-06 5.53080946E-06
 1  6-2.28468608E-06-3.24612338E-06-5.70643490E-06 3.17793989E-06-1.80504058E-06
 1  7-7.59042009E-06-1.40387967E-05-2.90557247E-05-6.14573211E-06 3.45362826E-06
 1  8-2.16530294E-06-2.72812379E-05-6.01169366E-05-1.26421175E-05-1.30066583E-06
 1  9-5.20973605E-06 6.51040187E-06-6.79111296E-07 1.12505321E-06 3.92861803E-07
 1 10-1.67031928E-06-3.97946149E-06 2.72679142E-04 1.01429234E-05 6.61205437E-07
 1 11-1.02641581E-06-8.54609685E-05 2.18153446E-04 1.88801657E-04 2.77419292E-06
 1 12-7.70056644E-06 4.92637352E-06 1.26627370E-05-2.83892079E-06-1.85909978E-06
 1 13 4.52885831E-06 6.70066524E-06-4.70589126E-05-4.51087061E-06-1.55002572E-06
 1 14-9.68753476E-07 3.99966080E-05-1.58664883E-05-3.07749432E-05-1.38545046E-05
 1 15 6.95006266E-06 6.90444198E-06-7.40477732E-08-4.90934695E-06-1.21528696E-06
 1 16-2.49384451E-05-4.54190736E-05 2.71728651E-04-1.20623062E-05 8.34131466E-07
 1 17-1.80077473E-05 1.45596553E-04 9.16275171E-05 1.99784777E-05-2.22742195E-06
 1 18-5.25104576E-07 2.75252652E-06-1.00435140E-06-6.81818616E-06 5.70987586E-06
 1 19 1.51618289E-05 2.81882268E-05-1.24846899E-04 6.02939107E-06-3.02758276E-07
 1 20 7.66396591E-07-1.08008838E-05-2.03176304E-05-4.56911899E-05 2.64782682E-06
 1 21 9.17429317E-07-3.56525614E-06-4.55195934E-07-6.52543933E-07-1.74758835E-06
 1 22-3.12270136E-06-2.94207715E-05 1.39270355E-06 1.74353958E-06 1.50157319E-06
 1 23 2.90398000E-06 9.31024491E-06-6.34405307E-08-2.97657815E-06-2.81402058E-06
 1 24-7.70724778E-06-2.98487503E-07-1.08622810E-06 1.09103040E-07 2.98180456E-07
 1 25-4.51787888E-07 5.45088405E-06-4.23816880E-09 4.50493282E-07-4.60196081E-07
 1 26-6.91329300E-06 5.55928438E-06 3.65783082E-06 2.33704327E-06-1.68971765E-06
 1 27 8.65568742E-06 2.03351440E-05-4.14790519E-06-9.70057361E-07-2.56243198E-06
 1 28-2.17597639E-05-3.64451181E-05 6.46522311E-04-4.87177481E-07-3.78424878E-06
 1 29-7.72510022E-06 2.51413878E-04-4.77795207E-05 7.74575069E-04-1.11667374E-05
 1 30-1.53444710E-05 2.65112084E-05-3.67123793E-06 1.87500903E-05-5.28086488E-06
 1 31 4.94271033E-06 8.92186156E-06-3.78939514E-05-4.75478998E-07-2.05715843E-06
 1 32 1.98838147E-06 2.95934083E-05 9.88515786E-06-2.57200021E-05-2.52277218E-06
 1 33-6.75723698E-08 2.59034455E-06 5.38662173E-08 1.05541417E-06 8.52312496E-07
 1 34-5.89525284E-06 4.32849491E-05-2.85884246E-06-6.46503844E-07-5.25532215E-06
 1 35-2.52166179E-06-1.42686706E-05-3.66872719E-06-3.49307385E-06-1.34493445E-06
 1 36-3.35608182E-06-6.68525276E-06-9.89154844E-06-3.28186230E-07 4.34203288E-06
 1 37-3.18144951E-06-2.28245556E-05-3.04305778E-05 6.16636172E-05 1.34499838E-07
 1 38-5.62206553E-06 5.48756569E-06-2.39917873E-06 3.15998857E-07 6.37710617E-06
 1 39 4.54518340E-06 3.53905725E-06-4.63290717E-06-4.68339483E-06 2.06538101E-06
 1 40-1.41039448E-05 2.81529303E-05 1.34030340E-06 6.52935297E-06-9.96988377E-07
 1 41-2.17000235E-05-2.03147690E-05 4.64111033E-06 8.52856497E-06-1.53852895E-06
 1 42 1.81247646E-05 3.19219773E-05-2.73569660E-06-3.81577919E-06 2.04169654E-06
 1 43 1.11484365E-06 5.52274760E-07-3.23434376E-04-3.21769871E-06 5.09560108E-06
 1 44-7.44257398E-09-1.41183359E-04 1.33750131E-04-1.34304264E-04-4.14622929E-06
 1 45-5.94756047E-06 1.00937898E-05 8.48723152E-06-4.42496944E-06 1.21447045E-05
 1 46 2.47020737E-05 3.90965458E-05-7.09995300E-04-8.51314774E-06 1.01802532E-05
 1 47 1.32969570E-05 5.97626846E-04-7.68176719E-04-3.43617299E-04-1.70314832E-06
 1 48-9.90769118E-06 1.16108395E-05 2.87183941E-05 1.69938092E-06-5.86717144E-06
 1 49-2.14987097E-05-3.64230707E-05 5.40091975E-04 1.43979605E-06-3.17414178E-06
 1 50 2.87729450E-07-2.52986638E-04 2.07055643E-04-2.78090419E-04-3.24027553E-07
 1 51-7.27749439E-06 7.60152195E-06-1.82065558E-05 2.82117312E-05-2.13950073E-05
 1 52 8.64719955E-07 2.58009952E-07-3.20377115E-04-2.06256879E-06 3.47283934E-06
 1 53 3.82970506E-06 4.84141393E-05-8.65947476E-06 1.52106243E-04 3.59455572E-06
 1 54 4.61232532E-06-8.20688104E-06-5.89931511E-06-1.86884994E-06-9.94901009E-07
 1 55-1.11549982E-05-1.95387761E-05 3.07890191E-04-7.02633235E-07 1.20784819E-06
 1 56 1.83196070E-06 7.98821067E-05-1.12637275E-04-3.67982828E-05-6.18401532E-07
 1 57 2.21939769E-06-1.60099616E-06-6.49792984E-06-1.03779016E-06 2.67905962E-06
 1 58-3.74838857E-07-6.15181579E-05 5.75242491E-06-6.12256256E-06 4.43381336E-06
 1 59 1.00004828E+00 2.25981657E-04 2.53936425E-04-1.17896678E-03-2.86050320E-05
 1 60 3.31632448E-05 1.42589961E-05-7.52037269E-06 8.20356858E-07-1.57914706E-05
 1 61 2.23754165E-04-2.61605347E-04-9.89980016E-05 7.64229789E-07-5.83059629E-06
 1 62 5.06636650E-06 2.79094928E-05 6.05611861E-06-1.72939863E-05-1.31473084E-08
 1 63 1.91617275E-06-1.90302544E-06-7.46824165E-06-1.96947515E-06 4.54482601E-06
 1 64-3.97115643E-06 1.27865594E-04 8.97037036E-06-5.15732539E-06 1.69848753E-05
 1 65 2.73880974E-06-2.57568410E-05-2.33979501E-06 5.95846297E-07-7.09667315E-06
 1 66-3.04915514E-06 3.17710928E-05-2.52736017E-06 3.54642027E-06 9.13035251E-07
 2  1-2.34262210E-05-3.86812532E-05 6.32440714E-04 2.01276198E-05-1.05855396E-05
 2  2 4.82655762E-06 9.17045052E-05-5.60556207E-05-1.94900144E-04-7.39602074E-06
 2  3 3.03847151E-05-2.29886944E-05-8.99532848E-06-3.93105520E-05 4.15625846E-06
 2  4 2.86262222E-05 5.74372824E-05-5.02103948E-04 1.67080418E-05-1.45700616E-05
 2  5 9.79171525E-06-1.99202093E-04-1.87694973E-04-2.88032484E-04 1.23167168E-05
 2  6 5.27024710E-06-1.75869639E-05 1.82864657E-05-5.87526004E-05-4.08900870E-05
 2  7 4.54120499E-05 8.15029991E-05-9.49070183E-04-1.27895734E-05 3.83281880E-06
 2  8-1.96689967E-05-2.49956563E-04 3.41247220E-04-5.43475570E-04-2.55981004E-05
 2  9 7.23966116E-05-4.67985112E-05 2.31518299E-05-6.44464245E-05 3.38470169E-05
 2 10-3.97720908E-05-9.61482764E-05 7.16258079E-04 1.39035639E-05 8.35274340E-05
 2 11 1.93040538E-05-2.02353351E-03-3.85568981E-04 1.68371829E-03 4.95353124E-05
 2 12-1.53763149E-05-3.41589975E-05 1.44867058E-04 6.27500124E-05-1.49709520E-04
 2 13-7.39908724E-05-1.47813144E-04 1.62266825E-03-6.25054996E-05-3.11933916E-05
 2 14 1.11239746E-05-9.55474277E-05 9.56895554E-04 3.72635183E-04-1.29851098E-04
 2 15 2.58891963E-04-1.29040865E-04 2.05153074E-05 9.89993240E-05 8.15868589E-05
 2 16 1.88444982E-04 2.32871300E-04 2.47685619E-03-3.06716797E-05-3.32868963E-05
 2 17-3.11139582E-05 2.87927032E-03-4.55960646E-04-3.08548661E-03-7.87803228E-05
 2 18 2.93799462E-04-2.15019139E-04 2.17261110E-04 2.92718631E-04-1.78385059E-04
 2 19 1.00143141E+00 2.06623151E-03-7.51226747E-03-9.77999501E-04 5.39830483E-04
 2 20 1.19239282E-03 1.14821790E-03-7.18203033E-04-1.48825193E-03-5.59378360E-05
 2 21 9.28269442E-05-3.68891083E-05 6.34659603E-05-1.80028155E-04 4.48237444E-05
 2 22 1.43483351E-05 6.01110926E-05 3.66817626E-07 1.93924947E-06-5.46780368E-06
 2 23-4.12108685E-05-5.74476678E-05-9.34250839E-06 3.45971699E-07 1.09442442E-05
 2 24 3.83650261E-05-2.02160821E-04 8.76393741E-06 2.12970116E-06-7.60237294E-07
 2 25-2.02289883E-05 3.88309877E-05-1.29990071E-05 2.71971277E-06 3.27731409E-05
 2 26 8.24578180E-05-2.89065951E-04 9.55260330E-06-3.58185738E-06 5.32894535E-06
 2 27-2.99877128E-05-8.87934099E-05-2.20941778E-05 2.08593848E-05 1.94357794E-05
 2 28 2.87759237E-06 5.71862030E-06-7.81318204E-04-2.85509825E-06 2.29620557E-05
 2 29-3.24267764E-06 9.43594304E-04-2.83372400E-04 4.78162111E-04-3.35068265E-05
 2 30 3.64264882E-06 2.98641777E-05-5.50148340E-06-5.23425257E-05-4.84534725E-05
 2 31-8.04355312E-05-1.47718223E-04 1.13991520E-03 2.78560036E-05 5.25045905E-06
 2 32-1.99731531E-05-2.92788670E-04-3.07916913E-04 1.55811019E-04-1.16788822E-05
 2 33-7.11038990E-06 1.87892721E-05 1.25816431E-05 2.64860050E-05 4.02285232E-06
 2 34-5.55523569E-05-1.84271293E-04 4.93515206E-05-3.78502232E-05-4.45905377E-05
 2 35-8.33485127E-05 1.88544704E-04 9.67346325E-07-1.02553874E-04-2.32873706E-05
 2 36-2.41380210E-05-4.58711484E-05 2.08992563E-04 5.19070479E-06 9.03251235E-06
 2 37-3.59997044E-06-8.53956331E-05-9.23003305E-06 8.73293833E-05-1.07666850E-05
 2 38-8.10540228E-06 1.88720872E-05 5.79965633E-06-2.12377506E-05-3.13523494E-05
 2 39-8.00971616E-05 3.12528598E-05-1.85473595E-05 4.21135763E-05-3.06738642E-05
 2 40-2.39975693E-05-6.03243954E-05 4.10100409E-05 3.93553200E-05-5.53932864E-07
 2 41-2.85910786E-05-4.18894034E-05 3.44654142E-06 1.75631672E-06-8.54396673E-06
 2 42-1.82719163E-05 5.19962094E-05 2.42813325E-06 2.56810372E-06-6.58665088E-06
 2 43 3.79987529E-06 6.06266480E-06 2.18175251E-04 3.77302707E-06-1.02330661E-05
 2 44-5.69863428E-06 1.63391841E-05-2.93794157E-04-3.05580935E-04-1.08050715E-05
 2 45 2.28658168E-05-1.20607453E-05 7.51657731E-06-1.09016051E-05 1.94534473E-06
 2 46-3.55356844E-05-6.12832596E-05-7.81012140E-05 1.97436615E-05 1.51693311E-05
 2 47 2.26720518E-05 1.51135641E-04-4.71962065E-04 1.26121663E-05-1.19936551E-05
 2 48-1.32474308E-05 2.52410858E-05-8.00336348E-06 3.06238353E-06 2.88413746E-05
 2 49 7.61157151E-07 1.14062873E-06 2.63421314E-04 4.09662628E-06-5.96684178E-06
 2 50-4.45226220E-06-1.15814754E-04 3.20247321E-04 2.82915727E-04 1.00863700E-05
 2 51 5.97931028E-06-1.60656803E-05-3.43399244E-06-1.34264528E-05-2.07475759E-06
 2 52 8.57377703E-06 1.40160824E-05-2.61644164E-04 1.49267768E-06 7.15402936E-06
 2 53 3.30271200E-06-2.21464403E-04 2.31709795E-04 3.16333556E-05 2.75214874E-07
 2 54-1.33185107E-06 1.05663619E-06 9.72530119E-06 1.65012096E-06-2.21260858E-06
 2 55 2.34199045E-06 5.19171654E-06 6.41812334E-05 2.43849380E-06-7.04036772E-07
 2 56-1.02472636E-06-7.12401214E-05 6.86923725E-05-2.07993798E-04-4.84165343E-06
 2 57 7.34262343E-07 4.10739108E-06-6.74792122E-07 1.04685544E-06-2.16841046E-06
 2 58-1.25292366E-05 8.61513378E-05 1.94619791E-06-1.48120050E-06 9.98483424E-06
 2 59 2.57753633E-05 1.81525197E-04 2.14856147E-04-5.51372016E-04-6.80302809E-06
 2 60-4.45647313E-06-2.44951483E-05-1.84278674E-05-1.92458659E-05-8.00474794E-05
 2 61 2.11249795E-04-8.22867446E-05 2.30121866E-04 1.12160255E-05 2.94875386E-05
 2 62-4.07035641E-05 3.31432036E-05-3.78502522E-05 3.21720141E-06-2.16598580E-06
 2 63-5.55217762E-06 7.71816343E-06-5.02228582E-06 7.52088622E-06-1.01760447E-06
 2 64 1.59803869E-05-2.71740749E-05 3.45692630E-06-1.60600122E-05-8.21546187E-06
 2 65 1.09810049E-05-3.43465063E-07 9.74981071E-06-7.51769901E-06-1.06790818E-06
 2 66 9.56331846E-07-9.97045006E-06-9.55316925E-07-1.53014112E-06 3.68319446E-06
 3  1-1.03915973E-04-1.83271258E-04 6.62920579E-04-3.42833060E-05 1.96443248E-06
 3  2-1.32888707E-07 4.56027205E-04-3.82677145E-04 5.47625267E-06 3.88023505E-05
 3  3-3.22683681E-05-6.53398240E-06 7.36090697E-08-4.42210240E-06-1.16221443E-05
 3  4 2.76548455E-05 4.30660366E-05-8.42862953E-04-2.30565624E-05-1.81121106E-05
 3  5 1.21906187E-05-1.38092834E-04-1.95201385E-04-2.78857114E-04 4.63339704E-06
 3  6 1.67660266E-05-2.13994237E-05-2.37152380E-05-1.13289467E-05-9.65435170E-06
 3  7 2.00964961E-05 2.02008954E-05-3.96470123E-04-4.69944757E-05-2.38523907E-05
 3  8-9.89271953E-06-4.31290846E-04 1.76293316E-04 5.06028776E-04-8.73524880E-05
 3  9 6.88713935E-05 1.84810945E-05 1.07559336E-05 9.45365956E-06-6.74893751E-05
 3 10 3.67555415E-05 2.36796958E-05 1.35095684E-03 1.19852874E-04 1.32809047E-04
 3 11-1.35406456E-04 2.09031859E-03 1.36871914E-03-3.71241290E-03 1.47556649E-04
 3 12-4.09198168E-05-1.06636832E-04-1.31016684E-05-2.77986161E-05 3.19741274E-05
 3 13-1.30268097E-04-2.32788703E-04 7.54888258E-04-1.35396261E-05-4.03103459E-05
 3 14-1.90293354E-06-2.49646261E-05 5.45967594E-04-1.71198784E-06-7.93587270E-06
 3 15-7.94980089E-07 8.73085279E-06 3.09401710E-05-3.89736613E-05-2.36686258E-05
 3 16-1.08382282E-04-2.18695577E-04-2.40447227E-04-2.51925429E-05-1.17195691E-04
 3 17-8.52187490E-06-2.86387246E-05 2.48615311E-05 4.33968251E-04-1.83061665E-06
 3 18-4.65267187E-05 4.83573353E-05-7.10552815E-05-9.88590561E-05 1.17364931E-04
 3 19-1.51589648E-05-3.82690079E-05 9.23109471E-06 1.79136168E-05-3.74294089E-05
 3 20-1.60703263E-05-1.17477082E-05-5.01360566E-05-8.00787038E-05 8.50881245E-06
 3 21-4.95591080E-06-3.55290164E-06 8.48676848E-07 1.43020181E-05-9.17891593E-06
 3 22-7.96250498E-05-4.24430268E-05-3.68244549E-05 3.26867490E-05 6.18478545E-06
 3 23-6.81326402E-08 1.38433668E-04-2.30398219E-05 9.83609865E-06 1.52622029E-05
 3 24 1.22355085E-05-8.53294859E-05 2.39511250E-08 5.09007540E-06 1.24153867E-05
 3 25 7.19843233E-05 9.82385046E-05 2.60678831E-05 1.82630250E-05 9.95185042E-06
 3 26 6.48622204E-05 6.41073039E-05-7.34910333E-05-1.14630479E-05-4.67348401E-06
 3 27-7.21914812E-05-8.60156867E-05-1.96573282E-05 1.38498527E-05 1.69785690E-05
 3 28-1.53211468E-04-2.78149490E-04 1.89503266E-03-2.41295587E-06-6.16723951E-05
 3 29 1.48076670E-04-1.75374127E-03 5.51224529E-04-2.79387844E-03-2.63349808E-05
 3 30 1.48395950E-05 1.14953857E-05 7.23388626E-05 2.92737183E-05 1.02152192E-04
 3 31 1.00202240E+00 3.53922853E-03-9.68379057E-03 3.70321353E-04-1.53580339E-03
 3 32-4.15913131E-04-1.07777451E-05 2.59167995E-03-1.26411485E-03-1.48664482E-04
 3 33-7.98087450E-05 2.28473227E-04-1.17663109E-04 1.38820250E-04 2.45501421E-04
 3 34-8.78444590E-05-3.85853110E-05 1.23968183E-05-2.85740881E-05 1.19761081E-05
 3 35 9.93433783E-06 1.70453372E-04-6.22417830E-06-4.68508876E-06 1.60645720E-05
 3 36 1.00317392E-04 1.35511667E-04 2.16716963E-03-2.54933410E-04-1.73648414E-05
 3 37-2.34490398E-05-8.53240344E-04-4.70855452E-04-3.22258330E-04-2.34188811E-04
 3 38 1.60875451E-04 7.33133598E-05 1.50750700E-04-1.24929455E-04 8.95441419E-05
 3 39 2.49962966E-05-6.54730830E-05-5.33497365E-05-2.32258205E-04-6.77021662E-04
 3 40-3.78083017E-04-2.66187544E-04 8.11095070E-05-2.45711308E-05 8.65353819E-06
 3 41-2.22465659E-04 2.26970715E-04 1.49245899E-05 1.26062137E-05 1.59627839E-05
 3 42-2.25310387E-04-1.00492868E-04 7.89114777E-05 7.14904178E-05-1.62178972E-05
 3 43 3.75319269E-05 6.72757009E-05 1.14923818E-04-2.04915811E-05-5.21922971E-06
 3 44-2.54560968E-05 1.86519280E-04 4.23176540E-04 1.66730633E-03 3.54923536E-05
 3 45 2.43158028E-05-5.98081565E-05-6.28773298E-07 5.24828840E-05-3.22383163E-05
 3 46-4.00655234E-05-4.87543174E-05 2.88603766E-03-1.12336230E-05 1.95925991E-05
 3 47-9.71928163E-05-6.88558778E-04 1.04376307E-03 1.11356396E-03-2.86665403E-05
 3 48-1.67726100E-05 4.54391503E-05-2.49721978E-05 2.79463170E-05 5.32627604E-05
 3 49 4.30096569E-05 6.57917456E-05-1.93222151E-03-2.61578700E-06 1.70742802E-06
 3 50 5.80522518E-05 4.62811084E-04-2.18195362E-04 7.83660337E-04 1.95871096E-05
 3 51 2.35674558E-05-4.31545654E-05 2.11243813E-05-1.78036211E-05-1.47851289E-05
 3 52-1.70625601E-05-2.58656187E-05 4.47813601E-04 1.20725496E-05-1.57425758E-05
 3 53 1.18404205E-05 1.45346486E-05-2.02908296E-04-5.12525143E-04-1.11668172E-05
 3 54 4.61586330E-07 1.07052309E-05-1.81770086E-05 4.89387561E-06 5.05167893E-06
 3 55 2.44824202E-05 4.27127558E-05-1.38923014E-03-2.56587122E-05 1.61034970E-05
 3 56-1.13929834E-05 1.51506875E-04 1.07210926E-05 6.46989978E-04 4.78528702E-06
 3 57-5.43914301E-06 6.53855988E-07 5.76590829E-06 4.37773146E-07 2.20270244E-05
 3 58 9.01986756E-05 1.74346848E-04-1.43564879E-05-1.28134054E-05-6.09599434E-05
 3 59 2.32399278E-06 1.93951299E-05 3.28087236E-05 3.27615884E-04-1.14111916E-05
 3 60 1.92330771E-05-1.46461810E-05-4.15269498E-05 7.29114851E-05-5.93361672E-05
 3 61-4.61684840E-05 1.42458886E-05 1.38485774E-04 1.95456673E-05 1.24252405E-06
 3 62-2.07881913E-05 9.35682072E-07 6.74833768E-06-2.31122482E-06-3.12155459E-06
 3 63 2.11270123E-07 2.91028446E-06-7.98466179E-07-5.98795359E-07-5.89335674E-07
 3 64 1.81972057E-05-1.86753248E-04-1.08980029E-05-3.65895836E-06-2.71246703E-05
 3 65 3.99783403E-05 1.17625637E-04-3.13737922E-06 1.16004385E-05 1.66017185E-05
 3 66 5.00424044E-05-1.93601497E-05-5.70417503E-06 3.79600596E-06-1.38781873E-05
 4  1 2.70127419E-05 7.89415337E-05-9.77761203E-04-3.09592698E-05-4.30406057E-06
 4  2 1.03436131E-05-6.39894319E-04 1.19185903E-04 4.54226498E-04 2.23324836E-05
 4  3 8.73379994E-05-1.09670483E-04 2.29139932E-05 3.00675883E-05-5.07718741E-05
 4  4-2.15278717E-04-3.27319559E-04 9.67954687E-04-1.11094399E-04 2.05253962E-05
 4  5 5.43272979E-05 7.52953874E-04 1.98584734E-04-5.44567822E-04 1.00074838E-04
 4  6-2.32827506E-05-7.67920869E-05 9.48533654E-05-8.38462402E-05-5.94626449E-05
 4  7-2.63700983E-04-4.48086610E-04 1.60122472E-03-5.18784972E-05 8.39720086E-05
 4  8 3.67050689E-05 3.95115171E-04-1.27973613E-03-1.30814936E-04-2.46556608E-05
 4  9 1.80744688E-04-1.56089028E-04-1.54193981E-04-2.72866094E-05 1.77204063E-05
 4 10 7.03556857E-03 4.13096256E-04-4.38874602E-04 7.55815816E-05-2.57689941E-04
 4 11-9.74598664E-05-9.33768380E-04-1.03053975E-03 2.79703381E-04 6.21080576E-05
 4 12-1.04139365E-04 4.20313074E-05-3.69470158E-05 6.12551956E-06-6.18014065E-05
 4 13 3.66220794E-03-7.16737711E-05 3.26696490E-03 1.47716644E-04 8.33327031E-05
 4 14-8.75473927E-05 1.08646662E-03 1.43560785E-03 1.55383783E-04-3.50439931E-05
 4 15-4.76359428E-06 3.98075874E-05-9.08898755E-05 1.56932693E-04 8.83208527E-05
 4 16 1.00231910E+00 4.52284224E-03-8.88382440E-03 1.27799990E-04-6.11709506E-05
 4 17-1.77700327E-04 3.10215970E-03-8.37159426E-04-3.49548088E-03-6.37551549E-05
 4 18-1.16341616E-04 1.80096771E-04-9.67243633E-05-7.62859564E-04 3.18433794E-04
 4 19-4.79591723E-05 5.78420918E-04-2.23286253E-03-1.45667232E-04 6.46217207E-05
 4 20 1.97853018E-04 4.60465969E-04-2.94185676E-04-6.53939738E-04 3.24938746E-05
 4 21-8.37856442E-05 5.12917696E-05-5.25204329E-05-1.20000300E-05 1.98781768E-05
 4 22 1.04065649E-04-2.56585700E-04-1.27269693E-05-7.39309214E-06-1.89221956E-05
 4 23-9.25234577E-06-6.40255236E-05 1.44540967E-05-5.53562253E-06-4.79245990E-05
 4 24-1.39538896E-04-1.36256727E-04-5.37150580E-05-1.50315499E-05 4.89718267E-05
 4 25-8.51934252E-06 4.16148088E-04-1.30170269E-05-9.60414638E-06 4.09743842E-05
 4 26-1.95020904E-04-9.56116408E-05-1.55259692E-06 6.98903183E-05 4.36880250E-05
 4 27-3.50822550E-05 4.85613374E-04 2.88968053E-06 6.62683973E-05 1.19747585E-05
 4 28-2.04494014E-04-2.71589296E-04-7.52380042E-04-2.55478879E-05 1.23559849E-04
 4 29 9.10589079E-05 1.16133887E-03-2.17540587E-03-1.74036329E-03-1.25817985E-04
 4 30 8.76812489E-05 3.81367365E-05 4.55381773E-05 4.68702780E-05 4.29684853E-05
 4 31-1.30753988E-04-2.42864271E-04 1.21896993E-03 1.12258406E-05 1.80105443E-05
 4 32-2.56633565E-05-2.06629573E-04-2.86829483E-04 3.39234700E-04-2.59569929E-05
 4 33 3.25274673E-05-6.57047438E-06 1.02204973E-05-1.21350917E-05-3.21438738E-07
 4 34-2.30491519E-04-2.31582080E-04 1.00070997E-04 6.12331786E-05-4.55582543E-05
 4 35-3.15786854E-05 2.34112993E-04-6.52988971E-06 3.53881047E-06-2.88952843E-05
 4 36 3.75932230E-07 1.88927814E-05-1.56860678E-04 2.46721891E-05-7.43963076E-06
 4 37 1.71509789E-05 1.36732926E-04 5.51288043E-05-2.62972147E-04-1.34026519E-05
 4 38 3.84047069E-05-2.50020549E-05-6.05858267E-06 1.23261941E-05-1.39775000E-05
 4 39-4.74475325E-05-1.37402582E-05 1.21376386E-06 2.30405120E-05-1.79705512E-05
 4 40 3.17047656E-05-1.60170022E-04 1.17773724E-05-3.93176179E-06 2.03253082E-05
 4 41 5.79973776E-05 1.47205121E-04 1.41276641E-06 3.87927738E-06-2.00122108E-05
 4 42-3.21223688E-05-6.78638517E-05-6.84952725E-06 2.08745020E-06 2.79038351E-06
 4 43-1.14280229E-04-2.01652631E-04 2.54080815E-03-7.53355064E-06-3.66762953E-05
 4 44-2.58827813E-05 8.25107404E-04-1.15259755E-03-5.49346091E-04-4.10957763E-05
 4 45 3.66679348E-05 4.42784149E-06-5.25756670E-05 2.76608929E-06 1.09840059E-05
 4 46-1.23161213E-04 3.91538730E-05-2.20798735E-03 3.80318660E-05 4.61402208E-05
 4 47 7.34760296E-05-3.50007521E-04 1.72015245E-04-3.55681678E-04 6.37942626E-05
 4 48 9.35807280E-05-1.57374991E-04-3.21265040E-05 1.29727043E-05-5.41899539E-05
 4 49-7.29031117E-05-1.14815626E-04 1.20429583E-03-6.82885395E-06-2.86953031E-05
 4 50-5.04744955E-05-1.43987438E-04-4.06481625E-05-1.00670960E-03-4.70531570E-05
 4 51-4.00468711E-05 8.71000281E-05-3.24750102E-05 3.29319955E-05 2.21093399E-05
 4 52-1.23050776E-05-2.00620244E-05 1.63680119E-04-2.06972282E-05 2.54893828E-05
 4 53-5.05889478E-06 1.04120441E-04-7.05148867E-05 2.50309034E-04-9.10124413E-08
 4 54 1.11285288E-05-1.10375163E-05-2.20003342E-06 2.64770183E-06-7.30160573E-06
 4 55-3.27744443E-05-5.03384689E-05 1.58026012E-04 2.34151650E-05-2.32998982E-06
 4 56 4.23272889E-05-2.17906461E-04 1.77471091E-04-1.02957053E-04 1.22346287E-06
 4 57-4.18843900E-06 2.96497614E-06-6.58309187E-06 7.50295983E-06 8.52265151E-07
 4 58-4.54191890E-05 2.24170435E-04-2.96501867E-05 1.87802507E-05 2.52254593E-05
 4 59-4.53400583E-05-3.27556487E-04-3.87370591E-04 9.13514891E-04 2.43316813E-05
 4 60-4.05435021E-06 2.91783840E-05 7.35718409E-05-1.13978368E-05 1.01673453E-04
 4 61-4.30694250E-04 2.46232630E-04-1.26438363E-04 4.99334694E-05-4.46386030E-05
 4 62-5.29486637E-06-3.77283943E-05 7.57897921E-05 3.36991373E-05-8.12033546E-06
 4 63 7.28872394E-06 8.31611522E-07 5.42586201E-06-1.27593485E-05-3.68978904E-06
 4 64-2.33765267E-05 2.18568769E-04-8.12214097E-06 6.90512378E-06 3.33575955E-05
 4 65-3.53320541E-05-5.63183530E-05 2.65343885E-06-4.99936525E-06-1.37011319E-05
 4 66-3.36723777E-05-9.25035501E-06 9.54740334E-06-4.47917855E-06-1.02878412E-05
 5  1 4.89643381E-06 9.78245100E-06 1.48510680E-04 1.46978584E-05-2.43708340E-05
 5  2-2.16710976E-06-1.17902408E-04-7.34969989E-05 4.87842344E-05-6.83152092E-08
 5  3-2.06242263E-06 2.13073783E-06-7.52888356E-06 1.18527721E-05-8.30121787E-06
 5  4 5.10098935E-05 7.92057271E-05-1.24311246E-04 2.25513680E-05 2.81861583E-05
 5  5 6.30778381E-06-1.99643084E-04-3.99905856E-04 1.83475967E-05-1.96563884E-05
 5  6 1.20532585E-06 1.84510625E-05-2.01343126E-05 1.67134078E-05-7.51712919E-06
 5  7-2.40272709E-05-5.91585888E-05-7.01392828E-05-2.49848223E-05 1.17772354E-05
 5  8-5.57987727E-06-1.54873141E-04-3.17091393E-04 1.39493011E-04-5.52144065E-05
 5  9-1.61045283E-05 7.13189348E-05-1.20668409E-05 3.13083068E-05-3.09370832E-06
 5 10-2.28412869E-04-1.72336489E-04 1.77276403E-03 8.16206208E-06 2.41332330E-05
 5 11-1.61177160E-05-8.30926447E-05 1.48404902E-03 9.71236775E-04-1.46223340E-05
 5 12-5.37700347E-05 6.83923687E-05-2.10678830E-05 1.60564596E-05 1.07371182E-06
 5 13-2.66741948E-05-1.75117149E-05-1.36112873E-04-6.00521759E-05-4.65545560E-05
 5 14-3.69935122E-06 3.02537295E-04 5.21215022E-04-7.64398846E-04 2.03696894E-05
 5 15-3.92369272E-06-1.64459967E-05 1.65294688E-05-9.58626246E-05-9.34233238E-05
 5 16 9.56098687E-05-1.37733872E-04 1.78336612E-04 2.72626370E-05 1.04051666E-05
 5 17-5.78571091E-05 1.69376848E-04 9.14590630E-04 1.87930298E-04-4.94293544E-05
 5 18 3.01364283E-05 1.92929262E-05-3.13721940E-05 3.58898143E-05-3.63486997E-06
 5 19-2.51124908E-05-4.47660487E-05 2.33689805E-04 1.11492012E-05 1.52820324E-05
 5 20 2.06973976E-05-9.22874252E-05-7.74782206E-05-3.84341828E-06-2.93312200E-06
 5 21 1.22972608E-06 1.70339592E-06-2.16310873E-06-4.72219797E-06-2.36362967E-06
 5 22 2.49308133E-05-1.23218528E-04 1.44752916E-05 7.61878884E-06 2.15440195E-06
 5 23-3.80977044E-05-4.44098858E-05-1.18907605E-05-3.66403145E-06-4.45942847E-07
 5 24-1.30747967E-05-1.06952938E-04-4.75601363E-06 3.28917466E-05-2.66871729E-05
 5 25-7.01728032E-06-1.72480860E-04 1.45293099E-05 7.13738096E-06 1.97909608E-05
 5 26-4.18956573E-05 1.60187947E-04 2.42507656E-05 9.68853071E-06-1.57985220E-05
 5 27 2.89870418E-05 4.90950978E-05-2.67577381E-05 4.56076295E-07-3.28428558E-05
 5 28 1.29747731E-02-1.91538920E-04 4.63131391E-03-3.56177958E-06-3.21989076E-06
 5 29-3.31476782E-05 3.25805911E-03-2.73519299E-03 4.22793862E-03 4.54394744E-05
 5 30-5.17975059E-05 6.35803148E-06 1.58685670E-04 7.49779036E-05-9.88938905E-05
 5 31 7.57527527E-05 1.35043966E-04-7.55612382E-04-1.04101596E-05-6.82347381E-06
 5 32 2.19754718E-05 8.60124711E-05 1.83812842E-04-2.62698880E-04-2.98476111E-05
 5 33 1.70362892E-05 1.28113220E-05 1.92357299E-05-1.71067380E-05 1.00181998E-05
 5 34-6.69140575E-05 1.24013454E-03 3.58967553E-05 5.71808427E-05-8.47258746E-05
 5 35 1.03700590E-04 5.00802855E-05-2.13750216E-05 1.59829853E-05 3.39627221E-05
 5 36-6.16415814E-06 2.07872767E-05-3.55533625E-04 5.46872873E-06 3.16269172E-05
 5 37-4.63288320E-05-3.50457017E-04-5.38114193E-04-1.05773726E-04 5.83339706E-05
 5 38 3.41184311E-05-9.24524018E-05-4.77454239E-05 2.59376553E-05 6.72201528E-05
 5 39 3.05397726E-05-4.45382053E-05-3.46352232E-05-3.39912003E-05 2.05903380E-05
 5 40-1.13919071E-04-2.59509708E-04 6.79469894E-05-1.45265115E-05-4.18577659E-05
 5 41-9.62427494E-05 9.21710821E-04-4.95225027E-05-7.36469577E-05-4.50890410E-05
 5 42 1.77632742E-04 1.96036110E-04-1.26548972E-05-3.11381995E-05 3.49077919E-05
 5 43 9.62964177E-05 1.82757602E-05-5.41810036E-04 3.66618315E-05-3.35273905E-05
 5 44-2.50513658E-05-6.13651424E-04 2.57684336E-05-1.95234805E-03-3.03780802E-05
 5 45 2.72845323E-07 3.01052349E-05-1.84114056E-05-2.73071845E-05 9.59275916E-05
 5 46 1.00215434E+00 4.54496452E-03-1.56607064E-02 3.76192436E-04-5.83010001E-04
 5 47-3.58239931E-04 2.38246125E-03-2.41658034E-03 5.93308206E-04-1.07299256E-04
 5 48-1.41385439E-04 2.48684695E-04-1.53629569E-05 1.73975538E-04-6.01944034E-05
 5 49 1.08840870E-02-3.65886358E-04 4.03591231E-03 1.02778842E-05-1.80164003E-05
 5 50-9.87958320E-06-1.30426433E-03 8.16768830E-04-2.22638271E-03 6.97431725E-05
 5 51-1.98480488E-05-4.98951237E-05 1.20888506E-04 1.05077966E-04-1.85911379E-04
 5 52 1.01440092E-04 9.02279912E-05-1.77965284E-03 5.94470120E-06-2.09269317E-05
 5 53-1.76252106E-05 3.49336314E-04-3.03995087E-05 1.21983658E-03 2.49353637E-06
 5 54 3.76995630E-05-4.01930994E-05-5.45838235E-05-3.76836253E-05 4.00584282E-05
 5 55-2.59719285E-04-1.52261330E-04 2.63502383E-03 2.86506871E-06-4.59154940E-06
 5 56 2.47179396E-05 3.48228786E-04-6.02829201E-04-6.31432359E-04-5.48758800E-06
 5 57 1.95727758E-05-1.40851878E-05-5.70830428E-05-1.46482690E-05 2.26173333E-05
 5 58-8.97746485E-05-3.77440110E-04 3.21086939E-05-1.44854225E-05 3.98669190E-05
 5 59 2.14814026E-05 3.76236247E-04 2.22018662E-04 3.95698185E-04-5.45119690E-05
 5 60 6.03590442E-05 2.85414704E-05-1.48351167E-04 1.52655328E-04 6.33814925E-05
 5 61-1.45407591E-04 2.26886556E-04-8.19040728E-05 5.91021016E-05-4.19180426E-05
 5 62-1.71840590E-05 2.07784558E-04 1.01067605E-04-1.89015927E-04-8.30014897E-06
 5 63 1.40253699E-05-5.72522090E-06-4.85376615E-05-2.36256346E-05 3.84953466E-05
 5 64 1.46542377E-05 6.97356774E-04 3.58667329E-06-2.05146313E-06-9.96312818E-06
 5 65-3.43303299E-05-2.34458649E-04 6.51390233E-07-1.49701053E-05-4.29474656E-05
 5 66-6.68850784E-05 2.08504132E-04-1.59700093E-05 2.33185926E-05 1.59900520E-05
 6  1-2.49764866E-04-3.16709993E-04 9.09667749E-04-1.12727988E-04-2.62713554E-05
 6  2 3.29209627E-05 5.72381840E-04-1.95277642E-04-3.85632915E-04 1.79541169E-04
 6  3-8.31435585E-05-9.63976101E-05-5.58861010E-05 5.46863191E-05-9.88517726E-06
 6  4 3.82232120E-05 1.17307293E-04-1.18594808E-03-3.66900169E-05-9.04870145E-06
 6  5-4.20177754E-05-3.70333985E-04-3.45493850E-04 5.26528207E-04 9.79688850E-06
 6  6 2.93101641E-05-3.91070526E-05-7.16608577E-05-1.31350339E-05-1.64055861E-05
 6  7 6.82330446E-03 3.45847888E-05 2.91168150E-03 3.32825486E-04-5.94051096E-05
 6  8 7.80189865E-05 1.53704442E-03-1.87884234E-04 3.38826332E-04-1.10021746E-04
 6  9 7.78600333E-05 3.21617125E-05 2.97467229E-05-2.27307160E-05 7.97530736E-06