!
!   rimp2 energy : urea+1 (mult=2)
!            OBS : ccd
!            ABS : ri-cct spherical
!  LIBCCHEM CODE : GPU
!
! RESULTS OF ZAPT 2ND ORDER CORRECTION ARE
!               E(0)=      -223.6932700784
!               E(1)=         0.0
!               E(2)=        -0.5932182335
!            E(ZAPT)=      -224.2864883118
!
 $contrl scftyp=rohf icharg=1 mult=2 $end
 $contrl runtyp=energy ispher=1 $end
 $system mwords=10 memddi=100 $end
 $scf diis=.t. $end
 $basis  gbasis=ccd $end
 $guess  guess=huckel $end
 $scf    dirscf=.true. $end
 $contrl nosym=1 $end

 $contrl mplevl=2 $end
 $cchemri iauxbf=1 $end
 $mp2    code=ricchem $end
 $auxbas cabnam=cct $end

 $data
rizapt-urea_mult-2.rhf.spherical.energy.inp
Cnv 2

HYDROGEN    1.0   1.1706494911    .0000000000  -1.7277523720
OXYGEN      8.0    .0000000000    .0000000000   1.2568040799
CARBON      6.0    .0000000000    .0000000000    .0324234675
NITROGEN    7.0   1.1568642068    .0000000000   -.7190915340
HYDROGEN    1.0   2.0306752995    .0000000000   -.2127855550
 $END


!$data
urea...MP2/cc-pVDZ...this molecule really has C2 rather than C2v symmetry!
C1
HYDROGEN    1.0   1.1706494911    .0000000000  -1.7277523720
ccd

HYDROGEN    1.0   -1.1706494911    .0000000000  -1.7277523720
ccd

OXYGEN      8.0    .0000000000    .0000000000   1.2568040799
ccd

CARBON      6.0    .0000000000    .0000000000    .0324234675
ccd

NITROGEN    7.0   1.1568642068    .0000000000   -.7190915340
cct

P    15.0   -1.1568642068    .0000000000   -.7190915340
S   11
  1  94840.0000000              0.255509D-03
  2  14220.0000000              0.198193D-02
  3   3236.0000000              0.102760D-01
  4    917.1000000              0.414823D-01
  5    299.5000000              0.131984D+00
  6    108.1000000              0.308662D+00
  7     42.1800000              0.420647D+00
  8     17.2800000              0.222878D+00
  9      4.8580000              0.164035D-01
 10      1.8180000             -0.254255D-02
 11      0.3372000              0.748050D-03
S   11
  1  94840.0000000             -0.696939D-04
  2  14220.0000000             -0.535266D-03
  3   3236.0000000             -0.283709D-02
  4    917.1000000             -0.113983D-01
  5    299.5000000             -0.392929D-01
  6    108.1000000             -0.996364D-01
  7     42.1800000             -0.197983D+00
  8     17.2800000             -0.114860D+00
  9      4.8580000              0.518595D+00
 10      1.8180000              0.601847D+00
 11      0.3372000              0.368612D-01
S   11
  1  94840.0000000              0.191199D-04
  2  14220.0000000              0.147223D-03
  3   3236.0000000              0.777912D-03
  4    917.1000000              0.314546D-02
  5    299.5000000              0.108200D-01
  6    108.1000000              0.279957D-01
  7     42.1800000              0.563978D-01
  8     17.2800000              0.358190D-01
  9      4.8580000             -0.193387D+00
 10      1.8180000             -0.372097D+00
 11      0.3372000              0.624246D+00
S   1
  1      0.1232000              1.0000000
P   7
  1    370.5000000              0.395005D-02
  2     87.3300000              0.302492D-01
  3     27.5900000              0.129554D+00
  4     10.0000000              0.327594D+00
  5      3.8250000              0.456992D+00
  6      1.4940000              0.253086D+00
  7      0.3921000              0.168798D-01
P   7
  1    370.5000000             -0.959832D-03
  2     87.3300000             -0.711177D-02
  3     27.5900000             -0.327122D-01
  4     10.0000000             -0.795784D-01
  5      3.8250000             -0.135016D+00
  6      1.4940000             -0.910585D-02
  7      0.3921000              0.537802D+00
P   1
  1      0.1186000              1.0000000
D   1
  1      0.3730000              1.0000000

HYDROGEN    1.0   2.0306752995    .0000000000   -.2127855550
ccd

HYDROGEN    1.0   -2.0306752995    .0000000000   -.2127855550
ccd

!$END
