!H2O-Acetone
!H2O - Ab initio; Acetone - EFP
!EXCHANGE REPULSION =  0.0074821871 

 $CONTRL SCFTYP=RHF RUNTYP=energy MAXIT=30 MULT=1 ispher=0 $END
 $SYSTEM TIMLIM=525600 MWORDS=10 $END
 $BASIS GBASIS=N311 NGAUSS=6 NDFUNC=3 NPFUNC=2 NFFUNC=1
        DIFFSP=.T. DIFFS=.T. $END
 $INTGRL SCHWRZ=.F. $END
 $SCF DIRSCF=.F. $END
 $DATA
title
 C1
 O           8.0   3.4620249389  -0.4803660475   1.4897688110
 H           1.0   2.6837951840   0.0536697422   1.3918495441
 H           1.0   3.1820170444  -1.3789099834   1.5352214435
 $END
 $EFRAG
 ISCRELEC=0 ISCRPOL=1 ISCRDISP=1 COORD=CART QMDISP=1
 FRAGNAME=ACETO
 A01C              1.6694067828   2.7198059089   1.1111027703
 A02O              1.3493900366   1.5663671807   1.1742910192
 A03C              0.6356233527   3.8071257033   0.9405477082
 A04C              3.1137833070   3.1514172212   1.1979841363
 A05H              0.7041504427   4.5190093509   1.7579006945
 A06H              3.3841370172   3.7183771539   0.3119031385
 A07H              0.8219712094   4.3537059030   0.0205391736
 A08H             -0.3549150468   3.3753569971   0.9132931174
 A09H              3.2486368136   3.8074891929   2.0532551391
 A10H              3.7622189176   2.2922416768   1.2938433043
 $END

          RUNTYP=MAKEFP EFFECTIVE FRAGMENT POTENTIAL DATA FOLLOWS...
          ACETO   EFP GENERATED AT Mon Feb  6 14:32:11 2012
 $ACETO   
EFP DATA FOR ACETO    SCFTYP=RHF     ... GENERATED WITH BASIS SET=XXX
 COORDINATES (BOHR)
A01C      -0.7326089709   0.8872641458  -0.0804834298  12.0000000  6.0
A02O       1.0644259571  -0.1457734627  -0.9965469996  15.9949100  8.0
A03C      -2.9085717540   1.8027230032  -1.6804766291  12.0000000  6.0
A04C      -0.9403087542   1.3132650752   2.7316367098  12.0000000  6.0
A05H      -4.6136715127   0.8108625241  -1.1224594422   1.0078250  1.0
A06H      -1.2738642883   3.2991781157   3.1294618247   1.0078250  1.0
A07H      -3.2181655626   3.8091962625  -1.3756827245   1.0078250  1.0
A08H      -2.5184189266   1.4593030995  -3.6573945739   1.0078250  1.0
A09H      -2.5407176932   0.2516359125   3.4493168454   1.0078250  1.0
A10H       0.7736538194   0.7017119510   3.6622889642   1.0078250  1.0
BO21       0.1659084931   0.3707453415  -0.5385152147   0.0000000  0.0
BO31      -1.8205903625   1.3449935745  -0.8804800295   0.0000000  0.0
BO41      -0.8364588626   1.1002646105   1.3255766400   0.0000000  0.0
BO53      -3.7611216334   1.3067927637  -1.4014680356   0.0000000  0.0
BO64      -1.1070865213   2.3062215954   2.9305492672   0.0000000  0.0
BO73      -3.0633686583   2.8059596329  -1.5280796768   0.0000000  0.0
BO83      -2.7134953403   1.6310130514  -2.6689356015   0.0000000  0.0
BO94      -1.7405132237   0.7824504938   3.0904767776   0.0000000  0.0
BO104     -0.0833274674   1.0074885131   3.1969628370   0.0000000  0.0
 STOP
 MONOPOLES 
A01C      -5.0212522701   6.00000
A02O      -8.1431233257   8.00000
A03C      -5.5375842411   6.00000
A04C      -5.5370288497   6.00000
A05H      -0.5842884439   1.00000
A06H      -0.5875479510   1.00000
A07H      -0.5864006824   1.00000
A08H      -0.5809241777   1.00000
A09H      -0.5834161985   1.00000
A10H      -0.5810461427   1.00000
BO21      -0.8511258095   0.00000
BO31       0.2372695015   0.00000
BO41       0.0078450410   0.00000
BO53      -0.6042662333   0.00000
BO64      -0.5958097019   0.00000
BO73      -0.5958295502   0.00000
BO83      -0.6255849954   0.00000
BO94      -0.6042137625   0.00000
BO104     -0.6256722069   0.00000
 STOP
 DIPOLES 
A01C        0.6529883990   -0.3414766903   -0.3320322265
A02O       -0.2247851717    0.1327934812    0.1149979484
A03C       -0.1247441149    0.0183745625   -0.4492732697
A04C        0.2504252134   -0.0681056324    0.3842272166
A05H       -0.0403790767   -0.0254199251    0.0129683293
A06H       -0.0062518845    0.0481974114    0.0088868657
A07H       -0.0057021019    0.0485207898    0.0065729279
A08H        0.0133088973   -0.0091959946   -0.0403965111
A09H       -0.0377838392   -0.0269223228    0.0167349132
A10H        0.0386239722   -0.0140182860    0.0147722576
BO21       -0.2340241793    0.1333991136    0.1195092401
BO31       -0.3830953517    0.1809188566    0.2429195643
BO41       -0.1015954325    0.0608682157    0.3120000453
BO53        0.3152664072    0.1940581175   -0.1318043367
BO64        0.0693726614   -0.3861040454   -0.0432245984
BO73        0.0376283346   -0.3832560313   -0.0846743749
BO83       -0.0441543189    0.0530996525    0.3711400366
BO94        0.3171895307    0.2023058712   -0.1116791733
BO104      -0.3028070407    0.1068907035   -0.1979818145
 STOP
 QUADRUPOLES 
A01C       -3.5049895034   -3.0850708824   -4.2246908252    0.1934697435 >
           -0.3770820006    0.0550482627
A02O       -4.0462985809   -4.0066516149   -4.6672691214   -0.0428495464 >
           -0.3592469472    0.1107586657
A03C       -4.2328387959   -4.2080584673   -4.4559830985   -0.0223476940 >
           -0.1797025550    0.0741886803
A04C       -4.1878532641   -4.1987447044   -4.5058247204   -0.0475160259 >
           -0.1408992425    0.0354723306
A05H       -0.3469092374   -0.3464886179   -0.3430051067   -0.0019617893 >
            0.0019268916    0.0000225530
A06H       -0.3497103592   -0.3536353295   -0.3475476289    0.0000805210 >
            0.0008897249   -0.0007097936
A07H       -0.3479437494   -0.3522169757   -0.3463962063   -0.0000803012 >
            0.0011933093   -0.0007007968
A08H       -0.3342641954   -0.3340655493   -0.3330417455    0.0004208103 >
            0.0012008237   -0.0003527455
A09H       -0.3457815330   -0.3456894743   -0.3418591681   -0.0017252568 >
            0.0019605714    0.0005974792
A10H       -0.3349799727   -0.3342262818   -0.3328325777    0.0004131464 >
            0.0007371582   -0.0004829873
BO21       -0.3747178841   -0.7563603318    0.0313283921   -0.2393362381 >
            0.1929917611    0.0114892822
BO31        1.4598305792    1.4366909231    1.4991462535   -0.0549687757 >
           -0.2620979131    0.1174504925
BO41        0.6709289700    0.7617806560    0.5784796300    0.0243401175 >
           -0.2098715254    0.0745747102
BO53       -0.5251536238   -0.4734038237   -0.4495192299   -0.0431442558 >
            0.0313648505    0.0206234088
BO64       -0.4243646715   -0.5359096165   -0.4310116670    0.0238657530 >
            0.0091673288   -0.0196409769
BO73       -0.4314490089   -0.5370096923   -0.4230604518    0.0201361531 >
            0.0003395621   -0.0236762286
BO83       -0.4775610490   -0.4966598278   -0.5755177666   -0.0096297689 >
            0.0239677731   -0.0172923959
BO94       -0.5187554164   -0.4738540377   -0.4547464946   -0.0488522021 >
            0.0334976696    0.0140418087
BO104      -0.5553984147   -0.5049028570   -0.4901776667    0.0172532143 >
           -0.0423633194    0.0197368999
 STOP
 OCTUPOLES  
A01C        2.7739441135   -1.2705381768   -2.0326632174   -0.5455777158 >
           -0.0277632898    0.8431617391   -0.3576621318    1.0981416307 >
           -0.6567574405   -0.1620243673
A02O       -0.2649609391    0.1224742142    0.0982358068    0.1082303426 >
            0.0826696943   -0.0895869287    0.0453865716   -0.0811123446 >
            0.0568815942   -0.0353415665
A03C       -0.9917218113   -0.1149868262   -2.8966481124    0.2865181799 >
           -1.3189247770   -0.2269093192   -1.1423796680   -0.6240747230 >
            0.2554712723    0.0334725313
A04C        1.5489762810   -0.6970756337    3.4056188387    0.1018638429 >
            0.6854085631    0.6599941154    0.7931080102    0.5574478354 >
           -0.0336217347    0.0209107931
A05H       -0.0386591010   -0.0413075173    0.0494522880   -0.0141853661 >
            0.0161235263   -0.0129963747    0.0151667826   -0.0110104147 >
           -0.0139865651   -0.0001294032
A06H       -0.0164370229    0.0689601704   -0.0207038316    0.0228075941 >
           -0.0065955079   -0.0053952628   -0.0056455419   -0.0067396483 >
            0.0228924174    0.0000766472
A07H        0.0090621712    0.0628836671    0.0382634416    0.0205675844 >
            0.0121542647    0.0028546377    0.0117446023    0.0041752228 >
            0.0201014357   -0.0002749556
A08H        0.0211065126   -0.0116789823   -0.0308299830   -0.0035233874 >
           -0.0113213530    0.0070936932   -0.0109951137    0.0073753078 >
           -0.0037467732    0.0002973940
A09H       -0.0623369924   -0.0358842361   -0.0127774821   -0.0119778986 >
           -0.0034936373   -0.0207743500   -0.0028974186   -0.0224418195 >
           -0.0113579684    0.0005160876
A10H        0.0385043728   -0.0140984193    0.0037356164   -0.0046018998 >
            0.0005088660    0.0129152274    0.0010804834    0.0120475394 >
           -0.0040210557    0.0001535673
BO21       -0.9442292439    0.4476187047    0.3971373294    0.2714841230 >
            0.2408928483   -0.3146655296    0.1588509488   -0.2973134219 >
            0.1765509176   -0.0657452399
BO31       -2.2354701065    1.0338610769    1.7527581138    0.3384122937 >
            0.3568147089   -0.7334589110    0.4380668787   -0.9687784872 >
            0.4864452803    0.0078158282
BO41        0.0919478728    0.1999455404    2.4919347374   -0.0049715422 >
            0.7855533508    0.0145339366    0.8120707620   -0.0940170149 >
            0.1022479948    0.0172169486
BO53        0.9375196260    0.6282669915   -0.4307051348    0.2317166054 >
           -0.1561478221    0.3181535596   -0.1458492305    0.3082984846 >
            0.2091647533   -0.0088900880
BO64        0.1714013006   -1.2477504493   -0.0485879336   -0.3990579025 >
           -0.0128569406    0.0655423000   -0.0248603422    0.0566791064 >
           -0.3924272050    0.0014711456
BO73        0.0183493146   -1.2237699997   -0.2853965049   -0.3868161251 >
           -0.0920467667    0.0118802072   -0.1055640635    0.0096350098 >
           -0.3882532847    0.0037663951
BO83       -0.0531292437    0.1253478582    1.1568561423    0.0435253981 >
            0.3689703711   -0.0177942849    0.3671028811   -0.0291521341 >
            0.0525691405   -0.0030003539
BO94        0.9822713702    0.6463926041   -0.2758839115    0.2351601846 >
           -0.1027493275    0.3315748764   -0.1005015861    0.3185459024 >
            0.2147610249   -0.0103870683
BO104      -0.8831754702    0.2980356684   -0.6554572769    0.1144774076 >
           -0.2364995390   -0.2857766836   -0.2186137526   -0.2927500474 >
            0.1033413883    0.0069969625
 STOP
 POLARIZABLE POINTS
CT1   0.6177482933   0.6260367384  -0.7124014679
    3.6279816576    3.2879905108    1.9718436745   -1.4680243427 >
   -1.1702811944    0.7390094706   -1.1882469910   -1.1393425948 >
    0.8641563944
CT2  -1.1676907025   2.6527074704   2.9688654981
    2.3399804172    5.5164130533    3.4001094773   -0.5220383622 >
   -0.1969458060    0.8855238097   -0.4567113657   -0.1367664659 >
    1.3201607253
CT3  -3.0956109787   3.1491280305  -1.4525083315
    2.8999447224    5.8006902297    2.5941909096   -1.1375609652 >
    0.3415083306    0.1968704004   -0.7580286277    0.3147215980 >
   -0.0426922065
CT4  -1.8479379343   1.3644828124  -0.8840692367
    3.9604666657    1.8587337900    3.8510655872   -1.0437740385 >
    1.9982195955   -0.7231887994   -1.0586996058    1.9614802613 >
   -0.6958897092
CT5  -0.8500075512   1.1181079436   1.3514340686
    1.9005224997    1.5736502485    6.1938314323   -0.2264488328 >
    0.1764947890    0.4500571257   -0.2225969038    0.2085466727 >
    0.4156056370
CT6   1.4737031865  -0.3068714270  -0.5821229265
    2.7070784078    1.3665986059    1.4366514420   -0.8009594918 >
    0.7660232837   -0.3377118394   -0.8455869686    0.3851235523 >
   -0.1465984301
CT7  -4.0362743809   1.1255609970  -1.2830508985
    5.6027420773    3.0641888152    2.7009430645    1.3873317319 >
   -0.3089820684   -0.5424551645    1.0015345889   -0.0797752933 >
   -0.3818633759
CT8  -2.0202398065   0.5950638192   3.1831689309
    4.3026609669    3.1787648750    3.9188410507    1.3785042034 >
   -1.1449002509   -0.4881828124    1.2915150517   -1.4175826459 >
   -0.8742339170
CT9  -2.6506229925   1.5733990174  -3.0050139178
    2.5059974128    2.3311479484    5.9562688246   -0.1172205255 >
    0.0918782162    0.2499010233   -0.1410093357   -0.2652488904 >
    0.4126620607
CT10   0.2059355493   0.9042660765   3.3576988896
    4.4716155934    2.4969115898    3.8249203843   -0.7608132540 >
    1.4025463302   -0.4116633509   -0.7246519967    1.7688106318 >
   -0.5488197454
CT11   0.2083668387  -0.1675896638  -0.6165446077
    4.4331413940    2.4191316270    2.0657534295   -0.6802011111 >
   -1.4483445296    0.5297139502   -0.9310829227   -1.4731255963 >
    0.4174640162
CT12   1.0202194902  -0.1956447669  -1.5971273823
    1.3767099905    1.1784686976    2.9550108457   -0.2974823155 >
   -0.7644905811    0.6274640642   -0.2557028554   -0.3846341850 >
    0.4364320549
 STOP
 DYNAMIC POLARIZABLE POINTS
CT  1   0.6177482933   0.6260367384  -0.7124014679 -- FOR W= 0.002792I A.U.
    3.6278093191    3.2873693577    1.9721532113   -1.4684061491 >
   -1.1703307997    0.7389789726   -1.1886208149   -1.1406838234 >
    0.8652426922
CT  2  -1.1676907025   2.6527074704   2.9688654981
    2.3402441816    5.5174467106    3.4004370678   -0.5230236369 >
   -0.1968520115    0.8857277895   -0.4572553835   -0.1365857255 >
    1.3198046672
CT  3  -3.0956109787   3.1491280305  -1.4525083315
    2.8999284291    5.8007178963    2.5942647120   -1.1373505242 >
    0.3417672363    0.1968469891   -0.7583377956    0.3144751121 >
   -0.0414134481
CT  4  -1.8479379343   1.3644828124  -0.8840692367
    3.9578572838    1.8583844701    3.8488881244   -1.0421078542 >
    1.9965501382   -0.7227837381   -1.0565726937    1.9596956610 >
   -0.6952332032
CT  5  -0.8500075512   1.1181079436   1.3514340686
    1.8997911625    1.5740103860    6.1915870567   -0.2263928498 >
    0.1740577090    0.4500010555   -0.2214524169    0.2088006007 >
    0.4147986363
CT  6   1.4737031865  -0.3068714270  -0.5821229265
    2.7062722333    1.3664186181    1.4366650242   -0.8011203648 >
    0.7662266859   -0.3377632580   -0.8452259316    0.3848878845 >
   -0.1469123386
CT  7  -4.0362743809   1.1255609970  -1.2830508985
    5.6034098675    3.0644790823    2.7013037417    1.3874161689 >
   -0.3087420613   -0.5426840909    1.0023321528   -0.0809435460 >
   -0.3828251444
CT  8  -2.0202398065   0.5950638192   3.1831689309
    4.3038875778    3.1785888190    3.9194312966    1.3793311991 >
   -1.1451401776   -0.4885813117    1.2913500334   -1.4175121307 >
   -0.8743672367
CT  9  -2.6506229925   1.5733990174  -3.0050139178
    2.5060861893    2.3318293728    5.9569815749   -0.1172652906 >
    0.0916000540    0.2504696963   -0.1411248321   -0.2658195638 >
    0.4128379557
CT 10   0.2059355493   0.9042660765   3.3576988896
    4.4726653329    2.4975563394    3.8250966477   -0.7611748351 >
    1.4022347365   -0.4112655540   -0.7248226503    1.7700502431 >
   -0.5493834714
CT 11   0.2083668387  -0.1675896638  -0.6165446077
    4.4329970225    2.4188026029    2.0659425224   -0.6801718518 >
   -1.4487311059    0.5300934918   -0.9318908572   -1.4749449957 >
    0.4177998530
CT 12   1.0202194902  -0.1956447669  -1.5971273823
    1.3773148122    1.1780733654    2.9546247827   -0.2973252126 >
   -0.7646616386    0.6273544430   -0.2560020668   -0.3834463952 >
    0.4360282607
CT  1   0.6177482933   0.6260367384  -0.7124014679 -- FOR W= 0.015107I A.U.
    3.6231164319    3.2845521246    1.9705110083   -1.4655364997 >
   -1.1681605439    0.7377864983   -1.1865030562   -1.1385921399 >
    0.8637092342
CT  2  -1.1676907025   2.6527074704   2.9688654981
    2.3392777853    5.5133453224    3.3981302309   -0.5224081317 >
   -0.1962810626    0.8846673063   -0.4568548822   -0.1363660836 >
    1.3181791841
CT  3  -3.0956109787   3.1491280305  -1.4525083315
    2.8980427320    5.7962319762    2.5931950604   -1.1358322250 >
    0.3412225104    0.1968106343   -0.7574515701    0.3142238232 >
   -0.0412659789
CT  4  -1.8479379343   1.3644828124  -0.8840692367
    3.9549927227    1.8574720131    3.8457919933   -1.0412261914 >
    1.9943874625   -0.7219933561   -1.0556438084    1.9576479862 >
   -0.6945465877
CT  5  -0.8500075512   1.1181079436   1.3514340686
    1.8989039258    1.5733616178    6.1862488593   -0.2262464825 >
    0.1737280071    0.4496308183   -0.2213351186    0.2083623672 >
    0.4145514970
CT  6   1.4737031865  -0.3068714270  -0.5821229265
    2.7046421737    1.3659079296    1.4358578857   -0.8005327781 >
    0.7650821493   -0.3372443963   -0.8445981473    0.3841762385 >
   -0.1465659318
CT  7  -4.0362743809   1.1255609970  -1.2830508985
    5.5986463193    3.0627930145    2.7001415932    1.3860578291 >
   -0.3086798139   -0.5420519661    1.0017192261   -0.0809273202 >
   -0.3825382498
CT  8  -2.0202398065   0.5950638192   3.1831689309
    4.3009749920    3.1768236494    3.9164386005    1.3779633077 >
   -1.1435725162   -0.4884040163    1.2902038138   -1.4158146272 >
   -0.8733837983
CT  9  -2.6506229925   1.5733990174  -3.0050139178
    2.5051162734    2.3308804577    5.9525026551   -0.1172801785 >
    0.0912438936    0.2503550571   -0.1411077638   -0.2656352018 >
    0.4124871613
CT 10   0.2059355493   0.9042660765   3.3576988896
    4.4698484397    2.4964495873    3.8226209948   -0.7605705456 >
    1.4008526734   -0.4108427539   -0.7242701607    1.7681097961 >
   -0.5487601491
CT 11   0.2083668387  -0.1675896638  -0.6165446077
    4.4275709691    2.4167548074    2.0642214949   -0.6784522652 >
   -1.4463533877    0.5288894771   -0.9295596970   -1.4725040581 >
    0.4168676217
CT 12   1.0202194902  -0.1956447669  -1.5971273823
    1.3770716029    1.1777682480    2.9522243514   -0.2972971175 >
   -0.7641747299    0.6268536774   -0.2559920638   -0.3833915640 >
    0.4357057685
CT  1   0.6177482933   0.6260367384  -0.7124014679 -- FOR W= 0.039002I A.U.
    3.5959004210    3.2681699130    1.9609700395   -1.4489126755 >
   -1.1555866860    0.7308730122   -1.1742310628   -1.1264730515 >
    0.8548221752
CT  2  -1.1676907025   2.6527074704   2.9688654981
    2.3336281420    5.4894385812    3.3846844310   -0.5188292232 >
   -0.1929810044    0.8785051645   -0.4545209577   -0.1350905844 >
    1.3087311766
CT  3  -3.0956109787   3.1491280305  -1.4525083315
    2.8870575729    5.7700921008    2.5869314291   -1.1270121914 >
    0.3380608931    0.1965897672   -0.7523001577    0.3127504819 >
   -0.0404115717
CT  4  -1.8479379343   1.3644828124  -0.8840692367
    3.9383150936    1.8521521823    3.8277643756   -1.0360889509 >
    1.9818122659   -0.7173991522   -1.0502358091    1.9457475381 >
   -0.6905497518
CT  5  -0.8500075512   1.1181079436   1.3514340686
    1.8937196865    1.5695764596    6.1551869479   -0.2253910523 >
    0.1718129687    0.4474751176   -0.2206453670    0.2058099928 >
    0.4131049885
CT  6   1.4737031865  -0.3068714270  -0.5821229265
    2.6951418169    1.3629251990    1.4311798988   -0.7971098760 >
    0.7584510801   -0.3342369179   -0.8409373314    0.3800651850 >
   -0.1445722400
CT  7  -4.0362743809   1.1255609970  -1.2830508985
    5.5709171683    3.0529510102    2.6933382717    1.3781473938 >
   -0.3083042958   -0.5383757890    0.9981290619   -0.0808335313 >
   -0.3808591722
CT  8  -2.0202398065   0.5950638192   3.1831689309
    4.2839924726    3.1665196942    3.8990103370    1.3699966353 >
   -1.1344732183   -0.4873536996    1.2835214862   -1.4059472843 >
   -0.8676654345
CT  9  -2.6506229925   1.5733990174  -3.0050139178
    2.4994373017    2.3253309447    5.9263864443   -0.1173607645 >
    0.0891841924    0.2496794807   -0.1410024394   -0.2645558737 >
    0.4104395917
CT 10   0.2059355493   0.9042660765   3.3576988896
    4.4534033858    2.4899799082    3.8081820978   -0.7570421741 >
    1.3928012070   -0.4083798542   -0.7210425901    1.7568156967 >
   -0.5451322370
CT 11   0.2083668387  -0.1675896638  -0.6165446077
    4.3960849928    2.4048536567    2.0542196017   -0.6685028281 >
   -1.4325693753    0.5219186854   -0.9160668820   -1.4583538633 >
    0.4114715722
CT 12   1.0202194902  -0.1956447669  -1.5971273823
    1.3756332163    1.1759786455    2.9382863885   -0.2971178095 >
   -0.7613180417    0.6239316612   -0.2559227896   -0.3830500530 >
    0.4338315284
CT  1   0.6177482933   0.6260367384  -0.7124014679 -- FOR W= 0.077996I A.U.
    3.5039205975    3.2122406535    1.9285016265   -1.3929697305 >
   -1.1132527598    0.7075380914   -1.1328859037   -1.0856647637 >
    0.8248671505
CT  2  -1.1676907025   2.6527074704   2.9688654981
    2.3139485669    5.4070843708    3.3383736587   -0.5066159949 >
   -0.1819706241    0.8575263196   -0.4464885815   -0.1307593952 >
    1.2765271977
CT  3  -3.0956109787   3.1491280305  -1.4525083315
    2.8492963169    5.6801507113    2.5649837807   -1.0970146603 >
    0.3273447102    0.1957142684   -0.7347390090    0.3075688840 >
   -0.0375320032
CT  4  -1.8479379343   1.3644828124  -0.8840692367
    3.8811092030    1.8338080741    3.7659133718   -1.0184209242 >
    1.9388904426   -0.7017381445   -1.0316880800    1.9051947441 >
   -0.6768586561
CT  5  -0.8500075512   1.1181079436   1.3514340686
    1.8757013018    1.5564885905    6.0488707907   -0.2224119515 >
    0.1653011565    0.4400803666   -0.2181932674    0.1970538274 >
    0.4080541845
CT  6   1.4737031865  -0.3068714270  -0.5821229265
    2.6624268708    1.3525720681    1.4153952416   -0.7853390529 >
    0.7361211970   -0.3240930139   -0.8283058986    0.3663764848 >
   -0.1380174710
CT  7  -4.0362743809   1.1255609970  -1.2830508985
    5.4758706215    3.0188644259    2.6695239513    1.3509913012 >
   -0.3068483272   -0.5258212623    0.9855392520   -0.0805254959 >
   -0.3749912270
CT  8  -2.0202398065   0.5950638192   3.1831689309
    4.2254230241    3.1308299186    3.8391728433    1.3426416535 >
   -1.1036236460   -0.4835195083    1.2604895905   -1.3723040619 >
   -0.8481451010
CT  9  -2.6506229925   1.5733990174  -3.0050139178
    2.4795441911    2.3059742910    5.8363081456   -0.1175585691 >
    0.0822973948    0.2472589470   -0.1405646796   -0.2607781298 >
    0.4033513621
CT 10   0.2059355493   0.9042660765   3.3576988896
    4.3964242860    2.4674519541    3.7583308865   -0.7448118324 >
    1.3651254356   -0.3999168656   -0.7098338468    1.7181250387 >
   -0.5327053954
CT 11   0.2083668387  -0.1675896638  -0.6165446077
    4.2894458135    2.3643070905    2.0201469056   -0.6351771620 >
   -1.3860560297    0.4985120248   -0.8708082879   -1.4106080422 >
    0.3933685034
CT 12   1.0202194902  -0.1956447669  -1.5971273823
    1.3704069386    1.1696705676    2.8909518197   -0.2963050673 >
   -0.7512451647    0.6138277703   -0.2555425186   -0.3816003228 >
    0.4274347879
CT  1   0.6177482933   0.6260367384  -0.7124014679 -- FOR W= 0.138651I A.U.
    3.2697089509    3.0656461111    1.8441160924   -1.2523217051 >
   -1.0066832136    0.6483514482   -1.0285726419   -0.9828941024 >
    0.7492035425
CT  2  -1.1676907025   2.6527074704   2.9688654981
    2.2593961269    5.1858826725    3.2140086500   -0.4747024258 >
   -0.1549762855    0.8029943677   -0.4249741854   -0.1196049059 >
    1.1924865132
CT  3  -3.0956109787   3.1491280305  -1.4525083315
    2.7483889560    5.4393274766    2.5032746350   -1.0192528144 >
    0.2998515453    0.1925346106   -0.6889281098    0.2929495691 >
   -0.0301993108
CT  4  -1.8479379343   1.3644828124  -0.8840692367
    3.7290887529    1.7843533342    3.6016017237   -0.9712264114 >
    1.8265055090   -0.6608732720   -0.9824414389    1.7992897881 >
   -0.6407533658
CT  5  -0.8500075512   1.1181079436   1.3514340686
    1.8261686951    1.5209085799    5.7681410033   -0.2141276375 >
    0.1483966003    0.4204525010   -0.2110781824    0.1739748984 >
    0.3941115554
CT  6   1.4737031865  -0.3068714270  -0.5821229265
    2.5745614626    1.3241260349    1.3751293409   -0.7537637264 >
    0.6797768032   -0.2983963424   -0.7942161607    0.3329701852 >
   -0.1224586061
CT  7  -4.0362743809   1.1255609970  -1.2830508985
    5.2239684840    2.9259075689    2.6027425518    1.2787533209 >
   -0.3017637042   -0.4929102765    0.9501488765   -0.0798906018 >
   -0.3586895489
CT  8  -2.0202398065   0.5950638192   3.1831689309
    4.0675951986    3.0334714118    3.6797972231    1.2698794771 >
   -1.0243993279   -0.4716654672    1.1985663281   -1.2844292472 >
   -0.7969758832
CT  9  -2.6506229925   1.5733990174  -3.0050139178
    2.4236133400    2.2521437974    5.5935625304   -0.1175046162 >
    0.0652892617    0.2401036884   -0.1388433975   -0.2502109286 >
    0.3840864436
CT 10   0.2059355493   0.9042660765   3.3576988896
    4.2409743532    2.4051035937    3.6235461857   -0.7114420933 >
    1.2912841407   -0.3773653299   -0.6791026942    1.6158139206 >
   -0.4998701214
CT 11   0.2083668387  -0.1675896638  -0.6165446077
    4.0162387395    2.2586416935    1.9313688368   -0.5525390526 >
   -1.2681710807    0.4400547764   -0.7581347920   -1.2896255598 >
    0.3482631747
CT 12   1.0202194902  -0.1956447669  -1.5971273823
    1.3542914117    1.1516604923    2.7684600501   -0.2927788499 >
   -0.7226111594    0.5864410161   -0.2534742749   -0.3758481805 >
    0.4105045633
CT  1   0.6177482933   0.6260367384  -0.7124014679 -- FOR W= 0.233223I A.U.
    2.8018867389    2.7521119260    1.6665283266   -0.9806715502 >
   -0.8002621894    0.5313967328   -0.8250964110   -0.7836081430 >
    0.6013414193
CT  2  -1.1676907025   2.6527074704   2.9688654981
    2.1272272021    4.6876979589    2.9334650531   -0.4075192730 >
   -0.1061226576    0.6888484027   -0.3768902999   -0.0969459903 >
    1.0146382890
CT  3  -3.0956109787   3.1491280305  -1.4525083315
    2.5226283715    4.9004489127    2.3504230361   -0.8574969809 >
    0.2441662414    0.1815820600   -0.5923141805    0.2573738896 >
   -0.0150504451
CT  4  -1.8479379343   1.3644828124  -0.8840692367
    3.3928905939    1.6713317804    3.2400144734   -0.8664098066 >
    1.5872038668   -0.5744727464   -0.8740476653    1.5735440982 >
   -0.5630320442
CT  5  -0.8500075512   1.1181079436   1.3514340686
    1.7092047049    1.4379111781    5.1571894368   -0.1939776311 >
    0.1129513436    0.3773627693   -0.1927911989    0.1255330663 >
    0.3614378036
CT  6   1.4737031865  -0.3068714270  -0.5821229265
    2.3756166373    1.2562966173    1.2917403439   -0.6820926088 >
    0.5690714246   -0.2476027696   -0.7165260664    0.2724898637 >
   -0.0954929394
CT  7  -4.0362743809   1.1255609970  -1.2830508985
    4.6720642874    2.7090700799    2.4382786418    1.1196902413 >
   -0.2848902678   -0.4228133201    0.8635273164   -0.0798255987 >
   -0.3201642483
CT  8  -2.0202398065   0.5950638192   3.1831689309
    3.7093639466    2.8061947239    3.3262949395    1.1101285611 >
   -0.8632850970   -0.4378944608    1.0592787741   -1.0981307409 >
   -0.6874293607
CT  9  -2.6506229925   1.5733990174  -3.0050139178
    2.2846544887    2.1210562880    5.0435159950   -0.1145899508 >
    0.0337235827    0.2211986704   -0.1323905777   -0.2246565350 >
    0.3399275310
CT 10   0.2059355493   0.9042660765   3.3576988896
    3.8794497555    2.2549618729    3.3149766851   -0.6342303879 >
    1.1280542508   -0.3277362318   -0.6073626578    1.3936598416 >
   -0.4288104264
CT 11   0.2083668387  -0.1675896638  -0.6165446077
    3.4625520557    2.0354359671    1.7437327638   -0.3984504686 >
   -1.0357974169    0.3291711469   -0.5462104635   -1.0513039287 >
    0.2631028759
CT 12   1.0202194902  -0.1956447669  -1.5971273823
    1.3071549640    1.1055962438    2.5114151132   -0.2789388259 >
   -0.6517889035    0.5238870832   -0.2437502014   -0.3551085049 >
    0.3724512921
CT  1   0.6177482933   0.6260367384  -0.7124014679 -- FOR W= 0.385897I A.U.
    2.1020220783    2.2168774279    1.3684106949   -0.6068582711 >
   -0.5144776255    0.3614822106   -0.5374562613   -0.5068681797 >
    0.3924051336
CT  2  -1.1676907025   2.6527074704   2.9688654981
    1.8470317215    3.7669521040    2.4090249808   -0.2987700802 >
   -0.0488465191    0.5035188173   -0.2898452780   -0.0632037984 >
    0.7206548565
CT  3  -3.0956109787   3.1491280305  -1.4525083315
    2.1025518705    3.9146986943    2.0213118846   -0.5990140620 >
    0.1599589990    0.1515044728   -0.4335822221    0.1876015598 >
    0.0098028100
CT  4  -1.8479379343   1.3644828124  -0.8840692367
    2.7806255971    1.4510311998    2.5954044235   -0.6771855741 >
    1.1858793540   -0.4309041356   -0.6804196797    1.1894280180 >
   -0.4298371960
CT  5  -0.8500075512   1.1181079436   1.3514340686
    1.4743943130    1.2697460865    4.0828716194   -0.1529679463 >
    0.0563202427    0.3004125837   -0.1536630549    0.0523857733 >
    0.2971665673
CT  6   1.4737031865  -0.3068714270  -0.5821229265
    1.9975429778    1.1147717627    1.1441391494   -0.5458863176 >
    0.4070541645   -0.1731874397   -0.5696257705    0.1974875889 >
   -0.0645142244
CT  7  -4.0362743809   1.1255609970  -1.2830508985
    3.6943960677    2.2805960855    2.0880567094    0.8393291608 >
   -0.2392435300   -0.3063795794    0.6869139786   -0.0829297613 >
   -0.2472349514
CT  8  -2.0202398065   0.5950638192   3.1831689309
    3.0356723379    2.3568235326    2.6845506607    0.8313562397 >
   -0.6154245966   -0.3572510850    0.8061890600   -0.7894228420 >
   -0.5016711094
CT  9  -2.6506229925   1.5733990174  -3.0050139178
    1.9816867065    1.8419650991    4.0213202898   -0.1010179526 >
   -0.0064169729    0.1799601061   -0.1130183285   -0.1742543106 >
    0.2580839462
CT 10   0.2059355493   0.9042660765   3.3576988896
    3.1780867230    1.9418898050    2.7249852014   -0.4884017301 >
    0.8405321018   -0.2414936873   -0.4704215289    1.0128566514 >
   -0.3081812551
CT 11   0.2083668387  -0.1675896638  -0.6165446077
    2.6108625731    1.6611975780    1.4273160030   -0.2029245751 >
   -0.7008981166    0.1835752104   -0.2738616093   -0.7085224341 >
    0.1517201255
CT 12   1.0202194902  -0.1956447669  -1.5971273823
    1.1822598484    0.9999799144    2.0745839495   -0.2371317452 >