!H2O-Methanol
!Methanol - Ab initio; H2O - EFP
!EXCHANGE REPULSION =   0.0107926301 

 $CONTRL SCFTYP=RHF RUNTYP=energy MAXIT=30 MULT=1 ispher=0 $END
 $SYSTEM TIMLIM=525600 MWORDS=50 $END
 $BASIS GBASIS=N311 NGAUSS=6 NDFUNC=3 NFFUNC=1 NPFUNC=2
        DIFFSP=.T. DIFFS=.T.  $END
 $INTGRL SCHWRZ=.F. $END
 $SCF DIRSCF=.F. $END
 $DATA
title
 C1
 O           8.0  -0.1589788400   1.6226038153   0.5830954572
 C           6.0  -0.8225197362   2.7115179916  -0.0129519789
 H           1.0  -1.5524293633   2.3022656601  -0.6966306686
 H           1.0  -1.3364376695   3.3128984190   0.7304910526
 H           1.0  -0.1338735412   3.3378629402  -0.5710012742
 H           1.0   0.5036848903   1.9235049483   1.1826615745
 $END
 $EFRAG
 ISCRELEC=0 ISCRPOL=1 ISCRDISP=1 COORD=CART QMDISP=1
 FRAGNAME=H2O
 A01O              0.6105398550  -0.6958902898  -1.0927962906
 A02H              0.3582018389   0.0334309320  -0.5414853137
 A03H              0.1531925660  -1.4544244167  -0.7711825583
 $END

          RUNTYP=MAKEFP EFFECTIVE FRAGMENT POTENTIAL DATA FOLLOWS...
          H2O     EFP GENERATED AT Tue Jun 25 15:12:40 2013
 $H2O     
EFP DATA FOR H2O      SCFTYP=RHF     ... GENERATED WITH BASIS SET=XXX
 COORDINATES (BOHR)
A01O      -0.9321262407   0.6657504655  -0.0153445750  15.9949100  8.0
A02H       0.2794526791   1.9608363766  -0.2521272413   1.0078250  1.0
A03H      -0.2306788513  -0.8273976265  -0.7079480468   1.0078250  1.0
BO21      -0.3263367808   1.3132934211  -0.1337359082   0.0000000  0.0
BO31      -0.5814025460  -0.0808235805  -0.3616463109   0.0000000  0.0
 STOP
 MONOPOLES 
A01O      -8.1254763329   8.00000
A02H      -0.6426806321   1.00000
A03H      -0.6426824402   1.00000
BO21      -0.2834436440   0.00000
BO31      -0.3057169507   0.00000
 STOP
 DIPOLES 
A01O        0.7333334643   -0.0759272274   -0.3562686150
A02H        0.0610753731    0.0861643062   -0.0067648848
A03H        0.0278619209   -0.0953726573   -0.0364427084
BO21       -0.3030601117   -0.2096745298    0.0875305663
BO31       -0.2288800371    0.2489282648    0.1669783530
 STOP
 QUADRUPOLES 
A01O       -4.0478178198   -3.6270714214   -4.5569399499    0.1346229447 >
           -0.2858811356    0.2140677258
A02H       -0.3666945661   -0.3742227319   -0.3793497055    0.0067072393 >
           -0.0050901675   -0.0013173687
A03H       -0.3714827859   -0.3715137931   -0.3772718861   -0.0061291800 >
           -0.0060662406    0.0052607342
BO21        0.0732455678    0.0840745496   -0.0395707379    0.1069819964 >
           -0.0299065848   -0.0161916938
BO31       -0.0164382120    0.0947791499   -0.0274590531   -0.0773870467 >
           -0.0416302682    0.0752475405
 STOP
 OCTUPOLES  
A01O        1.8227088362   -0.2091453478   -0.8420956592   -0.0316354184 >
           -0.3257357515    0.6701018421   -0.3311402287    0.5926319186 >
           -0.0786754153    0.0133907173
A02H        0.0711632081    0.1311681538   -0.0024458561    0.0390320152 >
            0.0015891192    0.0202483088    0.0002701418    0.0260837645 >
            0.0457376030    0.0016876617
A03H        0.0244567226   -0.1385197080   -0.0482781834   -0.0460623991 >
           -0.0141893627    0.0038060623   -0.0113133075    0.0073178928 >
           -0.0472045910   -0.0031296072
BO21       -0.8934808603   -0.5581423242    0.2690774648   -0.2074760428 >
            0.0956306168   -0.3209204971    0.0938654312   -0.2875148339 >
           -0.1734173523    0.0086466285
BO31       -0.6804868755    0.6934836591    0.4731223827    0.2247936496 >
            0.1626249983   -0.2546734559    0.1839269874   -0.2306013165 >
            0.2252330733   -0.0134636693
 STOP
 POLARIZABLE POINTS
CT1  -0.5194998615  -0.1213801752  -0.4001763603
    1.2620129468    2.8502412668    1.2033377994   -0.7513730462 >
   -0.4022322497    0.9121299897   -0.8740923828   -0.4326577941 >
    0.8555147761
CT2  -0.2521718747   1.3397611008  -0.1613089572
    2.0552387084    2.4015562825    0.8590047761    1.2524567539 >
   -0.2709592849   -0.2340016427    1.3750539182   -0.2405355650 >
   -0.1778111709
CT3  -1.3767206615   0.7998713882  -0.3381896737
    2.7567993048    1.5608773593    1.7081712703   -0.3846050820 >
    0.8948628189   -0.2050424490   -0.3999841449    0.9893696803 >
   -0.2225248108
CT4  -0.9714139550   0.5817291213   0.5425788858
    1.2231053783    1.4754490314    3.3273845147    0.0920811208 >
   -0.3045835704   -0.2500640305    0.1072076823   -0.3990734164 >
   -0.2332093008
 STOP
 DYNAMIC POLARIZABLE POINTS
CT  1  -0.5194998615  -0.1213801752  -0.4001763603 -- FOR W= 0.002792I A.U.
    1.2619765972    2.8501107625    1.2032164641   -0.7512883870 >
   -0.4022200922    0.9118947381   -0.8740645092   -0.4326281402 >
    0.8553953243
CT  2  -0.2521718747   1.3397611008  -0.1613089572
    2.0550795153    2.4013178168    0.8589424990    1.2522961574 >
   -0.2709513391   -0.2342594533    1.3750727043   -0.2405424775 >
   -0.1777601266
CT  3  -1.3767206615   0.7998713882  -0.3381896737
    2.7568249507    1.5610620615    1.7081874245   -0.3845893220 >
    0.8948387054   -0.2052196252   -0.4000462606    0.9893842884 >
   -0.2225168902
CT  4  -0.9714139550   0.5817291213   0.5425788858
    1.2230786625    1.4756004694    3.3273971135    0.0920956849 >
   -0.3045417909   -0.2504927814    0.1075521954   -0.3990881885 >
   -0.2331954314
CT  1  -0.5194998615  -0.1213801752  -0.4001763603 -- FOR W= 0.015107I A.U.
    1.2615427916    2.8486262221    1.2027779581   -0.7504763612 >
   -0.4018745676    0.9112507042   -0.8733993892   -0.4323190016 >
    0.8546836914
CT  2  -0.2521718747   1.3397611008  -0.1613089572
    2.0539818818    2.4002089125    0.8587921499    1.2511815157 >
   -0.2707775210   -0.2340590503    1.3741049693   -0.2403322758 >
   -0.1774921226
CT  3  -1.3767206615   0.7998713882  -0.3381896737
    2.7546258761    1.5604106817    1.7072006093   -0.3841377033 >
    0.8939687413   -0.2049821766   -0.3994745624    0.9877798118 >
   -0.2221450598
CT  4  -0.9714139550   0.5817291213   0.5425788858
    1.2227998837    1.4750560892    3.3243830014    0.0920512093 >
   -0.3045262355   -0.2500859200    0.1073876397   -0.3983381182 >
   -0.2329229528
CT  1  -0.5194998615  -0.1213801752  -0.4001763603 -- FOR W= 0.039002I A.U.
    1.2590122146    2.8399592025    1.2002211005   -0.7457549390 >
   -0.3998628860    0.9074918099   -0.8695188852   -0.4305155997 >
    0.8505378471
CT  2  -0.2521718747   1.3397611008  -0.1613089572
    2.0475831626    2.3937307308    0.8579143903    1.2446913055 >
   -0.2697626355   -0.2328904390    1.3684556800   -0.2391091257 >
   -0.1759365514
CT  3  -1.3767206615   0.7998713882  -0.3381896737
    2.7418521397    1.5566111177    1.7014611809   -0.3815168294 >
    0.8889103336   -0.2036037046   -0.3961636002    0.9785002214 >
   -0.2199943072
CT  4  -0.9714139550   0.5817291213   0.5425788858
    1.2211590104    1.4718768521    3.3068903799    0.0917899200 >
   -0.3044137380   -0.2477320728    0.1064362595   -0.3940044229 >
   -0.2313413964
CT  1  -0.5194998615  -0.1213801752  -0.4001763603 -- FOR W= 0.077996I A.U.
    1.2502678675    2.8099236818    1.1914006487   -0.7296441240 >
   -0.3929637896    0.8944803989   -0.8561054353   -0.4242845917 >
    0.8362852416
CT  2  -0.2521718747   1.3397611008  -0.1613089572
    2.0255305288    2.3712258763    0.8548708524    1.2224244605 >
   -0.2662445077   -0.2288587328    1.3488862085   -0.2349229604 >
   -0.1706636164
CT  3  -1.3767206615   0.7998713882  -0.3381896737
    2.6984149054    1.5434844312    1.6818466415   -0.3726363020 >
    0.8716452306   -0.1989262915   -0.3850302359    0.9474548044 >
   -0.2127957353
CT  4  -0.9714139550   0.5817291213   0.5425788858
    1.2153038445    1.4608442500    3.2475996735    0.0908641556 >
   -0.3037535546   -0.2398479017    0.1032576498   -0.3795638742 >
   -0.2259784182
CT  1  -0.5194998615  -0.1213801752  -0.4001763603 -- FOR W= 0.138651I A.U.
    1.2265389084    2.7278747444    1.1675749292   -0.6875267181 >
   -0.3746662444    0.8590682410   -0.8197407847   -0.4074119053 >
    0.7982259641
CT  2  -0.2521718747   1.3397611008  -0.1613089572
    1.9661866801    2.3093300956    0.8465049998    1.1633034855 >
   -0.2566318922   -0.2179865234    1.2955180052   -0.2238856076 >
   -0.1571442090
CT  3  -1.3767206615   0.7998713882  -0.3381896737
    2.5857398935    1.5078810054    1.6301811854   -0.3498442843 >
    0.8264156705   -0.1868662252   -0.3570509711    0.8704955251 >
   -0.1949305975
CT  4  -0.9714139550   0.5817291213   0.5425788858
    1.1981237735    1.4305618242    3.0951182093    0.0882015098 >
   -0.3001498009   -0.2202407036    0.0954077412   -0.3442302797 >
   -0.2121763700
CT  1  -0.5194998615  -0.1213801752  -0.4001763603 -- FOR W= 0.233223I A.U.
    1.1713258542    2.5357685670    1.1127126463   -0.5985313060 >
   -0.3346422040    0.7770722372   -0.7362664619   -0.3687553854 >
    0.7136895526
CT  2  -0.2521718747   1.3397611008  -0.1613089572
    1.8314968752    2.1621969479    0.8261423938    1.0336958197 >
   -0.2341767158   -0.1933292241    1.1714314350   -0.2000631225 >
   -0.1299463831
CT  3  -1.3767206615   0.7998713882  -0.3381896737
    2.3494482759    1.4251993920    1.5172796475   -0.3033678950 >
    0.7297512934   -0.1619440211   -0.3025430947    0.7247036341 >
   -0.1610203185
CT  4  -0.9714139550   0.5817291213   0.5425788858
    1.1526594868    1.3585131175    2.7807561765    0.0814776526 >
   -0.2849526602   -0.1828493925    0.0806523909   -0.2799054132 >
   -0.1837732524
CT  1  -0.5194998615  -0.1213801752  -0.4001763603 -- FOR W= 0.385897I A.U.
    1.0586837640    2.1539193563    1.0030914628   -0.4529437074 >
   -0.2643041534    0.6191850892   -0.5781492781   -0.2953141933 >
    0.5615684729
CT  2  -0.2521718747   1.3397611008  -0.1613089572
    1.5749546414    1.8617758656    0.7789862657    0.8060076256 >
   -0.1900697724   -0.1477443044    0.9312135808   -0.1590595641 >
   -0.0901274623
CT  3  -1.3767206615   0.7998713882  -0.3381896737
    1.9541617414    1.2587636481    1.3106423459   -0.2307992460 >
    0.5654473078   -0.1218811039   -0.2236601110    0.5217760498 >
   -0.1138910546
CT  4  -0.9714139550   0.5817291213   0.5425788858
    1.0472713781    1.2082304348    2.2680667516    0.0673392713 >
   -0.2433109368   -0.1304321958    0.0601997508   -0.1996398475 >
   -0.1384224714
CT  1  -0.5194998615  -0.1213801752  -0.4001763603 -- FOR W= 0.649114I A.U.
    0.8559557240    1.5524153148    0.8117452055   -0.2800441410 >
   -0.1702350171    0.3902831426   -0.3552908288   -0.1888716286 >
    0.3556564810
CT  2  -0.2521718747   1.3397611008  -0.1613089572
    1.1777237657    1.3703347449    0.6720710399    0.5073911805 >
   -0.1232772196   -0.0864260201    0.5826380433   -0.1046405985 >
   -0.0517992174
CT  3  -1.3767206615   0.7998713882  -0.3381896737
    1.4243401885    0.9751337834    0.9957620719   -0.1474183883 >
    0.3565115187   -0.0748092131   -0.1407915442    0.3159748867 >
   -0.0673927152
CT  4  -0.9714139550   0.5817291213   0.5425788858
    0.8455049474    0.9428796929    1.6068514067    0.0449427062 >
   -0.1723521843   -0.0779503401    0.0383156869   -0.1318155619 >
   -0.0853669792
CT  1  -0.5194998615  -0.1213801752  -0.4001763603 -- FOR W= 1.153904I A.U.
    0.5502966756    0.8587260582    0.5267994177   -0.1323753798 >
   -0.0801115544    0.1715175294   -0.1513696152   -0.0848159269 >
    0.1627768331
CT  2  -0.2521718747   1.3397611008  -0.1613089572
    0.6939396592    0.7774413100    0.4644465858    0.2337472982 >
   -0.0555331949   -0.0345767911    0.2527415293   -0.0508288331 >
   -0.0258360885
CT  3  -1.3767206615   0.7998713882  -0.3381896737
    0.8289673264    0.5905905640    0.6042012438   -0.0749934963 >
    0.1703757318   -0.0365486507   -0.0727274334    0.1565144183 >
   -0.0340126274
CT  4  -0.9714139550   0.5817291213   0.5425788858
    0.5376428180    0.5743568456    0.9117590749    0.0207514490 >
   -0.0892576486   -0.0393263238    0.0184853903   -0.0753963243 >
   -0.0418623533
CT  1  -0.5194998615  -0.1213801752  -0.4001763603 -- FOR W= 2.307592I A.U.
    0.2298903147    0.3135029546    0.2222532535   -0.0412429286 >
   -0.0242150555    0.0470122870   -0.0407857305   -0.0241018121 >
    0.0472226453
CT  2  -0.2521718747   1.3397611008  -0.1613089572
    0.2707390463    0.2903870864    0.2045215135    0.0687328889 >
   -0.0157744111   -0.0089002698    0.0682756696   -0.0158876397 >
   -0.0091106517
CT  3  -1.3767206615   0.7998713882  -0.3381896737
    0.3184946976    0.2334878837    0.2438525312   -0.0261104376 >
    0.0568595981   -0.0132252716   -0.0258949024    0.0555412632 >
   -0.0129840795
CT  4  -0.9714139550   0.5817291213   0.5425788858
    0.2197142341    0.2279833606    0.3481372607    0.0058013020 >
   -0.0277935195   -0.0147858307    0.0055857880   -0.0264751994 >
   -0.0150269992
CT  1  -0.5194998615  -0.1213801752  -0.4001763603 -- FOR W= 5.957643I A.U.
    0.0465870264    0.0580844956    0.0452384904   -0.0062996759 >
   -0.0037318413    0.0066750007   -0.0057774170   -0.0036024885 >
    0.0069153214
CT  2  -0.2521718747   1.3397611008  -0.1613089572
    0.0525097558    0.0547328268    0.0426675105    0.0101019472 >
   -0.0023950770   -0.0012220633    0.0095796849   -0.0025244231 >
   -0.0014623902
CT  3  -1.3767206615   0.7998713882  -0.3381896737
    0.0619526200    0.0466845547    0.0495236964   -0.0047144429 >
    0.0103189385   -0.0025612402   -0.0047047151    0.0102594416 >
   -0.0025503555
CT  4  -0.9714139550   0.5817291213   0.5425788858
    0.0445763016    0.0457162600    0.0678682592    0.0008709163 >
   -0.0043998519   -0.0028672975    0.0008611919   -0.0043403618 >
   -0.0028781761
CT  1  -0.5194998615  -0.1213801752  -0.4001763603 -- FOR W=32.239080I A.U.
    0.0017957127    0.0021730586    0.0017493677   -0.0002131175 >
   -0.0001260326    0.0002214025   -0.0001923635   -0.0001208922 >
    0.0002309526
CT  2  -0.2521718747   1.3397611008  -0.1613089572
    0.0019934869    0.0020611375    0.0016635159    0.0003378879 >
   -0.0000805738   -0.0000407747    0.0003171338   -0.0000857138 >
   -0.0000503250
CT  3  -1.3767206615   0.7998713882  -0.3381896737
    0.0024100243    0.0018366111    0.0019550913   -0.0001767782 >
    0.0003855455   -0.0000978055   -0.0001766600    0.0003848227 >
   -0.0000976732
CT  4  -0.9714139550   0.5817291213   0.5425788858
    0.0017653150    0.0018006848    0.0026357254    0.0000302113 >
   -0.0001590776   -0.0001094327    0.0000300932   -0.0001583550 >
   -0.0001095647
 STOP
 PROJECTION BASIS SET
A01O        -0.9321262407   0.6657504655  -0.0153445750    6.0
   S          6
     1      8588.5000000000     1.20501289
     2      1297.2300000000     2.21620477
     3       299.2960000000     3.62745250
     4        87.3771000000     4.88845231
     5        25.6789000000     4.83572052
     6         3.7400400000     0.53822949
   L          3
     7        42.1175000000     1.34195780     5.58401753
     8         9.6283700000     3.58711431     5.73336569
     9         2.8533200000    -0.00512347     4.33295474
   L          1
    10         0.9056610000     0.66165918     1.25935210
   L          1
    11         0.2556110000     0.25620922     0.25906844
   L          1
    12         0.0845000000     0.11169986     0.06493980
   D          1
    13         5.1680000000    29.15572464
   D          1
    14         1.2920000000     2.57702633
   D          1
    15         0.3230000000     0.22777910
   F          1
    16         1.4000000000     3.13864741
  
A02H         0.2794526791   1.9608363766  -0.2521272413    1.0
   S          3
    17        33.8650000000     0.25506932
    18         5.0947900000     0.46010866
    19         1.1587900000     0.67832145
   S          1
    20         0.3258400000     0.30737135
   S          1
    21         0.1027410000     0.12933556
   S          1
    22         0.0360000000     0.05890294
   P          1
    23         1.5000000000     2.36621477
   P          1
    24         0.3750000000     0.41829163
  
A03H        -0.2306788513  -0.8273976265  -0.7079480468    1.0
   S          3
    25        33.8650000000     0.25506932
    26         5.0947900000     0.46010866
    27         1.1587900000     0.67832145
   S          1
    28         0.3258400000     0.30737135
   S          1
    29         0.1027410000     0.12933556
   S          1
    30         0.0360000000     0.05890294
   P          1
    31         1.5000000000     2.36621477
   P          1
    32         0.3750000000     0.41829163
  
 STOP
 MULTIPLICITY    1
 STOP
 PROJECTION WAVEFUNCTION      4     65
 1  1 5.02379753E-02 8.91240609E-02-8.34375370E-02 1.70952271E-01 8.07359766E-02
 1  2-2.37267958E-01-1.27529677E-01 2.54965983E-01 1.21833936E-01-1.19524059E-01
 1  3-8.99847004E-02 1.21299048E-01 7.14508575E-02 1.94729457E-02-1.50533034E-02
 1  4 8.37695626E-03 9.00182173E-03 4.36065489E-03 3.34116788E-03 4.33992058E-03
 1  5 1.78138813E-03 7.28826448E-04-1.26611984E-03 1.24840458E-02 5.46119767E-03
 1  6 1.51801166E-02 1.53315611E-02 8.29542170E-03-1.14846912E-02 1.33653497E-02
 1  7 3.42255193E-02 2.24121248E-02-2.14022054E-03 4.83889654E-03 4.06098911E-03
 1  8-2.01382343E-03 6.54290538E-03-6.75348986E-04 1.29947244E-04 1.95937607E-03
 1  9-1.84449936E-03 3.69583448E-03-7.99148885E-04 3.35013191E-04-1.53091272E-03
 1 10 1.63266946E-02 5.79762553E-02 1.90543487E-02-5.20291149E-04-3.69584293E-03
 1 11 4.84851796E-03 2.90157455E-03-1.30703213E-02-3.13889679E-04 5.93689188E-03
 1 12-1.91857586E-01-2.97146193E-01-6.72265272E-02 1.01735935E-03 6.38076307E-03
 1 13-1.51493406E-02-6.68839167E-03 2.01303616E-02-4.56940316E-02-2.05807707E-02
 2  1-5.02378824E-02-8.91238925E-02 1.41726280E-01 1.47639590E-01-2.86525200E-02
 2  2 2.37267347E-01 2.14349439E-01 2.19569068E-01-4.42568840E-02 1.19525885E-01
 2  3 1.30199684E-01 9.85025576E-02-3.55180646E-02-1.94728081E-02 1.75018964E-02
 2  4 5.00626084E-03-6.81398211E-03-3.13203922E-03-4.03642867E-03-4.87324152E-03
 2  5 2.02220833E-03-4.39612769E-04-6.83051135E-04-1.92272098E-03-1.14378124E-02
 2  6-1.97647214E-02 1.73647792E-02-5.80932138E-03-5.27068326E-03-1.67716663E-02
 2  7-3.22979913E-02-2.09336573E-02-8.40495424E-03-5.64077695E-03 1.34297453E-03
 2  8 2.85998344E-03 4.97561753E-03 2.03717011E-04 2.28442435E-03-2.30735871E-03
 2  9 4.67901751E-03 7.32604185E-05-4.99121138E-05-1.14663576E-03-1.46362625E-04
 2 10 1.91857133E-01 2.97145407E-01 6.72269295E-02-1.01734609E-03-1.15838395E-02
 2 11-1.32893645E-02 2.03920835E-03-3.57910545E-02-3.99040507E-02 6.58707560E-03
 2 12-1.63266036E-02-5.79764467E-02-1.90543604E-02 5.20240959E-04 5.29961462E-03
 2 13 3.91720573E-03-1.46856267E-03 1.24716848E-02-2.95842891E-03-6.47189100E-03
 3  1 6.64333236E-02 1.22452308E-01 2.03351934E-01-5.73522550E-02 1.23240292E-01
 3  2-3.36393057E-01 2.97711381E-01-8.50446270E-02 1.87031283E-01-4.83419810E-01
 3  3 2.49901625E-01-7.74342691E-02 1.93987502E-01-6.84591530E-02 4.30430516E-02
 3  4-1.41419620E-02 3.83339639E-02 7.55336924E-03 6.83355719E-03 5.81327024E-03
 3  5-1.38622777E-04-7.27070861E-05 2.07295067E-04 3.29541239E-02 1.85391141E-02
 3  6 1.50245782E-02-3.35497083E-03 1.26911188E-03 3.39967071E-04 5.74111518E-02
 3  7 2.43193761E-02 2.94747695E-02-8.16828085E-03 5.12423702E-03-2.21424003E-03
 3  8 6.10148186E-03-3.23433293E-03 2.28400349E-03-2.03971754E-04 1.60602734E-04
 3  9 3.09667557E-03 4.48565672E-03-7.86820437E-04 1.36247038E-03 1.90656853E-03
 3 10 1.20723121E-02 7.83954117E-02 3.67564481E-02 1.24361541E-03 7.67602730E-03
 3 11-3.01688377E-03 5.26016266E-03-1.49856339E-03-2.09503670E-02 1.21037920E-02
 3 12 1.20722327E-02 7.83962073E-02 3.67563576E-02 1.24357382E-03 7.93580930E-03
 3 13-1.59724487E-03 5.49227184E-03 5.14381372E-03 1.53558324E-02 1.80392445E-02
 4  1 6.64334501E-02 1.22452552E-01 3.63418294E-02 3.25350504E-02-2.39687509E-01
 4  2-3.36393751E-01 4.82369909E-02 4.92261681E-02-3.55098694E-01-4.83421504E-01
 4  3 1.26656424E-02 5.02495881E-02-3.21546533E-01-6.84595074E-02-1.52045378E-03
 4  4 9.84276205E-03-5.85062570E-02 6.60650236E-03 6.78080923E-03 6.81293372E-03
 4  5 2.12211888E-04-9.95106710E-04 1.87354973E-04 2.12908811E-02 1.78892165E-02
 4  6 2.73378992E-02 9.66464861E-04-1.00926089E-02 9.43500275E-05 3.62747483E-02
 4  7 2.31415565E-02 5.17892486E-02-3.36920263E-04-1.54657059E-02-2.65948707E-03
 4  8-2.70855148E-04 2.80728464E-03-2.75856995E-03 1.17840712E-04-4.04443896E-03
 4  9-1.27112416E-03-5.48225392E-03 2.49510253E-03-1.87918245E-03-1.24135743E-03
 4 10 1.20725686E-02 7.83960021E-02 3.67566518E-02 1.24362043E-03 7.79603698E-04
 4 11 6.94837935E-04-9.72632098E-03-1.35012753E-02-1.44905005E-02-1.39789000E-02
 4 12 1.20726314E-02 7.83970401E-02 3.67566202E-02 1.24357790E-03 1.03935362E-03
 4 13 2.11456102E-03-9.49427216E-03-6.85890216E-03 2.18160018E-02-8.04344891E-03
 FOCK MATRIX ELEMENTS
   -0.9146913349    0.1861056212   -0.9146895328   -0.1823701743 >
    0.1823699130   -0.6753194640   -0.1823699530    0.1823698405 >
   -0.1647647237   -0.6753197283
 LMO CENTROIDS
CT1  -0.5194998615  -0.1213801752  -0.4001763603
CT2  -0.2521718747   1.3397611008  -0.1613089572
CT3  -1.3767206615   0.7998713882  -0.3381896737
CT4  -0.9714139550   0.5817291213   0.5425788858
 STOP
 CTVEC                        5                       7
 1  1 5.51334332E-01 4.72644602E-01 2.81127745E-03-2.91067733E-04-1.36577598E-03
 1  2 9.93333587E-04-5.79705988E-03 6.00199474E-04 2.81632918E-03-5.88556585E-03
 1  3-1.97625733E-04 2.04692264E-05 9.60125716E-05-6.85022715E-04-1.71817893E-04
 1  4 1.77880362E-05 8.34723283E-05 1.15350249E-03 1.21559245E-03 1.09873784E-03
 1  5 2.03852549E-05-3.48270765E-05 2.98379702E-05 2.12810709E-03 2.03010521E-03
 1  6 2.19882066E-03-3.02055441E-05 4.42468861E-05-4.19682240E-05 1.25653304E-03
 1  7 1.07463745E-03 1.42520201E-03-6.07510913E-05 1.07641896E-04-9.00963062E-05
 1  8 2.83307884E-03-3.15464925E-04-1.36715023E-03-9.32727348E-05-6.18842299E-04
 1  9 1.35870548E-03-6.65800228E-04 1.26011634E-03-1.48161429E-04 1.07934347E-05
 1 10 1.63072179E-04 1.02344275E-03 2.29598788E-04 5.54783887E-05 1.72919731E-05
 1 11-1.03174423E-05-1.05127318E-05-3.41820073E-04-3.78532764E-04 6.35453060E-05
 1 12 1.63071575E-04 1.02346111E-03 2.29598424E-04 5.54774303E-05 2.03547319E-05
 1 13 6.41857279E-06-7.77707594E-06-1.93177085E-04 4.33928301E-04 1.96368276E-04
 2  1-1.12191384E-01-2.02776200E-01 3.25363628E-02-3.36894916E-03-1.58068967E-02
 2  2 5.48304404E-01 5.67294674E-02-5.87392409E-03-2.75604315E-02 5.31940800E-01
 2  3 2.03424978E-02-2.10628583E-03-9.88282801E-03 3.32495420E-02 1.90774706E-03
 2  4-1.97520197E-04-9.26822512E-04-1.00979162E-02-9.80921840E-03-1.04678164E-02
 2  5 1.09231272E-04-2.40529808E-04 1.76315542E-04-3.04197808E-02-2.46043154E-02
 2  6-3.74523856E-02 2.14801262E-03-4.55969794E-03 3.41511340E-03-5.55753993E-02
 2  7-5.77827142E-02-5.81516917E-02-1.57433445E-04-1.84602584E-03 4.13749531E-04
 2  8 4.42680021E-04-7.32053176E-04 7.01413898E-04 1.28046141E-03-8.84622116E-04
 2  9 3.02740609E-03-1.68813881E-03-2.62626925E-04-6.46021862E-04 5.29418223E-04
 2 10 9.16310465E-02 7.43948985E-02-2.09333520E-03-1.30027898E-03-8.00327512E-03
 2 11-9.53882789E-03 1.32041068E-03-7.02468520E-03-8.45110596E-03 1.13948570E-03
 2 12 9.16317627E-02 7.43951693E-02-2.09336105E-03-1.30028432E-03-4.28021953E-03
 2 13 1.08106570E-02 4.64717376E-03-3.72860181E-03 9.56443965E-03 4.08467671E-03
 3  1-1.75158288E-07-3.26636257E-07 4.12158700E-02 2.25278500E-01 3.68289133E-02
 3  2 7.96119407E-07 6.13901243E-02 3.35547001E-01 5.48557682E-02 3.16632855E-06
 3  3 2.84357641E-02 1.55423235E-01 2.54087280E-02 3.81013431E-07 1.73133623E-03
 3  4 9.46336722E-03 1.54710392E-03 8.68736225E-04-4.91649017E-04-3.77138066E-04
 3  5 2.68954856E-03 2.04507605E-04-1.37827294E-03 7.46788223E-03-4.22617335E-03
 3  6-3.24188412E-03 2.31198072E-02 1.75796231E-03-1.18478413E-02-2.40880444E-03
 3  7 1.36288995E-03 1.04527716E-03-7.45654790E-03-5.66986796E-04 3.82118988E-03
 3  8 5.98314128E-04 8.14482545E-03-3.33492220E-04 1.70721808E-03-2.46051037E-04
 3  9 2.00430278E-03 2.66515786E-03-6.00381188E-04-5.73901636E-04-1.18601369E-03
 3 10 1.47208104E-01 2.51108562E-01 6.10099177E-02-1.08727858E-03-1.08043803E-02
 3 11-5.96857156E-03 3.49367386E-03-3.45501715E-02-2.84382991E-02 8.85579222E-03
 3 12-1.47208544E-01-2.51110000E-01-6.10099598E-02 1.08724275E-03 8.25925824E-03
 3 13-7.94232539E-03-5.76782740E-03 2.30531363E-02-3.44025714E-02-1.91291378E-02
 4  1-3.58828948E-02-6.89722728E-02-2.30254657E-01 2.38391376E-02 1.11862301E-01
 4  2 1.95640492E-01-3.39208412E-01 3.51194679E-02 1.64794191E-01 4.61521925E-01
 4  3-2.41448477E-01 2.49975258E-02 1.17300346E-01 9.50063872E-02-3.72604100E-02
 4  4 3.85782494E-03 1.81018779E-02-5.13354966E-03-4.86509615E-03-3.54633697E-03
 4  5-1.40622529E-04 1.09310863E-03-4.65584685E-04-2.54887261E-02-1.41748705E-02
 4  6-1.02556988E-02 5.52543389E-04 1.08447446E-02-2.78176266E-03-4.18809585E-02
 4  7-3.41986679E-04-2.93211897E-02 7.46779347E-03 1.02458664E-02 3.92417477E-03
 4  8-5.35527983E-03 8.85120429E-04-8.36801099E-05-8.27656890E-04 3.98272721E-03
 4  9-3.71203809E-03 2.05143226E-03-1.29260603E-03 9.02111963E-04-9.48389906E-04
 4 10-8.54443298E-02-1.88038033E-01-6.21129943E-02-1.23530033E-03-1.67520662E-03
 4 11 8.72915153E-03 2.93287199E-03 1.79240206E-02 3.66101144E-02 8.19128260E-04
 4 12-8.54438007E-02-1.88038071E-01-6.21124480E-02-1.23523134E-03-4.74774768E-03
 4 13-8.06412545E-03 1.87535459E-04 4.11046219E-03-3.88915812E-02-1.15239571E-02
 5  1 0.00000000E+00 0.00000000E+00 1.18094577E-01-6.35600636E-02 2.56628399E-01
 5  2 0.00000000E+00 1.76405915E-01-9.49439978E-02 3.83343325E-01-2.46064411E-11
 5  3 1.67751805E-01-9.02862408E-02 3.64537292E-01 0.00000000E+00 3.15112553E-02
 5  4-1.69597745E-02 6.84763283E-02 6.69548803E-04 3.73110211E-05-7.06859824E-04
 5  5-2.48078109E-04 6.52232044E-04 1.41014919E-05 8.24722162E-03 4.59584809E-04
 5  6-8.70680643E-03-3.05572573E-03 8.03392016E-03 1.73689085E-04 1.49458034E-02
 5  7 8.32841669E-04-1.57786450E-02-5.53762547E-03 1.45592612E-02 3.14825495E-04
 5  8 4.50593675E-03-4.27207392E-03 3.56563824E-03-2.27554095E-04 2.97340296E-03
 5  9 3.08851013E-03 7.04837077E-03-2.32066636E-03 2.29219246E-03 2.22592274E-03
 5 10 0.00000000E+00 1.37480553E-11 0.00000000E+00 3.46412087E-11 4.87651562E-03
 5 11-2.62460523E-03 1.05970353E-02 8.48716281E-03-4.56790332E-03 1.84432433E-02
 5 12 0.00000000E+00 2.40776651E-11 0.00000000E+00-4.38300411E-11 4.87654015E-03
 5 13-2.62461843E-03 1.05970886E-02 8.48718281E-03-4.56791408E-03 1.84432867E-02
 6  1-5.75531473E-02-1.67761817E-01 1.68518237E-01-1.74450462E-02-8.18689520E-02
 6  2 6.19592615E-01 2.73389080E-01-2.83013194E-02-1.32816950E-01 5.33283590E-01
 6  3 1.73396590E-01-1.79500127E-02-8.42389265E-02 3.06341780E-02 2.43312310E-02
 6  4-2.51880627E-03-1.18205230E-02-1.09301273E-02-1.06626904E-02-1.12458796E-02
 6  5 9.78257959E-05-2.04464491E-04 1.54552513E-04-3.56942481E-02-3.65337114E-02
 6  6-3.48169337E-02-2.92801310E-04 5.64195842E-04-4.48024972E-04-6.14366543E-02
 6  7-7.03711371E-02-5.31940458E-02-2.97901199E-03 5.25834859E-03-4.41150649E-03
 6  8-2.87883162E-03 5.71157364E-04 9.95532184E-04-3.92170032E-04 9.80912307E-04
 6  9-2.41281758E-03 1.26114029E-03-1.08909701E-03 3.88287643E-04-2.22538306E-04
 6 10-1.97755919E-01-3.68669341E-01-3.06471577E-01-1.32132799E-02 6.72456319E-04
 6 11-6.37696572E-04-4.67389735E-04-1.61486894E-02-1.77178789E-02 3.04301132E-03
 6 12-1.97752183E-01-3.68662034E-01-3.06465926E-01-1.32129385E-02 8.76475464E-04
 6 13 4.77348137E-04-2.85107650E-04-9.18534944E-03 2.03404499E-02 9.26468096E-03
 7  1 5.49510232E-07 1.77896593E-06 5.55421453E-02 3.03587688E-01 4.96313995E-02
 7  2-6.88160877E-06 8.81045098E-02 4.81569906E-01 7.87284227E-02-4.16193608E-06
 7  3 4.73106171E-02 2.58593118E-01 4.22753982E-02-4.74539795E-07 8.66175489E-03
 7  4 4.73445276E-02 7.74004326E-03 1.61424185E-04-9.11868975E-05-6.99182606E-05
 7  5 4.99414681E-04 3.79749795E-05-2.55929329E-04-3.26555992E-04 1.85342863E-04
 7  6 1.42258013E-04-1.01204389E-03-7.69487571E-05 5.18625197E-04-1.17514711E-02
 7  7 6.65130575E-03 5.10204229E-03-3.63829310E-02-2.76654598E-03 1.86446924E-02
 7  8-5.44367872E-04-3.70188281E-03-9.71881008E-05-1.39542996E-03 8.37006779E-06
 7  9-6.56696327E-04-9.80499375E-04 1.53244893E-04-3.81877013E-04 6.04544389E-04
 7 10-2.51192982E-01-4.23899683E-01-3.79062186E-01-2.66407913E-02 1.20476878E-03
 7 11 3.05072423E-03 2.01176362E-04-3.52081210E-02-3.73446359E-02 6.95270168E-03
 7 12 2.51196911E-01 4.23904856E-01 3.79068226E-01 2.66410847E-02-6.44626766E-05
 7 13 3.18218698E-03 8.17807771E-04 2.04885006E-02-4.31120814E-02-2.01060656E-02
 CTFOK
  -20.5628103519   -1.3577745087   -0.7285848126   -0.5831058663 >
   -0.5105548724
 STOP
SCREEN3      (FROM VDWSCL=   0.700)
 A01O       1.000000000   1.993295511
 A02H       1.000000000   2.507238239
 A03H       1.000000000   3.059845098
 BO21       1.000000000   1.925047439
 BO31       1.000000000   1.696117262
STOP
SCREEN       (FROM VDWSCL=   0.700)
 A01O       1.000000000   1.061362534
 A02H       1.000000000   4.097426790
 A03H       1.000000000  10.000000000
 BO21       1.000000000   0.508288425
 BO31       1.000000000   0.490522131
STOP
 $END

! TRAVIS-CI SMALL

! TRAVIS-CI SKIP
