!H2O-Methanol 
!H2O - Ab initio; Methanol - EFP
!EXCHANGE REPULSION =    0.0074814331

 $CONTRL SCFTYP=RHF RUNTYP=energy MAXIT=30 MULT=1 ispher=0 $END
 $SYSTEM TIMLIM=525600 MWORDS=10 $END
 $BASIS GBASIS=N311 NGAUSS=6 NDFUNC=3 NPFUNC=2 NFFUNC=1
        DIFFSP=.T. DIFFS=.T. $END
 $INTGRL SCHWRZ=.F. $END
 $SCF DIRSCF=.F. $END
 $DATA
title
 C1
 O           8.0   0.6105398550  -0.6958902898  -1.0927962906
 H           1.0   0.3582018389   0.0334309320  -0.5414853137
 H           1.0   0.1531925660  -1.4544244167  -0.7711825583
 $END
 $EFRAG
 ISCRELEC=0 ISCRPOL=1 ISCRDISP=1 COORD=CART QMDISP=1
 FRAGNAME=MEOH
 A01O             -0.1589788400   1.6226038153   0.5830954572
 A02C             -0.8225197362   2.7115179916  -0.0129519789
 A03H             -1.5524293633   2.3022656601  -0.6966306686
 A04H             -1.3364376695   3.3128984190   0.7304910526
 A05H             -0.1338735412   3.3378629402  -0.5710012742
 A06H              0.5036848903   1.9235049483   1.1826615745
 $END

          RUNTYP=MAKEFP EFFECTIVE FRAGMENT POTENTIAL DATA FOLLOWS...
          MEOH    EFP GENERATED AT Tue Jun 25 15:13:25 2013
 $MEOH    
EFP DATA FOR MEOH     SCFTYP=RHF     ... GENERATED WITH BASIS SET=XXX
 COORDINATES (BOHR)
A01O      -0.2577697526   1.7383957523   1.3420714045  15.9949100  8.0
A02C      -1.2611389950   3.7192671675  -0.0888174629  12.0000000  6.0
A03H      -2.9272072776   4.3886203964   0.8825715746   1.0078250  1.0
A04H       0.0587652185   5.2807867049  -0.2635100103   1.0078250  1.0
A05H      -1.8103837247   3.1022271469  -1.9673494344   1.0078250  1.0
A06H       1.2007974345   1.0962037923   0.5642582716   1.0078250  1.0
BO21      -0.7594543738   2.7288314599   0.6266269708   0.0000000  0.0
BO32      -2.0941731363   4.0539437819   0.3968770558   0.0000000  0.0
BO42      -0.6011868882   4.5000269362  -0.1761637366   0.0000000  0.0
BO52      -1.5357613599   3.4107471572  -1.0280834487   0.0000000  0.0
BO61       0.4715138410   1.4172997723   0.9531648380   0.0000000  0.0
 STOP
 MONOPOLES 
A01O      -8.2077881065   8.00000
A02C      -4.7423017208   6.00000
A03H      -0.6399996045   1.00000
A04H      -0.6604309203   1.00000
A05H      -0.6604990671   1.00000
A06H      -0.6802235074   1.00000
BO21      -0.3976407333   0.00000
BO32      -0.6000650083   0.00000
BO42      -0.5960993689   0.00000
BO52      -0.5741993093   0.00000
BO61      -0.2407526536   0.00000
 STOP
 DIPOLES 
A01O        0.3200781341    0.0542506267   -0.4199129548
A02C        0.1251566084   -0.3094821347    0.2583988746
A03H       -0.0425706287    0.0177485038    0.0239843269
A04H        0.0313304077    0.0403887912   -0.0036745098
A05H       -0.0157405715   -0.0144865286   -0.0465779863
A06H        0.0964808211   -0.0579178113   -0.0317252200
BO21        0.0106184833    0.1198850977   -0.1650211116
BO32        0.3195741567   -0.1341657722   -0.1790671742
BO42       -0.2623097958   -0.2700230616    0.0434847323
BO52        0.0890165709    0.1396453433    0.3489224381
BO61       -0.2915446501    0.0510737361    0.2541583578
 STOP
 QUADRUPOLES 
A01O       -4.0284790778   -4.3569330446   -4.4146660088   -0.4918283773 >
           -0.2847001845   -0.1058318489
A02C       -2.7723043241   -2.5320905819   -2.6872075910   -0.1711022236 >
            0.1157200890   -0.2394446491
A03H       -0.4072355329   -0.4050455663   -0.4051658586    0.0008731791 >
            0.0012459046   -0.0010022203
A04H       -0.4382397245   -0.4398098584   -0.4371775096   -0.0019360101 >
            0.0006460829    0.0003615044
A05H       -0.4377404244   -0.4369169392   -0.4408414615   -0.0003121316 >
           -0.0010454597   -0.0007576993
A06H       -0.4085497287   -0.4167017919   -0.4036547136    0.0010814813 >
           -0.0104537235   -0.0013464654
BO21        0.2197153735    0.1342096783    0.1426177950    0.0731251250 >
           -0.0082513102    0.1284377710
BO32       -0.4970417810   -0.4334166821   -0.4267996165    0.0221006869 >
            0.0288720111   -0.0389812761
BO42       -0.4301568376   -0.5211307700   -0.4142272215   -0.0640529569 >
            0.0331050824    0.0130995641
BO52       -0.3960572380   -0.3318880279   -0.5057030566    0.0002617188 >
           -0.0435715482   -0.0155177051
BO61        0.1459616319    0.0235949177    0.0801555717   -0.0530411800 >
           -0.1010762678    0.0175753624
 STOP
 OCTUPOLES  
A01O        0.7020130377    0.0304945450   -0.7488957696   -0.0002687453 >
           -0.3148118251    0.2003536112   -0.2352032322    0.2667501424 >
           -0.0156487407    0.0188735738
A02C        0.3714643870   -0.9721878130    1.0579703517   -0.4538765504 >
            0.2013723574   -0.0554020277    0.2319576468    0.2042242772 >
           -0.1861285256    0.1254179106
A03H       -0.0549037657    0.0239758668    0.0291197195    0.0080925643 >
            0.0098475215   -0.0182463953    0.0097795818   -0.0181731905 >
            0.0081140633   -0.0001075753
A04H        0.0395448101    0.0529241607   -0.0044535161    0.0176466016 >
           -0.0016501691    0.0134561934   -0.0015558045    0.0131948629 >
            0.0174983971   -0.0000786057
A05H       -0.0211031873   -0.0180441495   -0.0603750431   -0.0060948981 >
           -0.0200131519   -0.0070334040   -0.0198211272   -0.0071937901 >
           -0.0061623690   -0.0000195486
A06H        0.1495743901   -0.1130323340   -0.0248057662   -0.0351925065 >
           -0.0023995264    0.0521611023   -0.0095714084    0.0471288812 >
           -0.0364360840   -0.0016624711
BO21        0.2220537698    0.4873393483   -0.7831448586    0.1706858922 >
           -0.2047309846    0.0506373632   -0.3595915503   -0.0190536604 >
            0.1775392335    0.0348002977
BO32        1.0370999233   -0.4202303797   -0.5725416629   -0.1489780837 >
           -0.2131385177    0.3384881859   -0.1867924294    0.3498608691 >
           -0.1509973131    0.0072054553
BO42       -0.8351528329   -0.7644892270    0.1625129270   -0.2894462102 >
            0.0741978471   -0.2998875794    0.0406758538   -0.2629284879 >
           -0.2600599625   -0.0089781185
BO52        0.2383936824    0.4355842981    1.0819222698    0.1744388776 >
            0.3496595934    0.0972295979    0.3590777916    0.0791573356 >
            0.1907101722    0.0100696164
BO61       -0.8055415487    0.0989230072    0.6911102356    0.0534305952 >
            0.2701950792   -0.2505661341    0.2336867302   -0.2689995210 >
            0.0485407300   -0.0189454858
 STOP
 POLARIZABLE POINTS
CT1   0.5330505271   1.4231425620   0.8782628190
    2.6014305274    1.4824733403    1.1450842080   -1.0086614815 >
   -0.8108733689    0.3358741852   -1.2355910344   -0.5210512188 >
    0.0871978226
CT2  -0.3429788206   4.7940909853  -0.2174019006
    3.8874325257    4.4180034539    2.4512325135    1.5009283157 >
   -0.0451321692   -0.2391836344    1.6587372794   -0.1107378814 >
   -0.2083982468
CT3  -0.5905296988   2.4868251139   0.7507635878
    1.5314821708    3.2108313230    2.0540800944   -1.2986380613 >
    0.9006666530   -1.7231419043   -1.1916478793    0.7641373787 >
   -1.6063643187
CT4  -1.6308110955   3.2931694311  -1.3913988704
    2.6867139484    2.8878389205    5.1836179283    0.2307643582 >
    0.9318232745    0.8607325898    0.2164683158    0.8139832146 >
    0.9875863451
CT5  -2.3988467603   4.1804534687   0.5693699947
    4.6534152988    2.8142069253    3.2225530679   -0.9350826711 >
   -1.3223078466    0.4582608720   -0.9498059481   -1.3038558584 >
    0.4421427041
CT6  -0.0867038512   1.9770175731   1.8387363816
    1.4684313567    1.5885056450    2.9483290763   -0.2173489161 >
    0.7139293978    0.0255515639   -0.2797433350    0.7178074049 >
    0.0709185485
CT7  -0.6522154089   1.3178081492   1.3225779742
    1.8866504448    2.8699610071    1.2487448826    0.5183477060 >
   -0.0284513392   -0.5079455777    0.5715118967   -0.0205575551 >
   -0.5637359040
 STOP
 DYNAMIC POLARIZABLE POINTS
CT  1   0.5330505271   1.4231425620   0.8782628190 -- FOR W= 0.002792I A.U.
    2.6012048110    1.4823320277    1.1451136320   -1.0083423838 >
   -0.8108948045    0.3358543358   -1.2352817417   -0.5210076887 >
    0.0872245299
CT  2  -0.3429788206   4.7940909853  -0.2174019006
    3.8873454489    4.4179714085    2.4512600757    1.5009503788 >
   -0.0451023221   -0.2392368096    1.6586853712   -0.1110108562 >
   -0.2082558145
CT  3  -0.5905296988   2.4868251139   0.7507635878
    1.5311598828    3.2104027337    2.0538158457   -1.2982630737 >
    0.9006380940   -1.7229667458   -1.1911930246    0.7640592725 >
   -1.6060123159
CT  4  -1.6308110955   3.2931694311  -1.3913988704
    2.6868574266    2.8876984005    5.1833913605    0.2306558805 >
    0.9317334951    0.8605701253    0.2167064136    0.8138985330 >
    0.9875840267
CT  5  -2.3988467603   4.1804534687   0.5693699947
    4.6533540188    2.8142101222    3.2224941889   -0.9348040813 >
   -1.3223290632    0.4583251335   -0.9496406027   -1.3035995560 >
    0.4421477155
CT  6  -0.0867038512   1.9770175731   1.8387363816
    1.4684752120    1.5887107580    2.9485195138   -0.2172826486 >
    0.7140905199    0.0257139721   -0.2799167151    0.7177633961 >
    0.0710302466
CT  7  -0.6522154089   1.3178081492   1.3225779742
    1.8870597021    2.8701675337    1.2486623025    0.5183826959 >
   -0.0285711726   -0.5080744682    0.5717668386   -0.0203208251 >
   -0.5637194872
CT  1   0.5330505271   1.4231425620   0.8782628190 -- FOR W= 0.015107I A.U.
    2.5998379096    1.4817972008    1.1448826117   -1.0075804828 >
   -0.8103743371    0.3355858767   -1.2344175225   -0.5206178471 >
    0.0870680425
CT  2  -0.3429788206   4.7940909853  -0.2174019006
    3.8846860027    4.4146247622    2.4501030458    1.4991532426 >
   -0.0449453326   -0.2389625553    1.6568780949   -0.1108222225 >
   -0.2081794510
CT  3  -0.5905296988   2.4868251139   0.7507635878
    1.5305237515    3.2083871936    2.0526069220   -1.2974448598 >
    0.8999604472   -1.7216747437   -1.1903732459    0.7633793597 >
   -1.6047180391
CT  4  -1.6308110955   3.2931694311  -1.3913988704
    2.6853766870    2.8862145759    5.1791901899    0.2304046114 >
    0.9307017271    0.8595065197    0.2163258835    0.8130131106 >
    0.9865647984
CT  5  -2.3988467603   4.1804534687   0.5693699947
    4.6500091293    2.8128292191    3.2205536882   -0.9339314868 >
   -1.3210005148    0.4578296353   -0.9488804959   -1.3021266719 >
    0.4415285947
CT  6  -0.0867038512   1.9770175731   1.8387363816
    1.4678985427    1.5880940507    2.9464521408   -0.2170676549 >
    0.7132479960    0.0256185847   -0.2796346725    0.7170217841 >
    0.0712504671
CT  7  -0.6522154089   1.3178081492   1.3225779742
    1.8862287248    2.8680903979    1.2483095188    0.5178159760 >
   -0.0283944321   -0.5074121192    0.5712812571   -0.0204346629 >
   -0.5632096573
CT  1   0.5330505271   1.4231425620   0.8782628190 -- FOR W= 0.039002I A.U.
    2.5918603503    1.4786708127    1.1435296438   -1.0031376100 >
   -0.8073346190    0.3340190091   -1.2293706518   -0.5183492487 >
    0.0861621805
CT  2  -0.3429788206   4.7940909853  -0.2174019006
    3.8691837968    4.3951370530    2.4433454024    1.4887095609 >
   -0.0440382311   -0.2373726432    1.6463581444   -0.1097261308 >
   -0.2077280056
CT  3  -0.5905296988   2.4868251139   0.7507635878
    1.5268072345    3.1966324721    2.0455599014   -1.2926639450 >
    0.8960068587   -1.7141390988   -1.1855898078    0.7594209966 >
   -1.5971763792
CT  4  -1.6308110955   3.2931694311  -1.3913988704
    2.6767404668    2.8775493617    5.1547289268    0.2289381699 >
    0.9247020586    0.8533268560    0.2141197738    0.8078662901 >
    0.9806250817
CT  5  -2.3988467603   4.1804534687   0.5693699947
    4.6305100347    2.8047620000    3.2092349767   -0.9288502827 >
   -1.3132624946    0.4549421127   -0.9444450845   -1.2935600076 >
    0.4379313570
CT  6  -0.0867038512   1.9770175731   1.8387363816
    1.4645299573    1.5844903995    2.9344219329   -0.2158147767 >
    0.7083548618    0.0250787530   -0.2779917791    0.7127063675 >
    0.0725256366
CT  7  -0.6522154089   1.3178081492   1.3225779742
    1.8813841319    2.8559995974    1.2462416070    0.5145299107 >
   -0.0273762501   -0.5035660509    0.5684614345   -0.0210901287 >
   -0.5602362236
CT  1   0.5330505271   1.4231425620   0.8782628190 -- FOR W= 0.077996I A.U.
    2.5642485468    1.4677838301    1.1387843214   -0.9878097737 >
   -0.7967864875    0.3285953670   -1.2118640022   -0.5105829218 >
    0.0831231985
CT  2  -0.3429788206   4.7940909853  -0.2174019006
    3.8157744260    4.3282545333    2.4198917167    1.4531412664 >
   -0.0410159648   -0.2320066440    1.6103091534   -0.1059948022 >
   -0.2060927638
CT  3  -0.5905296988   2.4868251139   0.7507635878
    1.5138923736    3.1560574740    2.0212793466   -1.2760447319 >
    0.8823406597   -1.6881206114   -1.1690472757    0.7458474806 >
   -1.5712308779
CT  4  -1.6308110955   3.2931694311  -1.3913988704
    2.6469206056    2.8474900376    5.0708115584    0.2238651210 >
    0.9042194641    0.8322966266    0.2066736568    0.7903188921 >
    0.9601833071
CT  5  -2.3988467603   4.1804534687   0.5693699947
    4.5633139648    2.7767368203    3.1701432484   -0.9114126321 >
   -1.2866854897    0.4450055708   -0.9291047100   -1.2642916584 >
    0.4256898996
CT  6  -0.0867038512   1.9770175731   1.8387363816
    1.4528305128    1.5719587425    2.8932385353   -0.2115034585 >
    0.6917268228    0.0234235783   -0.2723469875    0.6979361417 >
    0.0768077703
CT  7  -0.6522154089   1.3178081492   1.3225779742
    1.8646793729    2.8145604662    1.2389679862    0.5034313045 >
   -0.0240230706   -0.4905062289    0.5588818226   -0.0232457930 >
   -0.5499742634
CT  1   0.5330505271   1.4231425620   0.8782628190 -- FOR W= 0.138651I A.U.
    2.4890728725    1.4376274167    1.1253558760   -0.9464734705 >
   -0.7678820003    0.3138399618   -1.1639484182   -0.4900794158 >
    0.0755700746
CT  2  -0.3429788206   4.7940909853  -0.2174019006
    3.6722327452    4.1503386929    2.3555504090    1.3606023556 >
   -0.0336466669   -0.2183865524    1.5149431767   -0.0963037851 >
   -0.2011399907
CT  3  -0.5905296988   2.4868251139   0.7507635878
    1.4783323291    3.0464335106    1.9559977149   -1.2302932241 >
    0.8452868515   -1.6178009634   -1.1241366798    0.7098542187 >
   -1.5018041506
CT  4  -1.6308110955   3.2931694311  -1.3913988704
    2.5662163358    2.7651615843    4.8479169995    0.2101220106 >
    0.8505465905    0.7776970040    0.1877878498    0.7445042878 >
    0.9054777001
CT  5  -2.3988467603   4.1804534687   0.5693699947
    4.3826270852    2.6996636993    3.0643467700   -0.8650719757 >
   -1.2159168809    0.4184215579   -0.8874632057   -1.1874908425 >
    0.3939410285
CT  6  -0.0867038512   1.9770175731   1.8387363816
    1.4206515633    1.5373636773    2.7844292126   -0.1999708403 >
    0.6486873678    0.0204016670   -0.2572982063    0.6589744292 >
    0.0874669533
CT  7  -0.6522154089   1.3178081492   1.3225779742
    1.8195873453    2.7047305808    1.2182981862    0.4752117257 >
   -0.0161371302   -0.4568085602    0.5340857787   -0.0283210528 >
   -0.5223188525
CT  1   0.5330505271   1.4231425620   0.8782628190 -- FOR W= 0.233223I A.U.
    2.3142501653    1.3646225141    1.0910134680   -0.8526189277 >
   -0.6999604321    0.2797873425   -1.0517483258   -0.4455865906 >
    0.0616062354
CT  2  -0.3429788206   4.7940909853  -0.2174019006
    3.3480886027    3.7567877921    2.2033466405    1.1666380702 >
   -0.0206062504   -0.1912606502    1.3079757598   -0.0761725229 >
   -0.1875591845
CT  3  -0.5905296988   2.4868251139   0.7507635878
    1.3934646499    2.7960199360    1.8082798809   -1.1218001428 >
    0.7601732712   -1.4574113537   -1.0206573211    0.6311167676 >
   -1.3468494242
CT  4  -1.6308110955   3.2931694311  -1.3913988704
    2.3803566227    2.5713458564    4.3574438207    0.1790647013 >
    0.7359776309    0.6637911745    0.1505009824    0.6474202635 >
    0.7839565644
CT  5  -2.3988467603   4.1804534687   0.5693699947
    3.9745703559    2.5165318293    2.8215346473   -0.7632249137 >
   -1.0599945803    0.3594369724   -0.7917608610   -1.0236680941 >
    0.3281989528
CT  6  -0.0867038512   1.9770175731   1.8387363816
    1.3438496614    1.4541028398    2.5470190529   -0.1743542469 >
    0.5590939732    0.0196296677   -0.2240203198    0.5747697414 >
    0.1070823764
CT  7  -0.6522154089   1.3178081492   1.3225779742
    1.7157093811    2.4635779516    1.1658359082    0.4189472448 >
   -0.0036279723   -0.3874842388    0.4822242809   -0.0366481075 >
   -0.4600974616
CT  1   0.5330505271   1.4231425620   0.8782628190 -- FOR W= 0.385897I A.U.
    1.9699033500    1.2092738425    1.0087689902   -0.6773087847 >
   -0.5659527617    0.2153912565   -0.8324743997   -0.3677323585 >
    0.0453661568
CT  2  -0.3429788206   4.7940909853  -0.2174019006
    2.7427800764    3.0432952900    1.8936244903    0.8520184207 >
   -0.0068301094   -0.1498590442    0.9544120151   -0.0450495979 >
   -0.1562383053
CT  3  -0.5905296988   2.4868251139   0.7507635878
    1.2180651329    2.3196425937    1.5300165520   -0.9050297464 >
    0.5984835009   -1.1559165104   -0.8224108586    0.4930433614 >
   -1.0655593018
CT  4  -1.6308110955   3.2931694311  -1.3913988704
    2.0167239377    2.1818775751    3.4816721853    0.1241667572 >
    0.5428819681    0.4807178440    0.0969480588    0.4850359440 >
    0.5696301025
CT  5  -2.3988467603   4.1804534687   0.5693699947
    3.2159737010    2.1430429397    2.3540490090   -0.5834075435 >
   -0.7861296772    0.2560228327   -0.6109650858   -0.7509961216 >
    0.2258378392
CT  6  -0.0867038512   1.9770175731   1.8387363816
    1.1838062246    1.2784517024    2.1238030602   -0.1286312738 >
    0.4137459155    0.0318232128   -0.1648791880    0.4308120235 >
    0.1282484475
CT  7  -0.6522154089   1.3178081492   1.3225779742
    1.5083483063    2.0307508375    1.0470752441    0.3345849869 >
    0.0048316706   -0.2786593897    0.3956540865   -0.0439444917 >
   -0.3478833676
CT  1   0.5330505271   1.4231425620   0.8782628190 -- FOR W= 0.649114I A.U.
    1.4299189007    0.9346191935    0.8328710198   -0.4297851539 >
   -0.3658622883    0.1275902970   -0.5123787630   -0.2603454291 >
    0.0370761253
CT  2  -0.3429788206   4.7940909853  -0.2174019006
    1.8651676436    2.0376632530    1.3829009679    0.4847342456 >
   -0.0023146855   -0.0988973449    0.5247319994   -0.0149356441 >
   -0.1025722640
CT  3  -0.5905296988   2.4868251139   0.7507635878
    0.9230095767    1.6138063132    1.1134743076   -0.5774364084 >
    0.3685442382   -0.7289161574   -0.5327074993    0.3114520282 >
   -0.6799777951
CT  4  -1.6308110955   3.2931694311  -1.3913988704
    1.4441190183    1.5571091463    2.2847597027    0.0596351863 >
    0.3050698115    0.2710931007    0.0467966336    0.2829981641 >
    0.3045622234
CT  5  -2.3988467603   4.1804534687   0.5693699947
    2.1357934366    1.5349623084    1.6447979856   -0.3474393099 >
   -0.4404977774    0.1310083234   -0.3593053190   -0.4253726430 >
    0.1180157175
CT  6  -0.0867038512   1.9770175731   1.8387363816
    0.9078954023    0.9733608583    1.5229382933   -0.0683661468 >
    0.2418804910    0.0580711997   -0.0877465845    0.2523558332 >
    0.1273398479
CT  7  -0.6522154089   1.3178081492   1.3225779742
    1.1584821002    1.4218495988    0.8239259374    0.2394493008 >
   -0.0018843309   -0.1559326979    0.2813291094   -0.0411246605 >
   -0.2005062462
CT  1   0.5330505271   1.4231425620   0.8782628190 -- FOR W= 1.153904I A.U.
    0.8022991290    0.5654612980    0.5411933166   -0.1924628649 >
   -0.1680559311    0.0528397230   -0.2124851056   -0.1424742318 >
    0.0308922572
CT  2  -0.3429788206   4.7940909853  -0.2174019006
    0.9519054415    1.0147853356    0.7644176282    0.1944168535 >
   -0.0036698378   -0.0455167480    0.1928070033   -0.0006000449 >
   -0.0428845237
CT  3  -0.5905296988   2.4868251139   0.7507635878
    0.5504768204    0.8577587905    0.6390122671   -0.2527239505 >
    0.1545633715   -0.3221176943   -0.2432647476    0.1424903202 >
   -0.3117679846
CT  4  -1.6308110955   3.2931694311  -1.3913988704
    0.7826760523    0.8347974583    1.1137149882    0.0176618603 >
    0.1129343456    0.1107662096    0.0178981090    0.1116341304 >
    0.1066144266
CT  5  -2.3988467603   4.1804534687   0.5693699947
    1.0524236077    0.8240310568    0.8662327266   -0.1393775131 >
   -0.1646651742    0.0423876158   -0.1367818512   -0.1679981084 >
    0.0452427331
CT  6  -0.0867038512   1.9770175731   1.8387363816
    0.5467166627    0.5777482665    0.8569937187   -0.0177975548 >
    0.1050673709    0.0649093649   -0.0241807528    0.1072097736 >
    0.0895108139
CT  7  -0.6522154089   1.3178081492   1.3225779742
    0.6953774283    0.7779015635    0.5082032700    0.1436755753 >
   -0.0100883790   -0.0600169787    0.1593648702   -0.0241314967 >
   -0.0743944860
CT  1   0.5330505271   1.4231425620   0.8782628190 -- FOR W= 2.307592I A.U.
    0.2989606347    0.2269813311    0.2284793768   -0.0528185931 >
   -0.0488723649    0.0139750881   -0.0526203345   -0.0491247307 >
    0.0141902565
CT  2  -0.3429788206   4.7940909853  -0.2174019006
    0.3210480031    0.3303627296    0.2753110695    0.0483412373 >
   -0.0017053176   -0.0109374517    0.0425904218    0.0014635200 >
   -0.0086563811
CT  3  -0.5905296988   2.4868251139   0.7507635878
    0.2226645491    0.3065916247    0.2500942229   -0.0655317082 >
    0.0385838840   -0.0868141203   -0.0666224346    0.0399779651 >
   -0.0880104140
CT  4  -1.6308110955   3.2931694311  -1.3913988704
    0.2781625363    0.2929232751    0.3556533035    0.0034384810 >
    0.0235419535    0.0301446094    0.0053870741    0.0252381546 >
    0.0236879137
CT  5  -2.3988467603   4.1804534687   0.5693699947
    0.3411539202    0.2879604047    0.3006724729   -0.0318667289 >
   -0.0376666307    0.0080625023   -0.0286688750   -0.0417588064 >
    0.0115721002
CT  6  -0.0867038512   1.9770175731   1.8387363816
    0.2203394237    0.2295707345    0.3244429403    0.0008760117 >
    0.0325655206    0.0346478925   -0.0000158442    0.0322200772 >
    0.0376615513
CT  7  -0.6522154089   1.3178081492   1.3225779742
    0.2754481155    0.2910971941    0.2078133840    0.0577538674 >
   -0.0055738497   -0.0135571832    0.0601347242   -0.0071329706 >
   -0.0149322845
CT  1   0.5330505271   1.4231425620   0.8782628190 -- FOR W= 5.957643I A.U.
    0.0563566217    0.0456008504    0.0469050647   -0.0072126580 >
   -0.0072634836    0.0018574852   -0.0066861053   -0.0079360611 >
    0.0024341949
CT  2  -0.3429788206   4.7940909853  -0.2174019006
    0.0560429910    0.0560579192    0.0498753441    0.0063176758 >
   -0.0001979604   -0.0011926706    0.0050466613    0.0004596965 >
   -0.0007112861
CT  3  -0.5905296988   2.4868251139   0.7507635878
    0.0454497855    0.0571329764    0.0498499789   -0.0086085924 >
    0.0049631113   -0.0120131824   -0.0090755848    0.0055596896 >
   -0.0125249812
CT  4  -1.6308110955   3.2931694311  -1.3913988704
    0.0500871074    0.0523902254    0.0595007364    0.0004152191 >
    0.0024955496    0.0044596317    0.0008611796    0.0028933310 >
    0.0030725815
CT  5  -2.3988467603   4.1804534687   0.5693699947
    0.0579000961    0.0512356132    0.0534807185   -0.0036795790 >
   -0.0047462986    0.0007893442   -0.0029940565   -0.0056234001 >
    0.0015416016
CT  6  -0.0867038512   1.9770175731   1.8387363816
    0.0452640158    0.0468582345    0.0636729104    0.0009830769 >
    0.0057148278    0.0074231358    0.0009757789    0.0056434553 >
    0.0074859390
CT  7  -0.6522154089   1.3178081492   1.3225779742
    0.0554032290    0.0573217390    0.0430708923    0.0113341836 >
   -0.0009648800   -0.0016193406    0.0114214880   -0.0009958904 >
   -0.0015936077
CT  1   0.5330505271   1.4231425620   0.8782628190 -- FOR W=32.239080I A.U.
    0.0021200462    0.0017591988    0.0018171272   -0.0002322505 >
   -0.0002447466    0.0000602551   -0.0002103372   -0.0002727387 >
    0.0000842583
CT  2  -0.3429788206   4.7940909853  -0.2174019006
    0.0020130441    0.0019980005    0.0018083755    0.0002047049 >
   -0.0000048171   -0.0000354904    0.0001582255    0.0000191075 >
   -0.0000177929
CT  3  -0.5905296988   2.4868251139   0.7507635878
    0.0017700920    0.0021600782    0.0019257527   -0.0002792403 >
    0.0001613608   -0.0003998535   -0.0002975440    0.0001847434 >
   -0.0004199136
CT  4  -1.6308110955   3.2931694311  -1.3913988704
    0.0018139022    0.0018947671    0.0021107971    0.0000129230 >
    0.0000749699    0.0001516212    0.0000293671    0.0000894660 >
    0.0001009574
CT  5  -2.3988467603   4.1804534687   0.5693699947
    0.0020625867    0.0018499658    0.0019317256   -0.0001130653 >
   -0.0001530237    0.0000214355   -0.0000879211   -0.0001851945 >
    0.0000490272
CT  6  -0.0867038512   1.9770175731   1.8387363816
    0.0017928360    0.0018549042    0.0024759532    0.0000461902 >
    0.0002110178    0.0002893235    0.0000468854    0.0002088896 >
    0.0002884343
CT  7  -0.6522154089   1.3178081492   1.3225779742
    0.0021756476    0.0022349356    0.0017131349    0.0004323969 >
   -0.0000334893   -0.0000506763    0.0004329882   -0.0000330080 >
   -0.0000483500
 STOP
 PROJECTION BASIS SET
A01O        -0.2577697526   1.7383957523   1.3420714045    6.0
   S          6
     1      8588.5000000000     1.20501289
     2      1297.2300000000     2.21620477
     3       299.2960000000     3.62745250
     4        87.3771000000     4.88845231
     5        25.6789000000     4.83572052
     6         3.7400400000     0.53822949
   L          3
     7        42.1175000000     1.34195780     5.58401753
     8         9.6283700000     3.58711431     5.73336569
     9         2.8533200000    -0.00512347     4.33295474
   L          1
    10         0.9056610000     0.66165918     1.25935210
   L          1
    11         0.2556110000     0.25620922     0.25906844
   L          1
    12         0.0845000000     0.11169986     0.06493980
   D          1
    13         5.1680000000    29.15572464
   D          1
    14         1.2920000000     2.57702633
   D          1
    15         0.3230000000     0.22777910
   F          1
    16         1.4000000000     3.13864741
  
A02C        -1.2611389950   3.7192671675  -0.0888174629    4.0
   S          6
    17      4563.2400000000     0.77820176
    18       682.0240000000     1.44869481
    19       154.9730000000     2.38308933
    20        44.4553000000     3.20008901
    21        13.0290000000     3.01300444
    22         1.8277300000     0.24759863
   L          3
    23        20.9642000000     0.80062852     2.57359222
    24         4.8033100000     2.12741989     2.40824822
    25         1.4593300000    -0.00286791     1.86528133
   L          1
    26         0.4834560000     0.41321665     0.57462733
   L          1
    27         0.1455850000     0.16797613     0.12818461
   L          1
    28         0.0438000000     0.06823633     0.02856161
   D          1
    29         2.5040000000     8.20388425
   D          1
    30         0.6260000000     0.72512777
   D          1
    31         0.1565000000     0.06409285
   F          1
    32         0.8000000000     0.89105994
  
A03H        -2.9272072776   4.3886203964   0.8825715746    1.0
   S          3
    33        33.8650000000     0.25506932
    34         5.0947900000     0.46010866
    35         1.1587900000     0.67832145
   S          1
    36         0.3258400000     0.30737135
   S          1
    37         0.1027410000     0.12933556
   S          1
    38         0.0360000000     0.05890294
   P          1
    39         1.5000000000     2.36621477
   P          1
    40         0.3750000000     0.41829163
  
A04H         0.0587652185   5.2807867049  -0.2635100103    1.0
   S          3
    41        33.8650000000     0.25506932
    42         5.0947900000     0.46010866
    43         1.1587900000     0.67832145
   S          1
    44         0.3258400000     0.30737135
   S          1
    45         0.1027410000     0.12933556
   S          1
    46         0.0360000000     0.05890294
   P          1
    47         1.5000000000     2.36621477
   P          1
    48         0.3750000000     0.41829163
  
A05H        -1.8103837247   3.1022271469  -1.9673494344    1.0
   S          3
    49        33.8650000000     0.25506932
    50         5.0947900000     0.46010866
    51         1.1587900000     0.67832145
   S          1
    52         0.3258400000     0.30737135
   S          1
    53         0.1027410000     0.12933556
   S          1
    54         0.0360000000     0.05890294
   P          1
    55         1.5000000000     2.36621477
   P          1
    56         0.3750000000     0.41829163
  
A06H         1.2007974345   1.0962037923   0.5642582716    1.0
   S          3
    57        33.8650000000     0.25506932
    58         5.0947900000     0.46010866
    59         1.1587900000     0.67832145
   S          1
    60         0.3258400000     0.30737135
   S          1
    61         0.1027410000     0.12933556
   S          1
    62         0.0360000000     0.05890294
   P          1
    63         1.5000000000     2.36621477
   P          1
    64         0.3750000000     0.41829163
  
 STOP
 MULTIPLICITY    1
 STOP
 PROJECTION WAVEFUNCTION      7    130
 1  1 5.08006627E-02 9.04769527E-02-1.68587643E-01 6.77765737E-02 9.81487573E-02
 1  2-2.39182421E-01-2.51895539E-01 9.98188020E-02 1.48500736E-01-1.05590880E-01
 1  3-1.35723550E-01 3.88170040E-02 9.91349935E-02 7.32590695E-03-1.04067161E-02
 1  4-6.27668244E-03 1.94243564E-02 3.15096687E-03 5.30866567E-03 4.36442294E-03
 1  5 5.64649075E-04 1.81704595E-03-8.41923161E-04 2.33782107E-03 2.12553287E-02
 1  6 1.25386897E-02 6.52085456E-03 1.68566160E-02-5.68541603E-03 3.27269850E-02
 1  7 2.70031580E-02 1.50790036E-02-1.09704769E-02 1.38550201E-03 5.74156267E-03
 1  8-4.18298059E-03 1.48335118E-04 9.48293188E-04 4.21846252E-03 3.50504835E-03