!H2O-Acetone
!Acetone - Ab initio; H2O - EFP
!EXCHANGE REPULSION =    0.0189703223
 $scf dirscf=.t. $end
 $CONTRL SCFTYP=RHF RUNTYP=energy MAXIT=30 MULT=1 ispher=0 $END
 $SYSTEM TIMLIM=525600 PARALL=.FALSE. MWORDS=10 $END
 $BASIS GBASIS=N311 NGAUSS=6 NDFUNC=3 NPFUNC=2 NFFUNC=1
        DIFFSP=.T. DIFFS=.T. $END
 $INTGRL SCHWRZ=.F. $END
 $SCF DIRSCF=.F. $END
 $DATA
title
 C1
 C           6.0   1.6694067828   2.7198059089   1.1111027703
 O           8.0   1.3493900366   1.5663671807   1.1742910192
 C           6.0   0.6356233527   3.8071257033   0.9405477082
 C           6.0   3.1137833070   3.1514172212   1.1979841363
 H           1.0   0.7041504427   4.5190093509   1.7579006945
 H           1.0   3.3841370172   3.7183771539   0.3119031385
 H           1.0   0.8219712094   4.3537059030   0.0205391736
 H           1.0  -0.3549150468   3.3753569971   0.9132931174
 H           1.0   3.2486368136   3.8074891929   2.0532551391
 H           1.0   3.7622189176   2.2922416768   1.2938433043
 $END
 $EFRAG
 ISCRELEC=0 ISCRPOL=1 ISCRDISP=1 COORD=CART QMDISP=1
 FRAGNAME=H2O
 A01O              3.4620249389  -0.4803660475   1.4897688110
 A02H              2.6837951840   0.0536697422   1.3918495441
 A03H              3.1820170444  -1.3789099834   1.5352214435
 $END

          RUNTYP=MAKEFP EFFECTIVE FRAGMENT POTENTIAL DATA FOLLOWS...
          H2O     EFP GENERATED AT Wed Nov 16 16:07:39 2011
 $H2O     
EFP DATA FOR H2O      SCFTYP=RHF     ... GENERATED WITH BASIS SET=XXX
 COORDINATES (BOHR)
A01O      -0.9321262407   0.6657504655  -0.0153445750  15.9949100  8.0
A02H       0.2794526791   1.9608363766  -0.2521272413   1.0078250  1.0
A03H      -0.2306788513  -0.8273976265  -0.7079480468   1.0078250  1.0
BO21      -0.3263367808   1.3132934211  -0.1337359082   0.0000000  0.0
BO31      -0.5814025460  -0.0808235805  -0.3616463109   0.0000000  0.0
 STOP
 MONOPOLES 
A01O      -8.1254763279   8.00000
A02H      -0.6426806389   1.00000
A03H      -0.6426824447   1.00000
BO21      -0.2834436381   0.00000
BO31      -0.3057169504   0.00000
 STOP
 DIPOLES 
A01O        0.7333334498   -0.0759272286   -0.3562686086
A02H        0.0610753758    0.0861643078   -0.0067648856
A03H        0.0278619231   -0.0953726576   -0.0364427095
BO21       -0.3030601135   -0.2096745354    0.0875305657
BO31       -0.2288800348    0.2489282717    0.1669783536
 STOP
 QUADRUPOLES 
A01O       -4.0478178185   -3.6270714240   -4.5569399504    0.1346229447 >
           -0.2858811365    0.2140677254
A02H       -0.3666945729   -0.3742227383   -0.3793497118    0.0067072391 >
           -0.0050901673   -0.0013173687
A03H       -0.3714827904   -0.3715137966   -0.3772718906   -0.0061291796 >
           -0.0060662405    0.0052607343
BO21        0.0732455612    0.0840745423   -0.0395707451    0.1069819969 >
           -0.0299065849   -0.0161916941
BO31       -0.0164382285    0.0947791341   -0.0274590713   -0.0773870463 >
           -0.0416302691    0.0752475410
 STOP
 OCTUPOLES  
A01O        1.8227087477   -0.2091453522   -0.8420956183   -0.0316354185 >
           -0.3257357417    0.6701018157   -0.3311402142    0.5926318865 >
           -0.0786754214    0.0133907160
A02H        0.0711632174    0.1311681604   -0.0024458587    0.0390320174 >
            0.0015891182    0.0202483117    0.0002701410    0.0260837676 >
            0.0457376052    0.0016876617
A03H        0.0244567299   -0.1385197115   -0.0482781879   -0.0460624005 >
           -0.0141893641    0.0038060647   -0.0113133088    0.0073178953 >
           -0.0472045924   -0.0031296072
BO21       -0.8934808551   -0.5581423521    0.2690774557   -0.2074760520 >
            0.0956306136   -0.3209204955    0.0938654282   -0.2875148323 >
           -0.1734173616    0.0086466284
BO31       -0.6804868564    0.6934836849    0.4731223804    0.2247936580 >
            0.1626249972   -0.2546734493    0.1839269863   -0.2306013100 >
            0.2252330819   -0.0134636690
 STOP
 POLARIZABLE POINTS
CT1  -0.5194998606  -0.1213801771  -0.4001763612
    1.2620129657    2.8502146768    1.2033378246   -0.7513730638 >
   -0.4022322555    0.9119266374   -0.8740517898   -0.4326577988 >
    0.8555148058
CT2  -0.2521718728   1.3397611015  -0.1613089579
    2.0552387508    2.4014006953    0.8590047918    1.2524568001 >
   -0.2709592859   -0.2342654933    1.3751565484   -0.2405355672 >
   -0.1778111736
CT3  -1.3767206579   0.7998713876  -0.3381896733
    2.7567993767    1.5609682681    1.7081713006   -0.3846050990 >
    0.8948628416   -0.2052421486   -0.3999278354    0.9893697290 >
   -0.2225248231
CT4  -0.9714139530   0.5817291217   0.5425788828
    1.2231053905    1.4755279616    3.3273846100    0.0920811209 >
   -0.3045835717   -0.2504601434    0.1075049747   -0.3990734438 >
   -0.2332093052
 STOP
 DYNAMIC POLARIZABLE POINTS
CT  1  -0.5194998606  -0.1213801771  -0.4001763612 -- FOR W= 0.002792I A.U.
    1.2619766161    2.8501108654    1.2032164894   -0.7512884046 >
   -0.4022200980    0.9118947656   -0.8740645222   -0.4326281448 >
    0.8553953540
CT  2  -0.2521718728   1.3397611015  -0.1613089579
    2.0550795577    2.4013179069    0.8589425147    1.2522962036 >
   -0.2709513401   -0.2342594538    1.3750727458   -0.2405424796 >
   -0.1777601293
CT  3  -1.3767206579   0.7998713876  -0.3381896733
    2.7568250225    1.5610620848    1.7081874548   -0.3845893390 >
    0.8948387281   -0.2052196323   -0.4000462816    0.9893843371 >
   -0.2225169025
CT  4  -0.9714139530   0.5817291217   0.5425788828
    1.2230786747    1.4756004873    3.3273972088    0.0920956850 >
   -0.3045417922   -0.2504927910    0.1075521996   -0.3990882159 >
   -0.2331954357
CT  1  -0.5194998606  -0.1213801771  -0.4001763612 -- FOR W= 0.015107I A.U.
    1.2615428105    2.8486263249    1.2027779833   -0.7504763787 >
   -0.4018745734    0.9112507317   -0.8733994021   -0.4323190062 >
    0.8546837210
CT  2  -0.2521718728   1.3397611015  -0.1613089579
    2.0539819242    2.4002090026    0.8587921655    1.2511815617 >
   -0.2707775220   -0.2340590508    1.3741050107   -0.2403322779 >
   -0.1774921253
CT  3  -1.3767206579   0.7998713876  -0.3381896733
    2.7546259477    1.5604107051    1.7072006395   -0.3841377202 >
    0.8939687638   -0.2049821837   -0.3994745834    0.9877798603 >
   -0.2221450720
CT  4  -0.9714139530   0.5817291217   0.5425788828
    1.2227998959    1.4750561072    3.3243830964    0.0920512094 >
   -0.3045262368   -0.2500859295    0.1073876439   -0.3983381455 >
   -0.2329229571
CT  1  -0.5194998606  -0.1213801771  -0.4001763612 -- FOR W= 0.039002I A.U.
    1.2590122334    2.8399593047    1.2002211256   -0.7457549561 >
   -0.3998628917    0.9074918371   -0.8695188979   -0.4305156042 >
    0.8505378764
CT  2  -0.2521718728   1.3397611015  -0.1613089579
    2.0475832046    2.3937308203    0.8579144060    1.2446913510 >
   -0.2697626364   -0.2328904395    1.3684557210   -0.2391091278 >
   -0.1759365539
CT  3  -1.3767206579   0.7998713876  -0.3381896733
    2.7418522101    1.5566111408    1.7014612107   -0.3815168461 >
    0.8889103558   -0.2036037116   -0.3961636207    0.9785002685 >
   -0.2199943191
CT  4  -0.9714139530   0.5817291217   0.5425788828
    1.2211590227    1.4718768699    3.3068904731    0.0917899201 >
   -0.3044137396   -0.2477320820    0.1064362635   -0.3940044495 >
   -0.2313414006
CT  1  -0.5194998606  -0.1213801771  -0.4001763612 -- FOR W= 0.077996I A.U.
    1.2502678859    2.8099237814    1.1914006732   -0.7296441398 >
   -0.3929637948    0.8944804253   -0.8561054472   -0.4242845959 >
    0.8362852697
CT  2  -0.2521718728   1.3397611015  -0.1613089579
    2.0255305694    2.3712259640    0.8548708679    1.2224245041 >
   -0.2662445085   -0.2288587330    1.3488862481   -0.2349229622 >
   -0.1706636185
CT  3  -1.3767206579   0.7998713876  -0.3381896733
    2.6984149719    1.5434844535    1.6818466696   -0.3726363178 >
    0.8716452515   -0.1989262980   -0.3850302550    0.9474548473 >
   -0.2127957462
CT  4  -0.9714139530   0.5817291217   0.5425788828
    1.2153038569    1.4608442673    3.2475997608    0.0908641557 >
   -0.3037535570   -0.2398479098    0.1032576534   -0.3795638986 >
   -0.2259784219
CT  1  -0.5194998606  -0.1213801771  -0.4001763612 -- FOR W= 0.138651I A.U.
    1.2265389259    2.7278748376    1.1675749523   -0.6875267307 >
   -0.3746662486    0.8590682649   -0.8197407948   -0.4074119088 >
    0.7982259892
CT  2  -0.2521718728   1.3397611015  -0.1613089579
    1.9661867172    2.3093301783    0.8465050150    1.1633035243 >
   -0.2566318928   -0.2179865231    1.2955180412   -0.2238856089 >
   -0.1571442100
CT  3  -1.3767206579   0.7998713876  -0.3381896733
    2.5857399506    1.5078810259    1.6301812098   -0.3498442979 >
    0.8264156882   -0.1868662307   -0.3570509871    0.8704955585 >
   -0.1949306062
CT  4  -0.9714139530   0.5817291217   0.5425788828
    1.1981237861    1.4305618403    3.0951182826    0.0882015100 >
   -0.3001498049   -0.2202407095    0.0954077438   -0.3442302993 >
   -0.2121763727
CT  1  -0.5194998606  -0.1213801771  -0.4001763612 -- FOR W= 0.233223I A.U.
    1.1713258700    2.5357686462    1.1127126666   -0.5985313129 >
   -0.3346422062    0.7770722560   -0.7362664680   -0.3687553875 >
    0.7136895717
CT  2  -0.2521718728   1.3397611015  -0.1613089579
    1.8314969055    2.1621970195    0.8261424083    1.0336958490 >
   -0.2341767159   -0.1933292229    1.1714314634   -0.2000631228 >
   -0.1299463823
CT  3  -1.3767206579   0.7998713876  -0.3381896733
    2.3494483172    1.4251994088    1.5172796653   -0.3033679049 >
    0.7297513055   -0.1619440247   -0.3025431055    0.7247036530 >
   -0.1610203236
CT  4  -0.9714139530   0.5817291217   0.5425788828
    1.1526594988    1.3585131310    2.7807562269    0.0814776528 >
   -0.2849526658   -0.1828493950    0.0806523921   -0.2799054255 >
   -0.1837732534
CT  1  -0.5194998606  -0.1213801771  -0.4001763612 -- FOR W= 0.385897I A.U.
    1.0586837767    2.1539194119    1.0030914787   -0.4529437078 >
   -0.2643041532    0.6191850999   -0.5781492786   -0.2953141932 >
    0.5615684837
CT  2  -0.2521718728   1.3397611015  -0.1613089579
    1.5749546615    1.8617759178    0.7789862788    0.8060076419 >
   -0.1900697716   -0.1477443021    0.9312135970   -0.1590595634 >
   -0.0901274600
CT  3  -1.3767206579   0.7998713876  -0.3381896733
    1.9541617652    1.2587636596    1.3106423557   -0.2307992519 >
    0.5654473133   -0.1218811055   -0.2236601167    0.5217760557 >
   -0.1138910564
CT  4  -0.9714139530   0.5817291217   0.5425788828
    1.0472713877    1.2082304442    2.2680667776    0.0673392713 >
   -0.2433109427   -0.1304321953    0.0601997509   -0.1996398537 >
   -0.1384224707
CT  1  -0.5194998606  -0.1213801771  -0.4001763612 -- FOR W= 0.649114I A.U.
    0.8559557319    1.5524153435    0.8117452156   -0.2800441381 >
   -0.1702350154    0.3902831457   -0.3552908255   -0.1888716268 >
    0.3556564843
CT  2  -0.2521718728   1.3397611015  -0.1613089579
    1.1777237752    1.3703347732    0.6720710497    0.5073911856 >
   -0.1232772181   -0.0864260176    0.5826380478   -0.1046405972 >
   -0.0517992152
CT  3  -1.3767206579   0.7998713876  -0.3381896733
    1.4243401999    0.9751337894    0.9957620753   -0.1474183913 >
    0.3565115197   -0.0748092133   -0.1407915469    0.3159748867 >
   -0.0673927153
CT  4  -0.9714139530   0.5817291217   0.5425788828
    0.8455049533    0.9428796977    1.6068514167    0.0449427060 >
   -0.1723521887   -0.0779503387    0.0383156865   -0.1318155653 >
   -0.0853669779
CT  1  -0.5194998606  -0.1213801771  -0.4001763612 -- FOR W= 1.153904I A.U.
    0.5502966782    0.8587260679    0.5267994220   -0.1323753773 >
   -0.0801115526    0.1715175292   -0.1513696124   -0.0848159250 >
    0.1627768331
CT  2  -0.2521718728   1.3397611015  -0.1613089579
    0.6939396613    0.7774413201    0.4644465905    0.2337472984 >
   -0.0555331935   -0.0345767897    0.2527415292   -0.0508288318 >
   -0.0258360873
CT  3  -1.3767206579   0.7998713876  -0.3381896733
    0.8289673307    0.5905905657    0.6042012441   -0.0749934977 >
    0.1703757316   -0.0365486506   -0.0727274347    0.1565144177 >
   -0.0340126273
CT  4  -0.9714139530   0.5817291217   0.5425788828
    0.5376428202    0.5743568468    0.9117590778    0.0207514487 >
   -0.0892576509   -0.0393263229    0.0184853900   -0.0753963263 >
   -0.0418623524
CT  1  -0.5194998606  -0.1213801771  -0.4001763612 -- FOR W= 2.307592I A.U.
    0.2298903145    0.3135029565    0.2222532541   -0.0412429277 >
   -0.0242150548    0.0470122868   -0.0407857296   -0.0241018114 >
    0.0472226451
CT  2  -0.2521718728   1.3397611015  -0.1613089579
    0.2707390459    0.2903870884    0.2045215143    0.0687328886 >
   -0.0157744105   -0.0089002695    0.0682756695   -0.0158876391 >
   -0.0091106513
CT  3  -1.3767206579   0.7998713876  -0.3381896733
    0.3184946985    0.2334878836    0.2438525307   -0.0261104380 >
    0.0568595980   -0.0132252716   -0.0258949029    0.0555412631 >
   -0.0129840795
CT  4  -0.9714139530   0.5817291217   0.5425788828
    0.2197142343    0.2279833603    0.3481372611    0.0058013019 >
   -0.0277935203   -0.0147858304    0.0055857879   -0.0264752001 >
   -0.0150269989
CT  1  -0.5194998606  -0.1213801771  -0.4001763612 -- FOR W= 5.957643I A.U.
    0.0465870262    0.0580844958    0.0452384903   -0.0062996758 >
   -0.0037318412    0.0066750007   -0.0057774169   -0.0036024884 >
    0.0069153214
CT  2  -0.2521718728   1.3397611015  -0.1613089579
    0.0525097556    0.0547328269    0.0426675104    0.0101019472 >
   -0.0023950769   -0.0012220633    0.0095796849   -0.0025244230 >
   -0.0014623902
CT  3  -1.3767206579   0.7998713876  -0.3381896733
    0.0619526201    0.0466845546    0.0495236963   -0.0047144430 >
    0.0103189385   -0.0025612402   -0.0047047152    0.0102594416 >
   -0.0025503555
CT  4  -0.9714139530   0.5817291217   0.5425788828
    0.0445763015    0.0457162599    0.0678682592    0.0008709163 >
   -0.0043998520   -0.0028672975    0.0008611919   -0.0043403619 >
   -0.0028781760
CT  1  -0.5194998606  -0.1213801771  -0.4001763612 -- FOR W=32.239080I A.U.
    0.0017957127    0.0021730586    0.0017493677   -0.0002131175 >
   -0.0001260326    0.0002214025   -0.0001923635   -0.0001208922 >
    0.0002309526
CT  2  -0.2521718728   1.3397611015  -0.1613089579
    0.0019934869    0.0020611375    0.0016635159    0.0003378879 >
   -0.0000805738   -0.0000407747    0.0003171338   -0.0000857138 >
   -0.0000503250
CT  3  -1.3767206579   0.7998713876  -0.3381896733
    0.0024100243    0.0018366110    0.0019550913   -0.0001767782 >
    0.0003855455   -0.0000978055   -0.0001766600    0.0003848227 >
   -0.0000976732
CT  4  -0.9714139530   0.5817291217   0.5425788828
    0.0017653150    0.0018006848    0.0026357254    0.0000302113 >
   -0.0001590776   -0.0001094327    0.0000300932   -0.0001583550 >
   -0.0001095647
 STOP
 PROJECTION BASIS SET
A01O        -0.9321262407   0.6657504655  -0.0153445750    6.0
   S          6
     1      8588.5000000000     1.20501289
     2      1297.2300000000     2.21620477
     3       299.2960000000     3.62745250
     4        87.3771000000     4.88845231
     5        25.6789000000     4.83572052
     6         3.7400400000     0.53822949
   L          3
     7        42.1175000000     1.34195780     5.58401753
     8         9.6283700000     3.58711431     5.73336569
     9         2.8533200000    -0.00512347     4.33295474
   L          1
    10         0.9056610000     0.66165918     1.25935210
   L          1
    11         0.2556110000     0.25620922     0.25906844
   L          1
    12         0.0845000000     0.11169986     0.06493980
   D          1
    13         5.1680000000    29.15572464
   D          1
    14         1.2920000000     2.57702633
   D          1
    15         0.3230000000     0.22777910
   F          1
    16         1.4000000000     3.13864741
  
A02H         0.2794526791   1.9608363766  -0.2521272413    1.0
   S          3
    17        33.8650000000     0.25506932
    18         5.0947900000     0.46010866
    19         1.1587900000     0.67832145
   S          1
    20         0.3258400000     0.30737135
   S          1
    21         0.1027410000     0.12933556
   S          1
    22         0.0360000000     0.05890294
   P          1
    23         1.5000000000     2.36621477
   P          1
    24         0.3750000000     0.41829163
  
A03H        -0.2306788513  -0.8273976265  -0.7079480468    1.0
   S          3
    25        33.8650000000     0.25506932
    26         5.0947900000     0.46010866
    27         1.1587900000     0.67832145
   S          1
    28         0.3258400000     0.30737135
   S          1
    29         0.1027410000     0.12933556
   S          1
    30         0.0360000000     0.05890294
   P          1
    31         1.5000000000     2.36621477
   P          1
    32         0.3750000000     0.41829163
  
 STOP
 MULTIPLICITY    1
 STOP
 PROJECTION WAVEFUNCTION    4  65
 1  1 5.02379751E-02 8.91240608E-02-8.34375374E-02 1.70952269E-01 8.07359762E-02
 1  2-2.37267959E-01-1.27529679E-01 2.54965981E-01 1.21833936E-01-1.19524054E-01
 1  3-8.99847016E-02 1.21299053E-01 7.14508592E-02 1.94729410E-02-1.50533025E-02
 1  4 8.37695897E-03 9.00182200E-03 4.36065489E-03 3.34116791E-03 4.33992058E-03
 1  5 1.78138810E-03 7.28826431E-04-1.26611981E-03 1.24840458E-02 5.46119788E-03
 1  6 1.51801166E-02 1.53315608E-02 8.29542152E-03-1.14846909E-02 1.33653481E-02
 1  7 3.42255184E-02 2.24121231E-02-2.14022006E-03 4.83889664E-03 4.06098914E-03
 1  8-2.01382316E-03 6.54290480E-03-6.75349295E-04 1.29946872E-04 1.95937592E-03
 1  9-1.84449918E-03 3.69583436E-03-7.99148749E-04 3.35012857E-04-1.53091268E-03
 1 10 1.63266950E-02 5.79762552E-02 1.90543496E-02-5.20291927E-04-3.69584292E-03
 1 11 4.84851807E-03 2.90157457E-03-1.30703211E-02-3.13889295E-04 5.93689188E-03
 1 12-1.91857586E-01-2.97146189E-01-6.72265268E-02 1.01736019E-03 6.38076310E-03
 1 13-1.51493405E-02-6.68839167E-03 2.01303621E-02-4.56940304E-02-2.05807706E-02
 2  1-5.02378822E-02-8.91238924E-02 1.41726280E-01 1.47639588E-01-2.86525205E-02
 2  2 2.37267348E-01 2.14349439E-01 2.19569065E-01-4.42568850E-02 1.19525880E-01
 2  3 1.30199686E-01 9.85025615E-02-3.55180647E-02-1.94728023E-02 1.75018970E-02
 2  4 5.00626332E-03-6.81398178E-03-3.13203927E-03-4.03642875E-03-4.87324153E-03
 2  5 2.02220829E-03-4.39612758E-04-6.83051137E-04-1.92272117E-03-1.14378127E-02
 2  6-1.97647213E-02 1.73647788E-02-5.80932134E-03-5.27068317E-03-1.67716646E-02
 2  7-3.22979911E-02-2.09336556E-02-8.40495456E-03-5.64077698E-03 1.34297423E-03
 2  8 2.85998280E-03 4.97561691E-03 2.03717134E-04 2.28442399E-03-2.30735867E-03
 2  9 4.67901725E-03 7.32604787E-05-4.99123855E-05-1.14663607E-03-1.46362586E-04
 2 10 1.91857133E-01 2.97145405E-01 6.72269284E-02-1.01734640E-03-1.15838395E-02
 2 11-1.32893646E-02 2.03920835E-03-3.57910548E-02-3.99040500E-02 6.58707591E-03
 2 12-1.63266038E-02-5.79764463E-02-1.90543628E-02 5.20241893E-04 5.29961462E-03
 2 13 3.91720578E-03-1.46856265E-03 1.24716849E-02-2.95842859E-03-6.47189093E-03
 3  1 6.64333239E-02 1.22452309E-01 2.03351931E-01-5.73522543E-02 1.23240291E-01
 3  2-3.36393061E-01 2.97711380E-01-8.50446268E-02 1.87031283E-01-4.83419817E-01
 3  3 2.49901627E-01-7.74342700E-02 1.93987505E-01-6.84591430E-02 4.30430515E-02
 3  4-1.41419621E-02 3.83339632E-02 7.55336946E-03 6.83355745E-03 5.81327048E-03
 3  5-1.38622752E-04-7.27070786E-05 2.07295059E-04 3.29541247E-02 1.85391152E-02
 3  6 1.50245794E-02-3.35497080E-03 1.26911194E-03 3.39966991E-04 5.74111513E-02
 3  7 2.43193754E-02 2.94747696E-02-8.16828070E-03 5.12423788E-03-2.21423919E-03
 3  8 6.10148053E-03-3.23433275E-03 2.28400277E-03-2.03971634E-04 1.60602419E-04
 3  9 3.09667500E-03 4.48565647E-03-7.86821051E-04 1.36247054E-03 1.90656858E-03
 3 10 1.20723122E-02 7.83954140E-02 3.67564461E-02 1.24361553E-03 7.67602730E-03
 3 11-3.01688378E-03 5.26016268E-03-1.49856338E-03-2.09503678E-02 1.21037917E-02
 3 12 1.20722332E-02 7.83962093E-02 3.67563551E-02 1.24357378E-03 7.93580926E-03
 3 13-1.59724498E-03 5.49227182E-03 5.14381478E-03 1.53558328E-02 1.80392456E-02
 4  1 6.64334505E-02 1.22452553E-01 3.63418285E-02 3.25350501E-02-2.39687506E-01
 4  2-3.36393756E-01 4.82369902E-02 4.92261684E-02-3.55098694E-01-4.83421511E-01
 4  3 1.26656414E-02 5.02495886E-02-3.21546536E-01-6.84594974E-02-1.52045338E-03
 4  4 9.84276167E-03-5.85062566E-02 6.60650259E-03 6.78080949E-03 6.81293395E-03
 4  5 2.12211907E-04-9.95106685E-04 1.87354968E-04 2.12908821E-02 1.78892176E-02
 4  6 2.73379003E-02 9.66464872E-04-1.00926087E-02 9.43500375E-05 3.62747473E-02
 4  7 2.31415566E-02 5.17892486E-02-3.36920764E-04-1.54657059E-02-2.65948805E-03
 4  8-2.70855499E-04 2.80728438E-03-2.75856844E-03 1.17840561E-04-4.04443831E-03
 4  9-1.27112434E-03-5.48225336E-03 2.49510240E-03-1.87918261E-03-1.24135745E-03
 4 10 1.20725687E-02 7.83960044E-02 3.67566497E-02 1.24362057E-03 7.79603678E-04
 4 11 6.94837931E-04-9.72632099E-03-1.35012752E-02-1.44905014E-02-1.39789002E-02
 4 12 1.20726318E-02 7.83970421E-02 3.67566177E-02 1.24357785E-03 1.03935359E-03
 4 13 2.11456090E-03-9.49427216E-03-6.85890218E-03 2.18160027E-02-8.04345015E-03
 FOCK MATRIX ELEMENTS
   -0.9146913210    0.1861056232   -0.9146895182   -0.1823701751 >
    0.1823699134   -0.6753194511   -0.1823699538    0.1823698409 >
   -0.1647647259   -0.6753197155
 LMO CENTROIDS
CT1  -0.5194998606  -0.1213801771  -0.4001763612
CT2  -0.2521718728   1.3397611015  -0.1613089579
CT3  -1.3767206579   0.7998713876  -0.3381896733
CT4  -0.9714139530   0.5817291217   0.5425788828
 STOP
 CTVEC                       5                      7
 1  1 5.51334332E-01 4.72644602E-01 2.81127715E-03-2.91067739E-04-1.36577585E-03
 1  2 9.93333622E-04-5.79705920E-03 6.00199481E-04 2.81632887E-03-5.88556554E-03
 1  3-1.97625715E-04 2.04691709E-05 9.60125500E-05-6.85022700E-04-1.71817878E-04
 1  4 1.77880428E-05 8.34723231E-05 1.15350236E-03 1.21559234E-03 1.09873770E-03
 1  5 2.03852655E-05-3.48270871E-05 2.98379793E-05 2.12810711E-03 2.03010520E-03
 1  6 2.19882066E-03-3.02055457E-05 4.42468753E-05-4.19682248E-05 1.25653301E-03
 1  7 1.07463746E-03 1.42520197E-03-6.07511006E-05 1.07641885E-04-9.00962843E-05
 1  8 2.83307850E-03-3.15464935E-04-1.36715008E-03-9.32727368E-05-6.18842230E-04
 1  9 1.35870534E-03-6.65800164E-04 1.26011620E-03-1.48161429E-04 1.07934375E-05
 1 10 1.63072180E-04 1.02344268E-03 2.29598773E-04 5.54783851E-05 1.72919686E-05
 1 11-1.03174461E-05-1.05127306E-05-3.41820047E-04-3.78532739E-04 6.35453003E-05
 1 12 1.63071573E-04 1.02346095E-03 2.29598410E-04 5.54774345E-05 2.03547291E-05
 1 13 6.41856635E-06-7.77707626E-06-1.93177057E-04 4.33928246E-04 1.96368250E-04
 2  1-1.12191384E-01-2.02776201E-01 3.25363640E-02-3.36894956E-03-1.58068974E-02
 2  2 5.48304410E-01 5.67294685E-02-5.87392476E-03-2.75604322E-02 5.31940800E-01
 2  3 2.03424993E-02-2.10628627E-03-9.88282878E-03 3.32495401E-02 1.90774674E-03
 2  4-1.97520136E-04-9.26822352E-04-1.00979164E-02-9.80921867E-03-1.04678166E-02
 2  5 1.09231249E-04-2.40529803E-04 1.76315530E-04-3.04197817E-02-2.46043166E-02
 2  6-3.74523864E-02 2.14801251E-03-4.55969792E-03 3.41511333E-03-5.55753969E-02
 2  7-5.77827133E-02-5.81516897E-02-1.57433753E-04-1.84602627E-03 4.13749394E-04
 2  8 4.42680172E-04-7.32053168E-04 7.01413830E-04 1.28046143E-03-8.84622137E-04
 2  9 3.02740614E-03-1.68813883E-03-2.62626860E-04-6.46021849E-04 5.29418207E-04
 2 10 9.16310460E-02 7.43948953E-02-2.09333487E-03-1.30027881E-03-8.00327513E-03
 2 11-9.53882797E-03 1.32041066E-03-7.02468549E-03-8.45110496E-03 1.13948608E-03
 2 12 9.16317624E-02 7.43951660E-02-2.09336068E-03-1.30028422E-03-4.28021953E-03
 2 13 1.08106571E-02 4.64717378E-03-3.72860257E-03 9.56443857E-03 4.08467679E-03
 3  1-1.75223198E-07-3.26774131E-07 4.12158696E-02 2.25278496E-01 3.68289126E-02
 3  2 7.96434344E-07 6.13901243E-02 3.35546998E-01 5.48557675E-02 3.16615432E-06
 3  3 2.84357652E-02 1.55423241E-01 2.54087290E-02 3.81762400E-07 1.73133732E-03
 3  4 9.46337089E-03 1.54710433E-03 8.68736192E-04-4.91649051E-04-3.77138080E-04
 3  5 2.68954851E-03 2.04507599E-04-1.37827292E-03 7.46788210E-03-4.22617344E-03
 3  6-3.24188410E-03 2.31198066E-02 1.75796221E-03-1.18478410E-02-2.40880444E-03
 3  7 1.36288947E-03 1.04527714E-03-7.45654780E-03-5.66986750E-04 3.82118968E-03
 3  8 5.98313873E-04 8.14482460E-03-3.33492351E-04 1.70721757E-03-2.46051118E-04
 3  9 2.00430273E-03 2.66515782E-03-6.00381283E-04-5.73902095E-04-1.18601363E-03
 3 10 1.47208105E-01 2.51108561E-01 6.10099177E-02-1.08727934E-03-1.08043803E-02
 3 11-5.96857154E-03 3.49367388E-03-3.45501716E-02-2.84382984E-02 8.85579243E-03
 3 12-1.47208545E-01-2.51109997E-01-6.10099612E-02 1.08724401E-03 8.25925826E-03
 3 13-7.94232531E-03-5.76782739E-03 2.30531367E-02-3.44025703E-02-1.91291377E-02
 4  1-3.58828951E-02-6.89722739E-02-2.30254654E-01 2.38391376E-02 1.11862300E-01
 4  2 1.95640495E-01-3.39208413E-01 3.51194681E-02 1.64794191E-01 4.61521936E-01
 4  3-2.41448478E-01 2.49975264E-02 1.17300347E-01 9.50063713E-02-3.72604101E-02
 4  4 3.85782531E-03 1.81018780E-02-5.13354988E-03-4.86509639E-03-3.54633722E-03
 4  5-1.40622551E-04 1.09310860E-03-4.65584667E-04-2.54887271E-02-1.41748715E-02
 4  6-1.02557001E-02 5.52543432E-04 1.08447443E-02-2.78176256E-03-4.18809590E-02
 4  7-3.41986644E-04-2.93211911E-02 7.46779399E-03 1.02458659E-02 3.92417500E-03
 4  8-5.35527849E-03 8.85120497E-04-8.36807389E-05-8.27656879E-04 3.98272693E-03
 4  9-3.71203749E-03 2.05143202E-03-1.29260544E-03 9.02111953E-04-9.48389925E-04
 4 10-8.54443299E-02-1.88038035E-01-6.21129911E-02-1.23530066E-03-1.67520659E-03
 4 11 8.72915162E-03 2.93287200E-03 1.79240208E-02 3.66101153E-02 8.19128419E-04
 4 12-8.54438015E-02-1.88038072E-01-6.21124441E-02-1.23523131E-03-4.74774761E-03
 4 13-8.06412534E-03 1.87535457E-04 4.11046183E-03-3.88915816E-02-1.15239571E-02
 5  1 0.00000000E+00 0.00000000E+00 1.18094575E-01-6.35600628E-02 2.56628396E-01
 5  2 0.00000000E+00 1.76405916E-01-9.49439978E-02 3.83343326E-01-2.14240004E-11
 5  3 1.67751806E-01-9.02862418E-02 3.64537295E-01 0.00000000E+00 3.15112549E-02
 5  4-1.69597743E-02 6.84763275E-02 6.69548791E-04 3.73110214E-05-7.06859813E-04
 5  5-2.48078106E-04 6.52232032E-04 1.41014895E-05 8.24722150E-03 4.59584831E-04
 5  6-8.70680633E-03-3.05572572E-03 8.03392004E-03 1.73689021E-04 1.49458038E-02
 5  7 8.32841107E-04-1.57786449E-02-5.53762501E-03 1.45592617E-02 3.14826788E-04
 5  8 4.50593605E-03-4.27207361E-03 3.56563667E-03-2.27553904E-04 2.97340227E-03
 5  9 3.08850986E-03 7.04837019E-03-2.32066670E-03 2.29219269E-03 2.22592279E-03
 5 10 0.00000000E+00 2.68579541E-11 0.00000000E+00 2.18555298E-11 4.87651563E-03
 5 11-2.62460523E-03 1.05970353E-02 8.48716277E-03-4.56790330E-03 1.84432432E-02
 5 12 0.00000000E+00 0.00000000E+00 1.47390854E-11-3.31752364E-11 4.87654014E-03
 5 13-2.62461843E-03 1.05970886E-02 8.48718358E-03-4.56791449E-03 1.84432884E-02
 6  1-5.42523470E-02-1.63606873E-01 1.56018816E-01-1.61520382E-02-7.57967577E-02
 6  2 6.08107642E-01 2.52514546E-01-2.61418550E-02-1.22676120E-01 4.84265580E-01
 6  3 1.41976689E-01-1.46978670E-02-6.89747291E-02 3.61828198E-02 2.17208000E-02
 6  4-2.24867885E-03-1.05523584E-02-1.02842543E-02-9.83313307E-03-1.10364014E-02
 6  5 1.92533792E-04-4.94586294E-04 3.32273773E-04-3.00531332E-02-2.60021199E-02
 6  6-3.80839249E-02 1.88907917E-03-5.31175819E-03 3.39990789E-03-5.85823410E-02
 6  7-7.12633719E-02-5.66049394E-02-3.00878949E-03 8.34750995E-04-3.09240483E-03
 6  8-3.05075415E-04-5.91157072E-04 1.12366779E-03 1.22346950E-03-8.05511605E-04
 6  9 2.42825773E-03-1.38614036E-03-6.10827524E-04-5.76124573E-04 5.24865560E-04
 6 10-1.25553814E-01-3.46685323E-01-3.47308083E-01-1.28932555E-02-6.96194200E-03
 6 11-1.04602473E-02 6.13001557E-04-2.04715295E-02-2.50949350E-02 3.20518286E-03
 6 12-1.25551434E-01-3.46681552E-01-3.47305418E-01-1.28930773E-02-2.94668228E-03
 6 13 1.14861916E-02 4.20082217E-03-1.06983417E-02 2.83218757E-02 1.19377137E-02
 7  1 3.05336094E-07 1.11962683E-06 5.55606855E-02 3.03684881E-01 4.96469400E-02
 7  2-4.48649510E-06 8.80118528E-02 4.81056651E-01 7.86439416E-02-1.71043791E-06
 7  3 4.69696034E-02 2.56724060E-01 4.19694088E-02-3.69962505E-07 8.55408256E-03
 7  4 4.67554019E-02 7.64368079E-03 1.86863740E-04-1.05655084E-04-8.10238104E-05
 7  5 5.78312959E-04 4.39763057E-05-2.96362454E-04-8.40973026E-05 4.78114004E-05
 7  6 3.68296974E-05-2.60879877E-04-1.97761409E-05 1.33643602E-04-1.16150662E-02
 7  7 6.57371545E-03 5.04254706E-03-3.59598393E-02-2.73431114E-03 1.84278444E-02
 7  8-5.05893999E-04-3.34113682E-03-1.03405368E-04-1.29226373E-03 6.25858056E-07
 7  9-5.77750687E-04-8.68877305E-04 1.29435194E-04-3.84950102E-04 5.45146968E-04
 7 10-2.49133033E-01-4.23347872E-01-3.81553184E-01-2.64807102E-02 8.60831221E-04
 7 11 2.83028527E-03 3.04851739E-04-3.57075439E-02-3.76183052E-02 7.11474417E-03
 7 12 2.49134224E-01 4.23349869E-01 3.81557602E-01 2.64808972E-02 1.87592278E-04
 7 13 2.89986268E-03 6.31893529E-04 2.08710256E-02-4.34770542E-02-2.03724891E-02
 CTFOK
  -20.5628103061   -1.3577744980   -0.7285847964   -0.5831058540 >
   -0.5105548574
 STOP
SCREEN3      (FROM VDWSCL=   0.700)
 A01O       1.000000000   1.993295510
 A02H       1.000000000   2.507238232
 A03H       1.000000000   3.059845067
 BO21       1.000000000   1.925047370
 BO31       1.000000000   1.696117228
STOP
SCREEN       (FROM VDWSCL=   0.700)
 A01O       1.000000000   1.061362544
 A02H       1.000000000   4.097426419
 A03H       1.000000000  10.000000000
 BO21       1.000000000   0.508288404
 BO31       1.000000000   0.490522115
STOP
 $END

! TRAVIS-CI SMALL

! TRAVIS-CI SKIP
