!   test case from Hui, October 2010
!   acetone in a triplet state, with 1024 waters
!   the QM particle is treated by open shell perturbation theory
!   the solvent water is modeled by "POL5P"
!   periodic boundary conditions have been applied to the MD simulation
!   the 3-21G basis set is used, with 48 basis functions
!   Hui says it runs with HF, MP2, DFT, TDDFT and MCSCF wavefunctions
!
!    *** AT T=         30.00 FSEC, THIS RUN'S STEP NO.=      30
!    POT  ENERGY      =     -1.293160303E+05 KCAL/MOL
!    TRANS    KE      =         782.89812411 KCAL/MOL
!    ROT      KE      =         986.86702490 KCAL/MOL
!    TOT      KE      =        1769.76514901 KCAL/MOL
!    TOT  ENERGY      =     -1.275462652E+05 KCAL/MOL -0.77902229
!    TEMPERATURE      =         288.49210584 K
!
!    the acetone will be at
!    C           6.0  -0.1779187717  -0.0329261017   0.3738223408
!    C           6.0   1.2510157635   0.4782858265   0.3542729090
!    C           6.0  -1.3265846695   0.2412621839  -0.5387323684
!    O           8.0  -0.4046839063  -1.0583600971   1.3576811403
!    H           1.0   1.4347701711   0.8576937869  -0.5640174987
!    H           1.0  -1.6407400772  -0.5748651307  -1.0808149875
!    H           1.0  -2.2001298923   0.4804349504   0.0396803784
!    H           1.0  -1.0906572259   1.1633132100  -1.1466110090
!    H           1.0   1.4731864984   1.2762074078   1.1197557073
!    H           1.0   1.9879442370  -0.3115994928   0.5707421879
!            and the first and last of the 1024 waters at
!   FRAGNAME=POL5P   !   1
!    O1                -5.981876351866   -2.967147299548    2.322839069590
!    H2                -6.261990057445   -2.111705908047    2.648390458353
!    H3                -6.240545468748   -2.969650213274    1.401258149396
!   FRAGNAME=POL5P   !1024
!    O1                15.792762566358   -1.182353723794   -0.647481222236
!    H2                15.264905164298   -1.774902666032   -0.112243253464
!    H3                16.696761656717   -1.448798398777   -0.480088722779
!
!   this run takes 6034 seconds on 2.66 GHz Cloverton (12 Oct 2010)
!
 $CONTRL SCFTYP=ROHF RUNTYP=MD MULT=3 MPLEVL=2 $END
 $SYSTEM TIMLIM=999 MWORDS=50 MEMDDI=50 KDIAG=3 $END
 $MD     NVTNH=0 BATHT=298.15 RSTEMP=.F. DTEMP=3
         DT=1.0d-15 JEVERY=1 KEVERY=1
         READ=.F. NSTEPS=30 MBT=.T. MBR=.T. QRAND=.F. $END
 $BASIS  GBASIS=N21 NGAUSS=3 NDFUNC=1 $END
 $SCF    DIIS=.T. SOSCF=.F. DIRSCF=.T.
         FDIFF=.F. ETHRSH=10.0 SOGTOL=10.0 NPUNCH=1  $END
 $DATA
acetone volume = 94.0 A3; the first atom is affected by 'RQM'
C1
C           6.0       -0.0728482564        0.0163719506        0.2679091650
C           6.0        1.3939179438        0.3612053430        0.1478982973
C           6.0       -1.2385628104        0.3130909668       -0.6028632297
O           8.0       -0.4043164560       -1.0510979563        1.1614339003
H           1.0        1.5883165578        0.8872286768       -0.6765691173
H           1.0       -1.4411228385       -0.4253097505       -1.2326706475
H           1.0       -1.9940702461        0.4605698421        0.1118577500
H           1.0       -1.0988398130        1.2232385161       -1.2401740563
H           1.0        1.7378788492        1.0301313946        1.0493669996
H           1.0        2.0078621573       -0.5329913744        0.1604598667
 $END
! the volume of each water = 30.00 A3, 1024 water + acetone = 30814 A3
! the first atom of acetone is confined within 0.5 A to the origin
! by a soft potential V=(R-RQM)^2 [R and RQM in au, V in au in the formula], 
! R is the distance of the 1st QM atom from the origin. In the input deck 
! RQM is in Angstrom.
!
! POL5P is a 5-point polarizable water model with QM-MM repulsion.
! It can be changed to H2ODFT or H2ORHF, or TIP5P, TIP5PE, SPC, SPCE
! I have added QM-MM repulsion for TIP5P, TIP5PE, SPC, SPCE
!
 $EFRAG
  xbox=31.3508 ybox=31.3508 zbox=31.3508 swr1=14.6750 swr2=15.6750 >
  ICENFD=1  RQM=0.5
FRAGNAME=POL5P   !   1
O1                    -5.9619317583       -3.0421902536        2.1816049032
H2                    -6.0427574904       -2.1299652239        2.4600650715
H3                    -6.4252462961       -3.0796261644        1.3448459411
FRAGNAME=POL5P   !   2
O1                    -9.1305961223        5.7907795601      -11.6101786953
H2                    -8.2746207748        5.8467217613      -11.1854387235
H3                    -9.2170640536        6.6170704725      -12.0855669514
FRAGNAME=POL5P   !   3
O1                    -2.3286701928      -15.5552616905        6.6885695386
H2                    -2.2103472551      -15.4697447121        5.7425706497
H3                    -2.0714225952      -16.4567087756        6.8820745653
FRAGNAME=POL5P   !   4
O1                    -3.6785796520        2.8437912851      -11.9376850863
H2                    -4.1598821882        2.0167921650      -11.9631348983
H3                    -4.1214625315        3.3990493284      -12.5793786498
FRAGNAME=POL5P   !   5
O1                    -4.4554340201       -5.3471296049      -14.4923450930
H2                    -3.5667295478       -5.5718833867      -14.2168138469
H3                    -4.6825723888       -4.5796443054      -13.9673671454
FRAGNAME=POL5P   !   6
O1                    -8.8563080920        3.9112543624        4.7317366248
H2                    -9.7662806859        4.0401959642        4.4642458572
H3                    -8.5653197010        4.7770744474        5.0179335950
FRAGNAME=POL5P   !   7
O1                    -9.9673378844       -6.3442606835        2.4518739562
H2                    -9.8189564501       -5.4004060569        2.5097424534
H3                   -10.5004626639       -6.4555583239        1.6647156660
FRAGNAME=POL5P   !   8
O1                   -13.1288700592       -2.1642358714       -6.6863046033
H2                   -12.3792382507       -1.6103882275       -6.9043236577
H3                   -13.5308173884       -1.7371603799       -5.9298178300
FRAGNAME=POL5P   !   9
O1                    -4.9328546268        3.9076803316      -14.0830653110
H2                    -5.2676417271        4.8040845237      -14.0584789122
H3                    -4.7995798131        3.7267224416      -15.0135057632
FRAGNAME=POL5P   !  10
O1                     0.5745001539       11.2501442805        1.3552147091
H2                    -0.3031017659       11.2071546306        1.7349437303
H3                     0.9927909266       10.4323535032        1.6244329164
FRAGNAME=POL5P   !  11
O1                     0.7498027737       -5.0419414338        2.7836984102
H2                     0.4515567751       -4.9013224957        1.8850866989
H3                     1.6852645244       -4.8404602563        2.7603742370
FRAGNAME=POL5P   !  12
O1                    -7.1047196758        9.7081643414        6.6479218840
H2                    -6.8736055412        9.6350766005        7.5739196205
H3                    -6.4097960879        9.2361011825        6.1891572928
FRAGNAME=POL5P   !  13
O1                    -9.2975798144        3.4618979505       -4.1721209093
H2                    -8.3648430147        3.4728716347       -4.3868509954
H3                    -9.3692540175        4.0033495507       -3.3860418151
FRAGNAME=POL5P   !  14
O1                    -0.9249480553        6.0499239224       12.6636702356
H2                    -0.8089060079        5.8812205044       13.5987107530
H3                    -0.4797811519        6.8838409905       12.5132171845
FRAGNAME=POL5P   !  15
O1                   -11.1982803986       -9.4527895675       -2.8239423949
H2                   -11.4899406445       -9.8406188027       -3.6490182425
H3                   -11.2350628675      -10.1726751639       -2.1941494549
FRAGNAME=POL5P   !  16
O1                    -4.7813638571      -12.9511734147       -0.0337628157
H2                    -5.2077572104      -12.7201332779        0.7914865603
H3                    -4.0132939551      -13.4593929807        0.2270222824
FRAGNAME=POL5P   !  17
O1                   -11.5489378066       11.8231595032       -3.3735606193
H2                   -12.3975664403       11.3963887327       -3.4915585874
H3                   -11.2265748543       11.9664151196       -4.2633849416
FRAGNAME=POL5P   !  18
O1                    -6.1142766040       -4.0826312480        7.1878749968
H2                    -5.9873092406       -3.2919849296        6.6634848205
H3                    -6.2184481698       -3.7622083629        8.0838129571
FRAGNAME=POL5P   !  19
O1                     0.6121900625        3.3873565912        9.3533732372
H2                     0.8703618007        2.8774679627        8.5855266971
H3                    -0.0428758841        4.0025543892        9.0237558165
FRAGNAME=POL5P   !  20
O1                     5.6817843737       -3.8433908939       11.5239418916
H2                     5.2569312094       -4.6681705764       11.7594533205
H3                     5.0942698794       -3.4457386529       10.8813480981
FRAGNAME=POL5P   !  21
O1                    -8.2636796956      -11.9254631195        0.3076634979
H2                    -7.8950223392      -12.7992775248        0.4371529091
H3                    -8.4240582228      -11.5990402349        1.1930753781
FRAGNAME=POL5P   !  22
O1                    -7.4121807671       -1.3916097423        7.5409843942
H2                    -7.0675890701       -0.5073763902        7.6659456299
H3                    -7.4141665849       -1.7745889638        8.4182245788
FRAGNAME=POL5P   !  23
O1                   -10.4286922592       -7.0364199613       -2.2885137676
H2                   -11.2987655008       -6.8994329885       -2.6632596718
H3                   -10.2688139050       -7.9747263423       -2.3897432903
FRAGNAME=POL5P   !  24
O1                    -5.4637191689       -2.0298066204       -6.2729643198
H2                    -5.9155828211       -1.7568950148       -5.4744871039
H3                    -5.3407016872       -2.9733062829       -6.1685494974
FRAGNAME=POL5P   !  25
O1                    -3.1831191587       -0.5627859992       -6.4891673432
H2                    -4.0296852174       -1.0067841019       -6.5383502871
H3                    -3.3353571210        0.2899586990       -6.8964478997
FRAGNAME=POL5P   !  26
O1                     0.2425945482       -8.7935057857        1.1899431069
H2                     0.9268799517       -8.1305381038        1.0979936190
H3                    -0.4308430243       -8.3709619161        1.7230152251
FRAGNAME=POL5P   !  27
O1                    -9.4334166769        7.5252763835       -7.3625941229
H2                   -10.2262455496        7.4687627573       -6.8292499960
H3                    -8.9090873026        6.7709226253       -7.0937884613
FRAGNAME=POL5P   !  28
O1                     2.1637550796       13.4830406287        1.6278979715
H2                     1.4641532636       12.8617922104        1.4258210780
H3                     2.9662440230       12.9630416163        1.5850040098
FRAGNAME=POL5P   !  29
O1                    -2.1562881812       13.1269243431        2.2634168404
H2                    -1.8302622684       12.2579775429        2.4976516193
H3                    -3.0142049629       12.9637479084        1.8715244880
FRAGNAME=POL5P   !  30
O1                   -10.7905215920       -7.6726687360       10.8713666844
H2                   -10.2220622545       -7.7060761706       10.1019738758
H3                   -10.8183689753       -8.5753599404       11.1885424744
FRAGNAME=POL5P   !  31
O1                     0.6508746040       17.2224928685       -1.1470226012
H2                     0.9402182482       16.3598516412       -0.8497723069
H3                     0.5446798090       17.1270146269       -2.0935076460
FRAGNAME=POL5P   !  32
O1                     7.6956254912        8.0338926690       -0.7537725180
H2                     7.6290834880        8.4792194384        0.0909070659
H3                     7.2829147950        7.1824062598       -0.6093144085
FRAGNAME=POL5P   !  33
O1                    -1.7811455773      -10.6455990461        2.7501115891
H2                    -1.6910594673      -11.5969165491        2.8058508968
H3                    -1.1605159741      -10.3075414300        3.3956836709
FRAGNAME=POL5P   !  34
O1                    -5.8045368587       14.2527080970        7.6080311568
H2                    -6.5549479217       14.0431792723        8.1640961504
H3                    -5.3449245759       13.4198771225        7.5013705435
FRAGNAME=POL5P   !  35
O1                    -6.2451227031       -0.0515087149        4.4859940099
H2                    -5.4658342505        0.0104331936        5.0383526585
H3                    -6.8604996190        0.5741802563        4.8681614232
FRAGNAME=POL5P   !  36
O1                    -5.0889605732       13.6879865454       -9.0789152344
H2                    -5.7082159199       14.3488263668       -9.3888199215
H3                    -5.1346810114       13.7451155807       -8.1245184176
FRAGNAME=POL5P   !  37
O1                    -4.9016140698       12.1449671352        2.5029466580
H2                    -5.6298395006       11.5980835245        2.7976217455
H3                    -5.1811643079       12.4776988999        1.6500875804
FRAGNAME=POL5P   !  38
O1                    -4.2816123925       -7.3617968552        7.5418799909
H2                    -4.2135235543       -6.8206427282        6.7552774928
H3                    -4.2748642683       -6.7352709493        8.2655146509
FRAGNAME=POL5P   !  39
O1                     5.8567335244      -15.7602396097       -2.5124493947
H2                     5.7794310545      -16.5854402802       -2.0336012449
H3                     5.3727822685      -15.1281363874       -1.9809759077
FRAGNAME=POL5P   !  40
O1                    -2.4435247911        2.3708090897       -5.0311574042
H2                    -1.8868609693        2.0856539259       -5.7557533545
H3                    -2.1987301824        3.2846755683       -4.8857234744
FRAGNAME=POL5P   !  41
O1                   -11.6482104773        8.3281078206       -1.7598429249
H2                   -11.5904032818        9.0090503274       -1.0896168439
H3                   -12.5402496091        8.4006208961       -2.0993063402
FRAGNAME=POL5P   !  42
O1                   -10.5409646459       10.9219112883        4.5630912690
H2                   -10.6792463623       11.4584002219        5.3436584730
H3                   -10.2626433053       11.5437505886        3.8907219620
FRAGNAME=POL5P   !  43
O1                    -3.5811836539        0.2830420886        5.2125354176
H2                    -3.4173149306       -0.5926834031        4.8625650277
H3                    -2.7435467211        0.7376534134        5.1235394554
FRAGNAME=POL5P   !  44
O1                    -9.7273480837        8.6680286547        5.7903213348
H2                    -9.9968668443        9.4338196948        5.2832206647
H3                    -9.3866890064        9.0297287434        6.6084605699
FRAGNAME=POL5P   !  45
O1                    -7.7517013118       -0.7285722691        1.5532685668
H2                    -8.3731023065       -0.8563166944        0.8364913806
H3                    -8.1601769507       -0.0654058481        2.1096724845
FRAGNAME=POL5P   !  46
O1                    -2.5162540535      -10.6447892600        5.7662952602
H2                    -3.3292539747      -11.0200655670        6.1045646655
H3                    -1.8426089437      -11.2847184270        5.9963393785
FRAGNAME=POL5P   !  47
O1                    -3.9326238094      -11.1951143534       -7.4480865895
H2                    -3.2913705474      -11.6363876424       -6.8910412524
H3                    -3.5027849166      -11.1260395267       -8.3005504090
FRAGNAME=POL5P   !  48
O1                     0.6458211437       -4.4526433090        0.1716636484
H2                     1.1614331580       -3.6970135186       -0.1101079607
H3                    -0.1473567488       -4.4147045588       -0.3628051076
FRAGNAME=POL5P   !  49
O1                     1.7532867296        7.1624118132      -13.9301472632
H2                     1.3056902548        6.6497033318      -14.6032109882
H3                     2.1577830202        6.5086637634      -13.3598634677
FRAGNAME=POL5P   !  50
O1                    -4.4967160018      -12.9790289548       -4.9901493152
H2                    -5.1943148948      -12.3415468052       -4.8378349613
H3                    -3.7616576276      -12.6601001291       -4.4665073003
FRAGNAME=POL5P   !  51
O1                   -13.0383886646       -6.4711299407       -3.6871017111
H2                   -13.4045465077       -7.3526636893       -3.6160098466
H3                   -13.2921737962       -6.1756546620       -4.5614671014
FRAGNAME=POL5P   !  52
O1                    -4.5082681437       -7.6226396231        2.0492517085
H2                    -4.0617521477       -8.0496054970        2.7803816401
H3                    -4.5549251646       -6.7005991854        2.3020202245
FRAGNAME=POL5P   !  53
O1                    -7.3809204102       -1.4961723585       -2.2444679601
H2                    -6.8451584125       -0.7477998270       -2.5073843063
H3                    -7.5005807103       -2.0002196179       -3.0493562392
FRAGNAME=POL5P   !  54
O1                     6.6894983456       13.1723718882       -8.3037537426
H2                     6.7203542800       12.9486453823       -7.3735807851
H3                     7.3682793054       13.8383607627       -8.4130359311
FRAGNAME=POL5P   !  55
O1                     2.6585653357       13.8409288629       -6.3824191937
H2                     3.2304601806       13.3726951591       -5.7742080017
H3                     3.1560755420       13.8780453837       -7.1993239174
FRAGNAME=POL5P   !  56
O1                    -4.2983198335       12.0632131382        7.7168385427
H2                    -4.6414085352       11.3532365934        7.1742053170
H3                    -3.9642914554       11.6264866368        8.5003705297
FRAGNAME=POL5P   !  57
O1                   -13.8102346104       -2.5360419356        2.9516493545
H2                   -14.3525152932       -3.1348181621        3.4650946396
H3                   -13.6327730674       -3.0098763367        2.1391127521
FRAGNAME=POL5P   !  58
O1                   -10.5332480574        8.0044403444       -9.6583713410
H2                   -10.4024738295        7.8234570219       -8.7275810814
H3                    -9.6674238090        8.2591422776       -9.9772798942
FRAGNAME=POL5P   !  59
O1                    -5.5752649574       12.1915011089       -6.1680360017
H2                    -5.2222737426       11.4273336533       -5.7123248310
H3                    -6.5203908079       12.0417335931       -6.1911484898
FRAGNAME=POL5P   !  60
O1                    -8.0190660495        9.1223215888       -4.7502413636
H2                    -8.8156322304        8.6041114089       -4.6354899023
H3                    -7.3655055868        8.6811264389       -4.2076246201
FRAGNAME=POL5P   !  61
O1                    -9.4440831446      -14.5182827325        4.2120189899
H2                    -9.3814830680      -15.4260595401        4.5090877817
H3                    -8.6055771901      -14.1271547889        4.4572822470
FRAGNAME=POL5P   !  62
O1                   -14.2944243464        3.7536109885        0.8041673581
H2                   -13.4259664861        3.6360113290        1.1891071379
H3                   -14.2319159764        3.3440351855       -0.0587160259
FRAGNAME=POL5P   !  63
O1                    -8.8153831008       -4.9075691130       -1.7962596921
H2                    -8.4318582428       -4.9634749140       -2.6714800037
H3                    -9.4321965900       -5.6384992191       -1.7574052387
FRAGNAME=POL5P   !  64
O1                    -5.2232298690       -5.9455858984        5.3238022174
H2                    -4.6787391981       -5.5036391026        4.6723113824
H3                    -5.8629006880       -5.2850767480        5.5898403251
FRAGNAME=POL5P   !  65
O1                    -0.1820982111        2.5178472035      -17.1007690511
H2                    -1.0421484026        2.4918806740      -16.6814043212
H3                    -0.3228451014        3.0152703833      -17.9063668800
FRAGNAME=POL5P   !  66
O1                     2.5562807173       -4.0987785163        8.3629724715
H2                     1.6016607217       -4.0674914463        8.4258147535
H3                     2.7707448758       -5.0293128400        8.4288387462
FRAGNAME=POL5P   !  67
O1                    -5.9007088586       -0.8616829394       10.0904150287
H2                    -5.7485893778       -0.3345465767        9.3060590586
H3                    -5.0589932028       -0.8621539310       10.5462021521
FRAGNAME=POL5P   !  68
O1                   -14.4523176905        9.8843862287        5.9022046575
H2                   -13.8031192320        9.3811235116        6.3936264400
H3                   -14.0929436270        9.9397965180        5.0167627614
FRAGNAME=POL5P   !  69
O1                   -10.3952293855      -14.1923381407        1.5787354951
H2                   -11.2250887672      -13.7207232146        1.6504302451
H3                    -9.9325528123      -13.9888412237        2.3915988061
FRAGNAME=POL5P   !  70
O1                    -8.6999472756       -0.3052197885       -8.4078521423
H2                    -8.6410431731        0.3307533097       -7.6949034105
H3                    -9.0849061862        0.1842109187       -9.1348264121
FRAGNAME=POL5P   !  71
O1                   -11.1147345959       -3.0422591753       11.7767932148
H2                   -10.6771171429       -3.8560310767       12.0267804674
H3                   -11.1213462519       -3.0575436715       10.8197404267
FRAGNAME=POL5P   !  72
O1                   -14.1736884669       10.8054965582       -0.9066593520
H2                   -14.5520598234       10.0177801716       -1.2972555374
H3                   -14.3879511564       11.5057047531       -1.5231229379
FRAGNAME=POL5P   !  73
O1                     2.3208550326      -11.0226531012       12.7092707793
H2                     2.2474391306      -11.5512715593       13.5038776004
H3                     1.4319385762      -10.7059815033       12.5487279450
FRAGNAME=POL5P   !  74
O1                     1.5382130945        9.2111896922       -6.3744139458
H2                     1.5582770285       10.1071897894       -6.0382463784
H3                     1.8692783561        9.2832839287       -7.2696377070
FRAGNAME=POL5P   !  75
O1                     0.5913939229       -3.9641702488       -8.1096131219
H2                     0.5833133530       -4.2416053216       -7.1935389689
H3                    -0.2158498971       -3.4607057885       -8.2150091428
FRAGNAME=POL5P   !  76
O1                    -8.5260613697        2.0000690907       -6.2790762068
H2                    -7.8520672338        2.6743011252       -6.1932249545
H3                    -9.3243945074        2.4159904206       -5.9536518413
FRAGNAME=POL5P   !  77
O1                    -2.7913874999        8.5659703589       -6.8413170734
H2                    -2.0940388187        8.5668379574       -6.1856255048
H3                    -3.5810028026        8.7972043708       -6.3521689624
FRAGNAME=POL5P   !  78
O1                   -10.0994340317        0.8558626166       -4.0268497753
H2                    -9.6334077776        0.5677461125       -3.2419703071
H3                    -9.8640319754        1.7789301583       -4.1204422668
FRAGNAME=POL5P   !  79
O1                    -2.9331490007       -3.2667689770        0.9349239496
H2                    -3.6551708879       -3.7819248423        0.5750264672
H3                    -2.2392131967       -3.3353633240        0.2791989428
FRAGNAME=POL5P   !  80
O1                   -14.6262875617        8.5173154749       -2.3020596021
H2                   -15.2294102401        8.2862491159       -3.0085146549
H3                   -14.8303640493        7.8990007162       -1.6004421739
FRAGNAME=POL5P   !  81
O1                    -8.4720494391       15.3528044081       -0.9131292694
H2                    -8.8549293101       16.0676835617       -1.4216350896
H3                    -7.5803258527       15.6442538200       -0.7230933390
FRAGNAME=POL5P   !  82
O1                    -4.0624452561       -5.0267358759        2.9937221997
H2                    -4.5856944361       -4.2787475183        2.7057099054
H3                    -3.1558257397       -4.7536510637        2.8533900694
FRAGNAME=POL5P   !  83
O1                     0.2334995945       -7.4489753193      -11.6028007378
H2                     0.0015626766       -7.1041580237      -12.4650847211
H3                     0.6164666373       -6.7030389867      -11.1411270426
FRAGNAME=POL5P   !  84
O1                    -7.6563112703       -2.5939558345        4.6789686941
H2                    -8.1676707112       -2.3923759896        5.4626168660
H3                    -6.9936065103       -1.9043185898        4.6408866645
FRAGNAME=POL5P   !  85
O1                    -6.1056525317        7.1002883408       -8.2481743348
H2                    -5.8310154275        6.6911253870       -7.4275724171
H3                    -5.9215684477        6.4417920274       -8.9180422503
FRAGNAME=POL5P   !  86
O1                     3.7045402871       10.5200904154       14.3206576669
H2                     3.7030456138       10.0660894275       15.1633368692
H3                     4.6094501664       10.4561778571       14.0152388327
FRAGNAME=POL5P   !  87
O1                    -1.8539104394        5.1931553233       -8.0425617987
H2                    -0.9967387197        4.7865355222       -7.9155013821
H3                    -2.3825149784        4.5132208410       -8.4602862416
FRAGNAME=POL5P   !  88
O1                    -4.6736528425        5.2633368342        3.9429531802
H2                    -3.9265274185        4.8354761490        4.3612427976
H3                    -5.3434267554        4.5813632746        3.8925315715
FRAGNAME=POL5P   !  89
O1                    -5.0140771184        8.5205408905       14.5111830115
H2                    -4.1402460819        8.8451780542       14.2937953376
H3                    -5.0520145833        8.5551276316       15.4670030130
FRAGNAME=POL5P   !  90
O1                    -5.5671337006       -4.6318513011       14.5824332712
H2                    -6.3455204965       -4.8617252637       15.0898771857
H3                    -4.8502831032       -4.6612041779       15.2160664449
FRAGNAME=POL5P   !  91
O1                     5.6686116172       14.2830515295        4.6941071798
H2                     4.8342898795       14.4344305473        4.2500137211
H3                     5.9512693479       15.1527774070        4.9767887576
FRAGNAME=POL5P   !  92
O1                    -9.5167451076       -2.1140670925      -14.2033271378
H2                    -9.2888199057       -2.4495778382      -13.3363150208
H3                   -10.1315658094       -1.4010265547      -14.0307117699
FRAGNAME=POL5P   !  93
O1                    -2.1066698726      -14.9022844226       -8.6063838635
H2                    -2.9228264018      -14.8901978205       -9.1063536656
H3                    -1.6211192657      -14.1397861938       -8.9211288844
FRAGNAME=POL5P   !  94
O1                    -9.9280724816        5.9846607689        3.0626735044
H2                   -10.5839256519        6.4042358454        3.6194865280
H3                   -10.2267855410        6.1555932637        2.1694882159
FRAGNAME=POL5P   !  95
O1                     0.3461226782        5.1559142342      -15.2128840557
H2                     0.9632933455        4.5031286055      -15.5433362602
H3                    -0.2632344056        4.6565071749      -14.6692813490
FRAGNAME=POL5P   !  96
O1                    -6.3552833058        9.4692477319       -1.7912661906
H2                    -5.7999751473        8.9902752678       -2.4064455114
H3                    -6.2696886987       10.3856602142       -2.0541142352
FRAGNAME=POL5P   !  97
O1                    -7.8638924154       12.2770476197        8.3077489512
H2                    -7.8924343488       11.8676408813        9.1725025864
H3                    -7.4132387834       11.6387727195        7.7548078830
FRAGNAME=POL5P   !  98
O1                    -8.0995003107       12.2765169111       -8.2304471971
H2                    -7.9380637348       11.3697492422       -7.9697980158
H3                    -8.8975947669       12.2362872329       -8.7573762065
FRAGNAME=POL5P   !  99
O1                    -1.5067000463        6.0805126100        9.8400913324
H2                    -1.8121417127        6.0816281332       10.7472470595
H3                    -0.5557386370        5.9944899053        9.9071723378
FRAGNAME=POL5P   ! 100
O1                    -4.6117081396        1.3656176630        2.5232053811
H2                    -5.3295190284        0.8474366145        2.8871604581
H3                    -3.9077764653        0.7330533606        2.3797830318
FRAGNAME=POL5P   ! 101
O1                     3.3459124331      -11.3868535915        3.6754902536
H2                     3.2395383314      -10.4765933496        3.3991965483
H3                     3.4316222219      -11.3401633558        4.6276988563
FRAGNAME=POL5P   ! 102
O1                    -5.6332989972       14.9857659687        2.4252750381
H2                    -5.4883684306       14.2538259930        1.8257032143
H3                    -5.3538512762       14.6554968260        3.2791243420
FRAGNAME=POL5P   ! 103
O1                    -6.3976743300        3.2775849467        4.0681105588
H2                    -7.3338553871        3.4730506653        4.1079295282
H3                    -6.3193633869        2.6178585652        3.3790126943
FRAGNAME=POL5P   ! 104
O1                    -8.1670280943        5.5659723269       -6.2685745112
H2                    -7.6859844341        4.7569670402       -6.4427434290