!   PCM treatment of solvent dependence of n->pi* transition in acetone
!   The functional taken (with no forethought) for the TD-DFT is CAM-B3LYP
!   Inspired by K.Aidas, J.Kongsted, A.Osted, K.V.Mikkelsen, O.Chrstiansen
!   J.Phys.Chem.A 109, 8001-8010(2005) on methanol solvent shifts.
!
!   Since the n orbital has b1 symmetry, and pi* has b2, the state is A2,
!   and is easily shown to be a "dark" state:
!             b1
!   < 1-A-1 | b2 | 1-A-2>    as all three dipole components vanish.
!             a1
!   See D.W.Liao, A.M.Mebel, M.Hayashi, Y.J.Shiu, Y.T.Chen, S.H.Lin
!   J.Chem.Phys. 111, 205-215(1999) for information about vibronic
!   coupling for this symmetry forbidden transition.
!
!   Expected results are the 3rd set below:
!
!   C2v acetone in gas phase:          SUMMARY OF TDDFT RESULTS
!  STATE        ENERGY     EXCITATION  TRANSITION DIPOLE, A.U.  OSCILLATOR
!              HARTREE          EV         X       Y       Z     STRENGTH
!  0  A1   -193.0797679655    0.000
!  1  A2   -192.9117812010    4.571     0.0000  0.0000  0.0000    0.000
!
!   C2v acetone (gas phase geometry) in PCM "water":
!  0  A    -193.0877475369    0.000
!  1  A    -192.9141927804    4.723     0.0000  0.0002  0.0000    0.000
!
!   C2 acetone + 2 EFP1 waters (QM/MM cluster geometry):
!  0  A    -193.0949554195    0.000
!  1  A    -192.9190849009    4.786     0.0000  0.0000  0.0005    0.000
!   with the excited state having RMS gradient= 0.027684137
!
!   this test takes 628 seconds on 2.66 GHz Cloverton (26 Oct 2015)
!   results have not changed since 2010.
!
!   some scalability data collected September 2010 (2.66 GHz Dell, GE)
!                            p=1    p=4    p=8   (last two run on 4 nodes)
!       through G.S. DFT   105.1   26.8   14.2
!       erf integrals       11.4    2.6    1.5
!       2e- integrals        9.9    2.7    1.3
!       TD-DFT energy      160.6   40.1   20.9
!       TD-DFT response    246.6   60.9   31.6
!       1e- gradient ints    6.3    1.6    0.8
!       2e- grid grad      211.6   54.6   30.5
!       2e- gradient ints   87.1   21.9   11.0
!       total CPU          838.7  211.2  111.7
!       total wall         843.0  224.7  117.8
!
 $contrl scftyp=rhf dfttyp=camb3lyp tddft=excite
         runtyp=gradient ispher=1 nzvar=0 $end
 $system mwords=4 $end
 $basis  gbasis=accd $end
--- $pcm    solvnt=water $end
 $data
RHF/aug-cc-pVDZ acetone + 2 EFP1 waters...QM/MM optimized geometry
Cn 2

C     6.0   0.0000000000   0.0000000000  -0.0432113994
O     8.0   0.0000000000   0.0000000000   1.1590201998
C     6.0   1.2861088033   0.0582843614  -0.8292086682
H     1.0   2.1321706208   0.2280949769  -0.1708072192
H     1.0   1.2288847116   0.8446781351  -1.5829425658
H     1.0   1.4190300070  -0.8878017241  -1.3579085868
 $end
 $efrag
coord=cart
FRAGNAME=H2ORHF
O1        -2.6771420387  -0.1550091552   2.5294320894
H2        -1.7785379564  -0.0717068962   2.2529363551
H3        -2.6860527280  -0.7772929520   3.2390530657
FRAGNAME=H2ORHF
O1         2.6771420387   0.1550091552   2.5294320895
H2         1.7785379564   0.0717068962   2.2529363552
H3         2.6860527280   0.7772929520   3.2390530657
 $end

         ======= acetone monomer =====
gas phase, RHF/ACCD geometry, C2v symmetry:
C     6.0   0.0000000000   0.0000000000   0.1638001129
O     8.0   0.0000000000   0.0000000000   1.3576803180
C     6.0   1.2886502268   0.0000000000  -0.6283880620
H     1.0   2.1386004913   0.0000000000   0.0473387131
H     1.0   1.3290641911   0.8791313807  -1.2741480762

====== data for cluster of QM acetone + 2 EFP1 waters ======
RHF/ACCD for the acetone, and H2ORHF potentials for waters
water molecule's non-H bonded hydrogens are well out of heavy atom plane.
This is positive definite, but note that the hessian job requires
the manual input of NOSYM=1.  The geometry optimization was started
with the full cluster exact C2 geometry, and apparently ran in C2
just fine.  Note that the final EFP geometries turned out to be
almost C2 symmetric.  The hessian has very large gradients at vib0
when symmetry is not explicitly turned off.
   When did symmetry start staying on in EFP jobs?
C     6.0   0.0000000000   0.0000000000  -0.0432113994
O     8.0   0.0000000000   0.0000000000   1.1590201998
C     6.0   1.2861088033   0.0582843614  -0.8292086682
H     1.0   2.1321706208   0.2280949769  -0.1708072192
H     1.0   1.2288847116   0.8446781351  -1.5829425658
H     1.0   1.4190300070  -0.8878017241  -1.3579085868
FRAGNAME=H2ORHF
O1        -2.6771420387  -0.1550091552   2.5294320894
H2        -1.7785379564  -0.0717068962   2.2529363551
H3        -2.6860527280  -0.7772929520   3.2390530657
FRAGNAME=H2ORHF
O1         2.6771420387   0.1550091552   2.5294320895
H2         1.7785379564   0.0717068962   2.2529363552
H3         2.6860527280   0.7772929520   3.2390530657

====== data for fully QM cluster of acetone + 2 waters ======
C2 symmetry, RHF/ACCD level, positive definite hessian
water molecules lie nearly in the heavy atom plane of the acetone!
---$contrl nzvar=42 $end
---$zmat   dlc=.t. auto=.t. nonvdw(1)=2,11,2,12 $end
geometry from optimization, matches derivative groups stored below:
C     6.0   0.0000000000   0.0000000000  -0.0335765287
O     8.0   0.0000000000   0.0000000000   1.1686988365
C     6.0   1.2861263707   0.0506855118  -0.8201505398
H     1.0   2.1369621198   0.1795531699  -0.1594872190
H     1.0   1.2459262538   0.8643392963  -1.5454699792
H     1.0   1.3950099328  -0.8788236420  -1.3821158139
H     1.0   1.7744539604   0.1340765367   2.2419580416
O     8.0   2.6915997734   0.2109060144   2.4703372459
H     1.0   2.7319734824   0.2247871821   3.4116946135
geometry after principal axis transformation shows it really isn't C2v:
C     6.0     .0000000000         .0000000000       -1.7270170128
O     8.0     .0000000000         .0000000000         .5449539893
C     6.0    2.4310581837        -.0781208052       -3.2134263628
H     1.0    4.0521952766         .0498982150       -1.9649537164
H     1.0    2.4651478042        1.4609599199       -4.5840813568
H     1.0    2.5107864763       -1.8448507531       -4.2753867455
H     1.0    3.3627646730         .0131267359        2.5731198007
O     8.0    5.1018629439         .0341057593        3.0046939181
H     1.0    5.1798374745         .0548189033        4.7836013994
--- $GRAD  
E=     -344.0879560042  GMAX=   0.0000081  GRMS=   0.0000020
C            6.    1.3172926633E-18    1.1241008124E-15    8.1466871101E-06
O            8.   -2.1281463329E-17    3.3306690739E-16   -6.0128143020E-06
C            6.   -1.2999757351E-06   -3.8396018451E-06   -2.2380625451E-06
C            6.    1.2999757351E-06    3.8396018451E-06   -2.2380625451E-06
H            1.   -1.2423667639E-08    2.0324887550E-06    7.6644964056E-08
H            1.    1.2423667639E-08   -2.0324887550E-06    7.6644964056E-08
H            1.    5.2306599790E-07    1.8743237407E-08   -1.4311215601E-07
H            1.   -5.2306599790E-07   -1.8743237407E-08   -1.4311215601E-07
H            1.   -4.6677400814E-07    9.4515544924E-07    1.0210672942E-06
H            1.    4.6677400814E-07   -9.4515544924E-07    1.0210672942E-06
H            1.   -9.8181653720E-07    2.6995244762E-06    5.9671626308E-07
H            1.    9.8181653720E-07   -2.6995244762E-06    5.9671626308E-07
O            8.    4.3018182354E-07   -1.9444308553E-06   -1.1051666562E-06
O            8.   -4.3018182354E-07    1.9444308553E-06   -1.1051666562E-06
H            1.    3.4409114700E-07    2.0708763630E-07    7.2497991965E-07
H            1.   -3.4409114700E-07   -2.0708763630E-07    7.2497991965E-07
 $END
--- $HESS
ENERGY IS     -344.0879560042 E(NUC) IS      239.8113655254
 1  1 6.08355870E-01 1.40124483E-02-2.41518996E-47-1.32368795E-01-2.93130393E-03
 1  2 2.43405863E-47-2.24757127E-01-6.92437275E-03-4.12451760E-02-2.24757127E-01
 1  3-6.92437275E-03 4.12451760E-02-2.62799841E-02 3.68771687E-04-1.95242132E-02
 1  4-2.62799841E-02 3.68771687E-04 1.95242132E-02 8.92646765E-03 2.59878616E-03
 1  5 5.67104576E-03 8.92646765E-03 2.59878616E-03-5.67104576E-03 3.03759656E-03
 1  6-1.64256335E-03 1.53988304E-03 3.03759656E-03-1.64256335E-03-1.53988304E-03
 1  7 2.61942527E-03 1.32873432E-04 2.32830801E-03 2.61942527E-03 1.32873432E-04
 1  8-2.32830801E-03-1.52244994E-03-5.26196030E-05-1.33263243E-03-1.52244994E-03
 1  9-5.26196030E-05 1.33263243E-03-1.71257784E-05-2.19660502E-05-3.51569343E-06
 1 10-1.71257784E-05-2.19660502E-05 3.51569343E-06
 2  1 1.40124483E-02 2.94759803E-01 1.97215226E-31-2.68866717E-03-8.43397338E-02
 2  2-1.98755970E-31-5.49743921E-03-1.05802118E-01-3.01879840E-03-5.49743921E-03
 2  3-1.05802118E-01 3.01879840E-03-3.89802712E-03-1.85346269E-03-3.20105260E-03
 2  4-3.89802712E-03-1.85346269E-03 3.20105260E-03-2.88719114E-02-1.49462530E-04
 2  5-1.52024105E-02-2.88719114E-02-1.49462530E-04 1.52024105E-02 3.26042572E-02
 2  6 2.26915998E-03 1.91152850E-02 3.26042572E-02 2.26915998E-03-1.91152850E-02
 2  7 5.64313951E-05 7.51951253E-04 1.53267863E-04 5.64313951E-05 7.51951253E-04
 2  8-1.53267863E-04-5.44685765E-05-5.20021587E-04-5.60375499E-05-5.44685765E-05
 2  9-5.20021587E-04 5.60375499E-05-1.80115360E-06 9.52661965E-05 3.58402704E-06
 2 10-1.80115360E-06 9.52661965E-05-3.58402704E-06
 3  1-2.41518996E-47 1.97215226E-31 1.10928339E+00-2.46519033E-32-3.01898745E-48
 3  2-8.41511960E-01-5.09588503E-02-4.21182517E-03-1.17292602E-01 5.09588503E-02
 3  3 4.21182517E-03-1.17292602E-01 2.59806879E-02 1.34941842E-03 1.49076747E-02
 3  4-2.59806879E-02-1.34941842E-03 1.49076747E-02-1.78752152E-02 2.29314861E-03
 3  5-1.45635136E-02 1.78752152E-02-2.29314861E-03-1.45635136E-02-1.24476642E-02
 3  6-1.96952097E-03-1.20891749E-02 1.24476642E-02 1.96952097E-03-1.20891749E-02
 3  7 8.47612838E-03 5.73436714E-04-5.87944032E-03-8.47612838E-03-5.73436714E-04
 3  8-5.87944032E-03-5.18743234E-03-3.63835969E-04 1.85292439E-03 5.18743234E-03
 3  9 3.63835969E-04 1.85292439E-03-1.24017712E-04-1.01449758E-05-8.22436821E-04
 3 10 1.24017712E-04 1.01449758E-05-8.22436821E-04
 4  1-1.32368795E-01-2.68866717E-03-2.46519033E-32 1.29651729E-01 5.00146534E-03
 4  2 4.52848117E-48 1.07616907E-02-1.25679632E-03-4.63522545E-02 1.07616907E-02
 4  3-1.25679632E-03 4.63522545E-02 6.59362757E-03 3.11614807E-04 1.86014440E-03
 4  4 6.59362757E-03 3.11614807E-04-1.86014440E-03-5.14214994E-03-8.54660261E-05
 4  5-5.72876163E-03-5.14214994E-03-8.54660261E-05 5.72876163E-03-3.47331605E-03
 4  6 2.78616051E-04-4.37969155E-03-3.47331605E-03 2.78616051E-04 4.37969155E-03
 4  7-2.75495073E-03 2.13272572E-04-4.92909004E-03-2.75495073E-03 2.13272572E-04
 4  8 4.92909004E-03-3.01722013E-03-4.99404714E-04 6.32006794E-03-3.01722013E-03
 4  9-4.99404714E-04-6.32006794E-03-1.60917427E-03-1.18167145E-04-4.07332460E-04
 4 10-1.60917427E-03-1.18167145E-04 4.07332460E-04
 5  1-2.93130393E-03-8.43397338E-02-3.01898745E-48 5.00146534E-03 3.45294855E-02
 5  2-3.69778549E-32-1.18421938E-03 2.97705666E-02-6.94811380E-04-1.18421938E-03
 5  3 2.97705666E-02 6.94811380E-04 8.61636481E-04-9.72223634E-04 2.00054081E-04
 5  4 8.61636481E-04-9.72223634E-04-2.00054081E-04 4.18953103E-03-5.64927734E-04
 5  5 1.96672092E-03 4.18953103E-03-5.64927734E-04-1.96672092E-03-4.52977604E-03
 5  6-1.03941232E-03-3.60426180E-03-4.52977604E-03-1.03941232E-03 3.60426180E-03
 5  7 2.74864507E-04-5.20559298E-03-4.08842035E-04 2.74864507E-04-5.20559298E-03
 5  8 4.08842035E-04-5.27704096E-04 3.00444696E-03 5.05350985E-04-5.27704096E-04
 5  9 3.00444696E-03-5.05350985E-04-1.17975649E-04-8.94296811E-05-3.41271227E-05
 5 10-1.17975649E-04-8.94296811E-05 3.41271227E-05
 6  1 2.43405863E-47-1.98755970E-31-8.41511960E-01 4.52848117E-48-3.69778549E-32
 6  2 9.43165737E-01-9.99817294E-03 6.13455467E-04-4.82495468E-02 9.99817294E-03
 6  3-6.13455467E-04-4.82495468E-02 1.95018241E-05-4.99492844E-04 1.61895721E-03
 6  4-1.95018241E-05 4.99492844E-04 1.61895721E-03-5.73004825E-03 4.46097980E-04
 6  5-2.61108693E-03 5.73004825E-03-4.46097980E-04-2.61108693E-03-4.72295055E-03
 6  6-1.11510777E-03-2.51211093E-03 4.72295055E-03 1.11510777E-03-2.51211093E-03
 6  7-7.02271948E-03-5.02856093E-04 1.67179501E-03 7.02271948E-03 5.02856093E-04
 6  8 1.67179501E-03 7.43437900E-03 5.54784207E-04-1.72411588E-03-7.43437900E-03
 6  9-5.54784207E-04-1.72411588E-03 5.99432456E-05 3.55360208E-06 9.79945202E-04
 6 10-5.99432456E-05-3.55360208E-06 9.79945202E-04
 7  1-2.24757127E-01-5.49743921E-03-5.09588503E-02 1.07616907E-02-1.18421938E-03
 7  2-9.99817294E-03 5.99741852E-01 7.24611931E-03-6.60256800E-02-2.36815613E-02
 7  3-2.17514983E-03-1.62237893E-02-2.39697677E-01-2.87734810E-02 1.49057569E-01
 7  4-3.44005033E-03 9.91771566E-05 3.11113383E-03-5.94558035E-02 5.16571111E-03
 7  5 7.68209853E-03 8.79551642E-05 2.54873470E-04-6.66357500E-04-6.05320931E-02
 7  6 2.47825778E-02-1.48949581E-02 1.21209830E-04 4.01744831E-05-5.09500577E-04
 7  7 5.96837125E-04 1.13485669E-04 1.05015650E-03-2.37292247E-04-6.22847211E-05
 7  8 1.60585885E-04 2.34753781E-04-4.03258559E-05-1.44612116E-03 1.31725789E-04
 7  9 2.91099811E-05-2.56249974E-04 7.28547153E-05-3.69375985E-06-1.09197400E-04
 7 10 5.20101995E-05 5.53411601E-06 2.68576511E-05
 8  1-6.92437275E-03-1.05802118E-01-4.21182517E-03-1.25679632E-03 2.97705666E-02
 8  2 6.13455467E-04 7.24611931E-03 5.79158163E-01-5.35490867E-04-2.17514983E-03
 8  3 2.17392722E-02-1.57696755E-03-2.85702753E-02-6.02986559E-02 2.19438555E-02
 8  4-2.00966560E-04 1.08050899E-03-1.84259110E-04 4.80411889E-03-2.08861143E-01
 8  5-1.46373122E-01 3.12526296E-03-4.47074707E-04-9.99149684E-04 2.69907074E-02
 8  6-2.55710233E-01 1.29822962E-01-3.17389421E-03-9.94600849E-04 1.71911975E-03
 8  7 3.02595060E-04-8.16822914E-04 1.17807520E-04-1.94547785E-04 1.01904129E-03
 8  8-8.01694219E-05-7.18077649E-05 4.39136655E-04-2.50613171E-04 1.06262569E-04
 8  9-4.44108959E-04 4.61481509E-05-1.59606594E-05 1.71054429E-04-3.95391182E-05
 8 10 7.48907060E-06-3.53378106E-06-1.04457062E-05
 9  1-4.12451760E-02-3.01879840E-03-1.17292602E-01-4.63522545E-02-6.94811380E-04
 9  2-4.82495468E-02-6.60256800E-02-5.35490867E-04 6.25313470E-01 1.62237893E-02
 9  3 1.57696755E-03 1.66047679E-02 1.39982337E-01 2.09122138E-02-1.72544687E-01
 9  4 5.55550249E-03-2.23363446E-04-2.53280245E-03 9.06408160E-03-1.44505258E-01
 9  5-1.77160186E-01-1.43734562E-03 1.07090137E-04 2.09756285E-04-1.46803082E-02
 9  6 1.27157171E-01-1.24659578E-01-1.21403259E-03-8.25347772E-04-3.87953920E-04
 9  7-9.66552804E-04-7.76529196E-05-2.33661287E-04 1.54487384E-03 1.33488593E-04
 9  8 6.00469622E-04 4.81997420E-04 8.08862743E-05 2.16361019E-04-8.61543478E-04
 9  9-7.71146069E-05-1.80250687E-04-2.78431383E-05-1.02104649E-05 1.58096966E-04
 9 10-4.30341746E-05 4.53957772E-07 1.39037708E-04
10  1-2.24757127E-01-5.49743921E-03 5.09588503E-02 1.07616907E-02-1.18421938E-03
10  2 9.99817294E-03-2.36815613E-02-2.17514983E-03 1.62237893E-02 5.99741852E-01
10  3 7.24611931E-03 6.60256800E-02-3.44005033E-03 9.91771566E-05-3.11113383E-03
10  4-2.39697677E-01-2.87734810E-02-1.49057569E-01 8.79551642E-05 2.54873470E-04
10  5 6.66357500E-04-5.94558035E-02 5.16571111E-03-7.68209853E-03 1.21209830E-04
10  6 4.01744831E-05 5.09500577E-04-6.05320931E-02 2.47825778E-02 1.48949581E-02
10  7-2.37292247E-04-6.22847211E-05-1.60585885E-04 5.96837125E-04 1.13485669E-04
10  8-1.05015650E-03 1.31725789E-04 2.91099811E-05 2.56249974E-04 2.34753781E-04
10  9-4.03258559E-05 1.44612116E-03 5.20101995E-05 5.53411601E-06-2.68576511E-05
10 10 7.28547153E-05-3.69375985E-06 1.09197400E-04
11  1-6.92437275E-03-1.05802118E-01 4.21182517E-03-1.25679632E-03 2.97705666E-02
11  2-6.13455467E-04-2.17514983E-03 2.17392722E-02 1.57696755E-03 7.24611931E-03
11  3 5.79158163E-01 5.35490867E-04-2.00966560E-04 1.08050899E-03 1.84259110E-04
11  4-2.85702753E-02-6.02986559E-02-2.19438555E-02 3.12526296E-03-4.47074707E-04
11  5 9.99149684E-04 4.80411889E-03-2.08861143E-01 1.46373122E-01-3.17389421E-03
11  6-9.94600849E-04-1.71911975E-03 2.69907074E-02-2.55710233E-01-1.29822962E-01
11  7-1.94547785E-04 1.01904129E-03 8.01694219E-05 3.02595060E-04-8.16822914E-04
11  8-1.17807520E-04 1.06262569E-04-4.44108959E-04-4.61481509E-05-7.18077649E-05
11  9 4.39136655E-04 2.50613171E-04 7.48907060E-06-3.53378106E-06 1.04457062E-05
11 10-1.59606594E-05 1.71054429E-04 3.95391182E-05
12  1 4.12451760E-02 3.01879840E-03-1.17292602E-01 4.63522545E-02 6.94811380E-04
12  2-4.82495468E-02-1.62237893E-02-1.57696755E-03 1.66047679E-02 6.60256800E-02
12  3 5.35490867E-04 6.25313470E-01-5.55550249E-03 2.23363446E-04-2.53280245E-03
12  4-1.39982337E-01-2.09122138E-02-1.72544687E-01 1.43734562E-03-1.07090137E-04
12  5 2.09756285E-04-9.06408160E-03 1.44505258E-01-1.77160186E-01 1.21403259E-03
12  6 8.25347772E-04-3.87953920E-04 1.46803082E-02-1.27157171E-01-1.24659578E-01
12  7-1.54487384E-03-1.33488593E-04 6.00469622E-04 9.66552804E-04 7.76529196E-05
12  8-2.33661287E-04 8.61543478E-04 7.71146069E-05-1.80250687E-04-4.81997420E-04
12  9-8.08862743E-05 2.16361019E-04 4.30341746E-05-4.53957772E-07 1.39037708E-04
12 10 2.78431383E-05 1.02104649E-05 1.58096966E-04
13  1-2.62799841E-02-3.89802712E-03 2.59806879E-02 6.59362757E-03 8.61636481E-04
13  2 1.95018241E-05-2.39697677E-01-2.85702753E-02 1.39982337E-01-3.44005033E-03
13  3-2.00966560E-04-5.55550249E-03 2.56412078E-01 3.07764892E-02-1.54906393E-01
13  4-1.52021217E-03 3.09759526E-05 1.13918980E-03 1.90658157E-03 9.06115077E-04
13  5-1.91970917E-03 4.72315501E-04-1.74967868E-04-3.70026761E-05 5.91285545E-03
13  6 1.47810151E-04-4.63710043E-03 2.14885417E-04 1.85545412E-04-1.25061942E-05
13  7-6.10645126E-06-9.58830528E-05-1.16087948E-03-1.92314492E-04-1.71594340E-05
13  8 5.30528874E-05-3.48799696E-04 5.06779749E-05 1.16481834E-03 9.77880259E-05
13  9 5.11418978E-06-1.11325627E-04-1.32026006E-04-7.41003840E-06 1.70096972E-05
13 10 7.43841941E-06 4.63553688E-07-1.58604965E-05
14  1 3.68771687E-04-1.85346269E-03 1.34941842E-03 3.11614807E-04-9.72223634E-04
14  2-4.99492844E-04-2.87734810E-02-6.02986559E-02 2.09122138E-02 9.91771566E-05
14  3 1.08050899E-03 2.23363446E-04 3.07764892E-02 5.72570828E-02-2.39143756E-02
14  4 3.09759526E-05 5.93853774E-04-1.65873290E-05 2.26253663E-02 5.30726274E-03
14  5-1.55048295E-02 2.39535452E-04 2.19178769E-04-4.63998229E-04-2.50768811E-02
14  6-1.64225457E-03 1.75540530E-02-5.06247272E-04 3.09156436E-04 2.74429523E-04
14  7-1.34759607E-04 8.15857370E-04-1.33434502E-04 5.27129476E-06 2.37314700E-05
14  8 1.37954021E-05 4.26507107E-05-8.34226269E-04 1.90806068E-04 2.92922884E-07
14  9-3.03871658E-05-8.10653702E-06-7.25478338E-06 9.43629554E-06 2.18008995E-05
14 10-1.34729888E-06 1.54765430E-05 1.03696748E-06
15  1-1.95242132E-02-3.20105260E-03 1.49076747E-02 1.86014440E-03 2.00054081E-04
15  2 1.61895721E-03 1.49057569E-01 2.19438555E-02-1.72544687E-01-3.11113383E-03
15  3 1.84259110E-04-2.53280245E-03-1.54906393E-01-2.39143756E-02 1.80964363E-01
15  4-1.13918980E-03 1.65873290E-05 6.86798505E-04 1.59779871E-02 4.79477674E-03
15  5-1.17814630E-02 9.94664736E-05-1.95441610E-04-1.52220717E-05 1.23877032E-02
15  6 4.55544577E-05-9.33830681E-03-8.57011668E-05 1.84440512E-04 2.43258542E-05
15  7-5.19061784E-04-9.31355944E-05-1.47362703E-03-8.75460207E-05 9.96900020E-07
15  8 3.72752232E-05-2.70602620E-04-5.91976981E-07-3.89898566E-04 3.69381792E-05
15  9 1.30967313E-06-5.17818736E-05 2.32050120E-04 3.46572030E-05-1.06211689E-04
15 10-7.75876063E-06-2.02359237E-06-5.79008718E-06
16  1-2.62799841E-02-3.89802712E-03-2.59806879E-02 6.59362757E-03 8.61636481E-04
16  2-1.95018241E-05-3.44005033E-03-2.00966560E-04 5.55550249E-03-2.39697677E-01
16  3-2.85702753E-02-1.39982337E-01-1.52021217E-03 3.09759526E-05-1.13918980E-03
16  4 2.56412078E-01 3.07764892E-02 1.54906393E-01 4.72315501E-04-1.74967868E-04
16  5 3.70026761E-05 1.90658157E-03 9.06115077E-04 1.91970917E-03 2.14885417E-04
16  6 1.85545412E-04 1.25061942E-05 5.91285545E-03 1.47810151E-04 4.63710043E-03
16  7-1.92314492E-04-1.71594340E-05-5.30528874E-05-6.10645126E-06-9.58830528E-05
16  8 1.16087948E-03 9.77880259E-05 5.11418978E-06 1.11325627E-04-3.48799696E-04
16  9 5.06779749E-05-1.16481834E-03 7.43841941E-06 4.63553688E-07 1.58604965E-05
16 10-1.32026006E-04-7.41003840E-06-1.70096972E-05
17  1 3.68771687E-04-1.85346269E-03-1.34941842E-03 3.11614807E-04-9.72223634E-04
17  2 4.99492844E-04 9.91771566E-05 1.08050899E-03-2.23363446E-04-2.87734810E-02
17  3-6.02986559E-02-2.09122138E-02 3.09759526E-05 5.93853774E-04 1.65873290E-05
17  4 3.07764892E-02 5.72570828E-02 2.39143756E-02 2.39535452E-04 2.19178769E-04
17  5 4.63998229E-04 2.26253663E-02 5.30726274E-03 1.55048295E-02-5.06247272E-04
17  6 3.09156436E-04-2.74429523E-04-2.50768811E-02-1.64225457E-03-1.75540530E-02
17  7 5.27129476E-06 2.37314700E-05-1.37954021E-05-1.34759607E-04 8.15857370E-04
17  8 1.33434502E-04 2.92922884E-07-3.03871658E-05 8.10653702E-06 4.26507107E-05
17  9-8.34226269E-04-1.90806068E-04-1.34729888E-06 1.54765430E-05-1.03696748E-06
17 10-7.25478338E-06 9.43629554E-06-2.18008995E-05
18  1 1.95242132E-02 3.20105260E-03 1.49076747E-02-1.86014440E-03-2.00054081E-04
18  2 1.61895721E-03 3.11113383E-03-1.84259110E-04-2.53280245E-03-1.49057569E-01
18  3-2.19438555E-02-1.72544687E-01 1.13918980E-03-1.65873290E-05 6.86798505E-04
18  4 1.54906393E-01 2.39143756E-02 1.80964363E-01-9.94664736E-05 1.95441610E-04
18  5-1.52220717E-05-1.59779871E-02-4.79477674E-03-1.17814630E-02 8.57011668E-05
18  6-1.84440512E-04 2.43258542E-05-1.23877032E-02-4.55544577E-05-9.33830681E-03
18  7 8.75460207E-05-9.96900020E-07 3.72752232E-05 5.19061784E-04 9.31355944E-05
18  8-1.47362703E-03-3.69381792E-05-1.30967313E-06-5.17818736E-05 2.70602620E-04
18  9 5.91976981E-07-3.89898566E-04 7.75876063E-06 2.02359237E-06-5.79008718E-06
18 10-2.32050120E-04-3.46572030E-05-1.06211689E-04
19  1 8.92646765E-03-2.88719114E-02-1.78752152E-02-5.14214994E-03 4.18953103E-03
19  2-5.73004825E-03-5.94558035E-02 4.80411889E-03 9.06408160E-03 8.79551642E-05
19  3 3.12526296E-03 1.43734562E-03 1.90658157E-03 2.26253663E-02 1.59779871E-02
19  4 4.72315501E-04 2.39535452E-04-9.94664736E-05 5.52630450E-02-8.90187013E-03
19  5-6.73776477E-03 2.37808222E-04-1.09044689E-04-1.39376411E-04-2.47480528E-04
19  6 3.17076793E-03 3.64582574E-03-1.76563339E-03-2.57024148E-04 6.94941006E-05
19  7-5.29580246E-04 7.95742662E-05-2.45945537E-04 3.56736798E-04 1.50492142E-04
19  8 1.54056000E-04 7.79444915E-05-1.60013711E-04 4.57974202E-04-2.09563981E-04
19  9-7.42665616E-05-5.02675777E-05 2.16694476E-05-1.51421700E-05 4.29154201E-05
19 10-4.45850255E-07 4.89139815E-06 2.87261151E-05
20  1 2.59878616E-03-1.49462530E-04 2.29314861E-03-8.54660261E-05-5.64927734E-04
20  2 4.46097980E-04 5.16571111E-03-2.08861143E-01-1.44505258E-01 2.54873470E-04
20  3-4.47074707E-04-1.07090137E-04 9.06115077E-04 5.30726274E-03 4.79477674E-03
20  4-1.74967868E-04 2.19178769E-04 1.95441610E-04-8.90187013E-03 2.26152039E-01
20  5 1.58222226E-01-1.09044689E-04-1.28781702E-04-1.34778338E-04 2.85659276E-04
20  6-2.23131883E-02-2.15003367E-02 2.81126671E-05 7.85784103E-04 1.79209835E-04
20  7-8.74465363E-05-2.97511329E-05 4.15563394E-05 1.20878369E-04-3.37166276E-05
20  8 3.84203635E-05 6.89262711E-05 6.07706458E-05-2.90752857E-06-6.44290613E-05
20  9 2.62014698E-05 5.32583842E-07-1.63173704E-05-1.55362352E-05 2.32752530E-05
20 10 1.07450518E-05-7.32521659E-06 1.56107730E-05
21  1 5.67104576E-03-1.52024105E-02-1.45635136E-02-5.72876163E-03 1.96672092E-03
21  2-2.61108693E-03 7.68209853E-03-1.46373122E-01-1.77160186E-01 6.66357500E-04
21  3 9.99149684E-04 2.09756285E-04-1.91970917E-03-1.55048295E-02-1.17814630E-02
21  4 3.70026761E-05 4.63998229E-04-1.52220717E-05-6.73776477E-03 1.58222226E-01
21  5 1.90338252E-01 1.39376411E-04 1.34778338E-04-4.95228662E-05 3.07435978E-04
21  6 1.48524492E-02 1.45973859E-02-3.05776253E-04 4.21036254E-04 8.39998838E-04
21  7-5.03575114E-05-2.40313162E-04 4.43815560E-04 2.78295684E-04 6.17439748E-05
21  8 1.42510120E-04 1.47188605E-04 2.32703962E-04-3.42959879E-04-1.65987525E-04
21  9-7.78332608E-06-5.94805685E-05-2.12166339E-05-1.41490536E-05-6.20015236E-06
21 10 5.35108582E-07-1.17366263E-05 1.80494885E-05
22  1 8.92646765E-03-2.88719114E-02 1.78752152E-02-5.14214994E-03 4.18953103E-03
22  2 5.73004825E-03 8.79551642E-05 3.12526296E-03-1.43734562E-03-5.94558035E-02
22  3 4.80411889E-03-9.06408160E-03 4.72315501E-04 2.39535452E-04 9.94664736E-05
22  4 1.90658157E-03 2.26253663E-02-1.59779871E-02 2.37808222E-04-1.09044689E-04
22  5 1.39376411E-04 5.52630450E-02-8.90187013E-03 6.73776477E-03-1.76563339E-03
22  6-2.57024148E-04-6.94941006E-05-2.47480528E-04 3.17076793E-03-3.64582574E-03
22  7 3.56736798E-04 1.50492142E-04-1.54056000E-04-5.29580246E-04 7.95742662E-05
22  8 2.45945537E-04-2.09563981E-04-7.42665616E-05 5.02675777E-05 7.79444915E-05
22  9-1.60013711E-04-4.57974202E-04-4.45850255E-07 4.89139815E-06-2.87261151E-05
22 10 2.16694476E-05-1.51421700E-05-4.29154201E-05
23  1 2.59878616E-03-1.49462530E-04-2.29314861E-03-8.54660261E-05-5.64927734E-04
23  2-4.46097980E-04 2.54873470E-04-4.47074707E-04 1.07090137E-04 5.16571111E-03
23  3-2.08861143E-01 1.44505258E-01-1.74967868E-04 2.19178769E-04-1.95441610E-04
23  4 9.06115077E-04 5.30726274E-03-4.79477674E-03-1.09044689E-04-1.28781702E-04
23  5 1.34778338E-04-8.90187013E-03 2.26152039E-01-1.58222226E-01 2.81126671E-05
23  6 7.85784103E-04-1.79209835E-04 2.85659276E-04-2.23131883E-02 2.15003367E-02
23  7 1.20878369E-04-3.37166276E-05-3.84203635E-05-8.74465363E-05-2.97511329E-05
23  8-4.15563394E-05-6.44290613E-05 2.62014698E-05-5.32583842E-07 6.89262711E-05
23  9 6.07706458E-05 2.90752857E-06 1.07450518E-05-7.32521659E-06-1.56107730E-05
23 10-1.63173704E-05-1.55362352E-05-2.32752530E-05
24  1-5.67104576E-03 1.52024105E-02-1.45635136E-02 5.72876163E-03-1.96672092E-03
24  2-2.61108693E-03-6.66357500E-04-9.99149684E-04 2.09756285E-04-7.68209853E-03
24  3 1.46373122E-01-1.77160186E-01-3.70026761E-05-4.63998229E-04-1.52220717E-05
24  4 1.91970917E-03 1.55048295E-02-1.17814630E-02-1.39376411E-04-1.34778338E-04
24  5-4.95228662E-05 6.73776477E-03-1.58222226E-01 1.90338252E-01 3.05776253E-04
24  6-4.21036254E-04 8.39998838E-04-3.07435978E-04-1.48524492E-02 1.45973859E-02
24  7-2.78295684E-04-6.17439748E-05 1.42510120E-04 5.03575114E-05 2.40313162E-04
24  8 4.43815560E-04 1.65987525E-04 7.78332608E-06-5.94805685E-05-1.47188605E-04
24  9-2.32703962E-04-3.42959879E-04-5.35108582E-07 1.17366263E-05 1.80494885E-05
24 10 2.12166339E-05 1.41490536E-05-6.20015236E-06
25  1 3.03759656E-03 3.26042572E-02-1.24476642E-02-3.47331605E-03-4.52977604E-03
25  2-4.72295055E-03-6.05320931E-02 2.69907074E-02-1.46803082E-02 1.21209830E-04
25  3-3.17389421E-03 1.21403259E-03 5.91285545E-03-2.50768811E-02 1.23877032E-02
25  4 2.14885417E-04-5.06247272E-04 8.57011668E-05-2.47480528E-04 2.85659276E-04
25  5 3.07435978E-04-1.76563339E-03 2.81126671E-05 3.05776253E-04 5.65098838E-02
25  6-2.65731579E-02 1.76815337E-02 4.35332782E-04-3.68922376E-05-4.63751796E-04
25  7-4.45441395E-04-1.43543982E-04-1.64226886E-04 3.51179282E-04-9.39438515E-05
25  8 1.63744298E-04 7.11198140E-05 1.68523168E-04 3.29398685E-04-2.06828721E-04
25  9 3.15518064E-05-6.50373198E-05 1.51772877E-05 2.46175026E-05 4.04192012E-05
25 10 1.67890519E-06 7.78716221E-07 2.79013642E-05
26  1-1.64256335E-03 2.26915998E-03-1.96952097E-03 2.78616051E-04-1.03941232E-03
26  2-1.11510777E-03 2.47825778E-02-2.55710233E-01 1.27157171E-01 4.01744831E-05
26  3-9.94600849E-04 8.25347772E-04 1.47810151E-04-1.64225457E-03 4.55544577E-05
26  4 1.85545412E-04 3.09156436E-04-1.84440512E-04 3.17076793E-03-2.23131883E-02
26  5 1.48524492E-02-2.57024148E-04 7.85784103E-04-4.21036254E-04-2.65731579E-02
26  6 2.78208818E-01-1.39186383E-01-3.68922376E-05 1.40149732E-04 2.54994780E-05
26  7-3.84105655E-05-6.80855342E-05-1.24880231E-04-3.29144217E-05-6.77459464E-05
26  8-1.09513445E-05-5.56878756E-05 1.02616981E-04 1.23550818E-04 1.83391054E-05
26  9 4.12116128E-05-9.20245812E-06 2.08635537E-05-1.17461572E-05-2.25978338E-06
26 10-7.60452752E-06-9.40562461E-06-5.97509933E-06
27  1 1.53988304E-03 1.91152850E-02-1.20891749E-02-4.37969155E-03-3.60426180E-03
27  2-2.51211093E-03-1.48949581E-02 1.29822962E-01-1.24659578E-01 5.09500577E-04
27  3-1.71911975E-03-3.87953920E-04-4.63710043E-03 1.75540530E-02-9.33830681E-03
27  4 1.25061942E-05-2.74429523E-04 2.43258542E-05 3.64582574E-03-2.15003367E-02
27  5 1.45973859E-02-6.94941006E-05-1.79209835E-04 8.39998838E-04 1.76815337E-02
27  6-1.39186383E-01 1.33286670E-01 4.63751796E-04-2.54994780E-05 5.80400151E-05
27  7-1.18789151E-04 2.95672053E-04 3.74470726E-04 2.52455496E-04-3.57807757E-05
27  8 1.44545590E-04 1.62791388E-04-2.67552965E-04-2.68857449E-04-1.49241169E-04
27  9-1.69311645E-05-7.24067766E-05-1.21803218E-05 7.43536852E-06-1.07191325E-05
27 10-7.10046335E-06 1.37081308E-05 1.33955425E-05
28  1 3.03759656E-03 3.26042572E-02 1.24476642E-02-3.47331605E-03-4.52977604E-03
28  2 4.72295055E-03 1.21209830E-04-3.17389421E-03-1.21403259E-03-6.05320931E-02
28  3 2.69907074E-02 1.46803082E-02 2.14885417E-04-5.06247272E-04-8.57011668E-05
28  4 5.91285545E-03-2.50768811E-02-1.23877032E-02-1.76563339E-03 2.81126671E-05
28  5-3.05776253E-04-2.47480528E-04 2.85659276E-04-3.07435978E-04 4.35332782E-04
28  6-3.68922376E-05 4.63751796E-04 5.65098838E-02-2.65731579E-02-1.76815337E-02
28  7 3.51179282E-04-9.39438515E-05-1.63744298E-04-4.45441395E-04-1.43543982E-04
28  8 1.64226886E-04-2.06828721E-04 3.15518064E-05 6.50373198E-05 7.11198140E-05
28  9 1.68523168E-04-3.29398685E-04 1.67890519E-06 7.78716221E-07-2.79013642E-05
28 10 1.51772877E-05 2.46175026E-05-4.04192012E-05
29  1-1.64256335E-03 2.26915998E-03 1.96952097E-03 2.78616051E-04-1.03941232E-03
29  2 1.11510777E-03 4.01744831E-05-9.94600849E-04-8.25347772E-04 2.47825778E-02
29  3-2.55710233E-01-1.27157171E-01 1.85545412E-04 3.09156436E-04 1.84440512E-04
29  4 1.47810151E-04-1.64225457E-03-4.55544577E-05-2.57024148E-04 7.85784103E-04
29  5 4.21036254E-04 3.17076793E-03-2.23131883E-02-1.48524492E-02-3.68922376E-05