!  built-in efp (model 1, RHF) single point of water pentamer (H20)5
!
!     FINAL EFP ENERGY    = -.0525561209
!
!  this run takes 0 seconds on 2.66 GHz Cloverton (20 Mar 2007)
!
 $contrl runtyp=energy coord=fragonly $end
 $efrag 
coord=cart polmethd=frgscf position=optimize
 fragname=h2orhf
O1     1.42883     1.63042     -0.964195
H2     1.63425     0.69863     -0.902232
H3     1.50982     1.86584     -1.87434
 fragname=h2orhf
O1     1.83969     -1.15545     -0.812365
H2     1.08094     -1.60755     -0.446962
H3     2.60809     -1.60015     -0.493944
 fragname=h2orhf
O1     -0.473409     -2.29185     0.374705
H2     -1.12256     -1.61133     0.547872
H3     -0.550464     -2.92604     1.0686
 fragname=h2orhf
O1     -0.855823     2.22888     0.575984
H2     -0.0868387     2.08284     0.0264022
H3     -0.59435     2.82243     1.2611
 fragname=h2orhf
O1     -2.26722     -0.185718     0.929835
H2     -3.09369     -0.0783831     0.487381
H3     -1.81649     0.656047     0.876786
 $end

! TRAVIS-CI SMALL

! TRAVIS-CI SKIP
