!    benzene using Hui's 12-point QM/MM model.
!    test case shows explicit input of L-J repulsion in "EFP1" runs
!    
!          NSERCH:   0  E=       -0.0036733072  R.M.S.=  0.0005605
!          NSERCH:   1  E=       -0.0037594298  R.M.S.=  0.0003297
!          NSERCH:   2  E=       -0.0037904695  R.M.S.=  0.0002709
!          NSERCH:   3  E=       -0.0038062695  R.M.S.=  0.0000283
!          NSERCH:   4  E=       -0.0038064728  R.M.S.=  0.0000034
!          NSERCH:   5  E=       -0.0038064760  R.M.S.=  0.0000001
!    
!    This run takes 0 seconds on anything (10 December 2010)
!
 $contrl runtyp=optimize coord=fragonly $end
 $system mwords=5 $end
 $statpt opttol=1d-6 $end
 $efrag

 FRAGNAME=C6H6
C1     1.391500000000    -0.000000000000     2.495750000000
C2     0.695750000000    -1.205074349366     2.495750000000
C3    -0.695750000000    -1.205074349366     2.495750000000
 FRAGNAME=C6H6
C1     0.000000000000     0.000000000000    -1.104250000000
C2    -0.000000000000    -1.205074349366    -1.800000000000
C3    -0.000000000000    -1.205074349366    -3.191500000000
 $END

 $C6H6
polarizable 12-point C6H6 model with QM/MM repulsion
 COORDINATES
C1        1.322808        2.291171        0.000000  12.000000   6.0
C2       -1.322808        2.291171        0.000000  12.000000   6.0
C3       -2.645616        0.000000        0.000000  12.000000   6.0
C4       -1.322808       -2.291171        0.000000  12.000000   6.0
C5        1.322808       -2.291171        0.000000  12.000000   6.0
C6        2.645616        0.000000        0.000000  12.000000   6.0
H7        2.343260        4.058646        0.000000   1.007825   1.0
H8       -2.343260        4.058646        0.000000   1.007825   1.0
H9       -4.686520        0.000000        0.000000   1.007825   1.0
H10      -2.343260       -4.058646        0.000000   1.007825   1.0
H11       2.343260       -4.058646        0.000000   1.007825   1.0
H12       4.686520        0.000000        0.000000   1.007825   1.0
 STOP       
 MONOPOLES
C1         -6.1430   6.0
C2         -6.1430   6.0
C3         -6.1430   6.0
C4         -6.1430   6.0
C5         -6.1430   6.0
C6         -6.1430   6.0
H7         -0.8570   1.0
H8         -0.8570   1.0
H9         -0.8570   1.0
H10        -0.8570   1.0
H11        -0.8570   1.0
H12        -0.8570   1.0
 STOP
 POLARIZABLE POINTS
C1        1.322808        2.291171        0.000000
   8.055   8.055  8.055  0.000  0.000  0.000  0.000  0.000  0.000
C2       -1.322808        2.291171        0.000000
   8.055   8.055  8.055  0.000  0.000  0.000  0.000  0.000  0.000
C3       -2.645616        0.000000        0.000000
   8.055   8.055  8.055  0.000  0.000  0.000  0.000  0.000  0.000
C4       -1.322808       -2.291171        0.000000
   8.055   8.055  8.055  0.000  0.000  0.000  0.000  0.000  0.000
C5        1.322808       -2.291171        0.000000
   8.055   8.055  8.055  0.000  0.000  0.000  0.000  0.000  0.000
C6        2.645616        0.000000        0.000000
   8.055   8.055  8.055  0.000  0.000  0.000  0.000  0.000  0.000
H7        2.343260        4.058646        0.000000
   3.192   3.192  3.192  0.000  0.000  0.000  0.000  0.000  0.000
H8       -2.343260        4.058646        0.000000
   3.192   3.192  3.192  0.000  0.000  0.000  0.000  0.000  0.000
H9       -4.686520        0.000000        0.000000
   3.192   3.192  3.192  0.000  0.000  0.000  0.000  0.000  0.000
H10      -2.343260       -4.058646        0.000000
   3.192   3.192  3.192  0.000  0.000  0.000  0.000  0.000  0.000
H11       2.343260       -4.058646        0.000000
   3.192   3.192  3.192  0.000  0.000  0.000  0.000  0.000  0.000
H12       4.686520        0.000000        0.000000
   3.192   3.192  3.192  0.000  0.000  0.000  0.000  0.000  0.000
 STOP
 REPULSIVE POTENTIAL
C1       2
 30.00000, 0.6000
 -0.00080, 0.0500
C2       2
 30.00000, 0.6000
 -0.00080, 0.0500
C3       2
 30.00000, 0.6000
 -0.00080, 0.0500
C4       2
 30.00000, 0.6000
 -0.00080, 0.0500
C5       2
 30.00000, 0.6000
 -0.00080, 0.0500
C6       2
 30.00000, 0.6000
 -0.00080, 0.0500
H7       2
  2.00000, 0.8000
 -0.00080, 0.0700
H8       2 
  2.00000, 0.8000
 -0.00080, 0.0700
H9       2 
  2.00000, 0.8000
 -0.00080, 0.0700
H10      2 
  2.00000, 0.8000
 -0.00080, 0.0700
H11      2 
  2.00000, 0.8000
 -0.00080, 0.0700
H12      2 
  2.00000, 0.8000
 -0.00080, 0.0700
 STOP
 LJPOTENTIAL  12  6         ! give NAME, X, Y, Z, SIGMA, EPSILON
C1        1.322808        2.291171        0.000000    3.5502   0.0614
C2       -1.322808        2.291171        0.000000    3.5502   0.0614
C3       -2.645616        0.000000        0.000000    3.5502   0.0614
C4       -1.322808       -2.291171        0.000000    3.5502   0.0614
C5        1.322808       -2.291171        0.000000    3.5502   0.0614
C6        2.645616        0.000000        0.000000    3.5502   0.0614
H7        2.343260        4.058646        0.000000    2.5034   0.0242
H8       -2.343260        4.058646        0.000000    2.5034   0.0242
H9       -4.686520        0.000000        0.000000    2.5034   0.0242
H10      -2.343260       -4.058646        0.000000    2.5034   0.0242
H11       2.343260       -4.058646        0.000000    2.5034   0.0242
H12       4.686520        0.000000        0.000000    2.5034   0.0242
 STOP
 $END

! TRAVIS-CI SMALL

