!    test of EFP1 with periodic boundary conditions on 8 waters
!
!    with no PBC, F_NAL E= -.1055746897, R_S GRAD= 0.000016121
!       with PBC, FINAL E= -.1065025138, RMS GRAD= 0.002396610
!
!    This run takes 0 seconds on 2.66 GHz Cloverton (26 Oct 2015)
!
 $contrl scftyp=rhf runtyp=gradient coord=fragonly $end
 $system mwords=1 $end
 $statpt nstep=200 $end
 $efrag
xbox=6.0 ybox=6.0 zbox=6.0 xcut=6.0 ycut=6.0 zcut=6.0 >
coord=cart polmethd=frgscf position=optimize
FRAGNAME=H2ORHF
ZO1               1.4193178941  -1.8163567380   1.2338449673
ZH2               1.5574633081  -1.8457049609    .3006070660
ZH3               2.0020196835  -2.4538709073   1.6145190570
FRAGNAME=H2ORHF
ZO1               1.4797101011  -1.4813944223  -1.5055393738
ZH2                .5949712354  -1.6287542259  -1.7994793026
ZH3               1.6625222200   -.5657711662  -1.6437140320
FRAGNAME=H2ORHF
ZO1              -1.4622181227  -1.6913005707  -1.7256564516
ZH2              -2.0290181161  -2.3009636590  -2.1705464834
ZH3              -1.5986281545  -1.8195689244   -.8005521403
FRAGNAME=H2ORHF
ZO1              -1.5270656047  -1.6402396250   1.0344544178
ZH2               -.6391302785  -1.7978873061   1.3130159357
ZH3              -1.7291863949   -.7475013570   1.2647673029
FRAGNAME=H2ORHF
ZO1               1.2138900931   1.1183884565   1.4062512625
ZH2               1.5026249008   1.3216916894    .5309350566
ZH3               1.4116618256    .2071161848   1.5523595878
FRAGNAME=H2ORHF
ZO1               1.4283514345   1.4655615417  -1.5229588543
ZH2                .4971808057   1.5423337053  -1.6567712196
ZH3               1.8355081213   2.1207591587  -2.0668503592
FRAGNAME=H2ORHF
ZO1              -1.3231617329   1.2503101551  -1.5980595490
ZH2              -1.5000527366    .3539425525  -1.8349416880
ZH3              -1.6116478037   1.3570803552   -.7057286881
FRAGNAME=H2ORHF
ZO1              -1.5400579662   1.2895510839   1.3519202064
ZH2               -.6110741121   1.3726579628   1.4966983110
ZH3              -1.9627568243   1.8754688070   1.9592953387
 $end

! TRAVIS-CI SMALL

! TRAVIS-CI SKIP
