!   MD NVT simulation with 1 ab initio water and 3 RHF-like EFP1 waters.
!   This test comes from Soohaeng.
!
!       after 200 steps,
!   AT T=        100.00 fsec, this run's step no.=     200
!   POT  ENERGY      =     -4.772434798E+04 KCAL/MOL
!   TRANS    KE      =           3.57378758 KCAL/MOL
!   ROT      KE      =           1.76111390 KCAL/MOL
!   TOT      KE      =           5.33490148 KCAL/MOL
!   TOT. HAM. ENERGY =     -4.771901264E+04 KCAL/MOL    1.89776411
!   TEMPERATURE      =         198.86005713 K
!
!   This is a NVT simulation with a fairly narrow band of temperatures
!   allowed, 20 degrees above and below 200.  Thus the velocities
!   are rescaled a total of 70 times during these 200 total steps.
!   The random distribution starts at T=236.4, and T is held between
!   178.0 and 221.2 during the remaining steps.  
!
!   this test takes 75 seconds on a 2.66 GHz Cloverton (10 Dec 2008)
!
 $contrl scftyp=rhf runtyp=md $end
 $basis  GBASIS=DH NPFUNC=1 NDFUNC=1 $END
 $md     mdint=vverlet nsteps=200 dt=0.50d-15
         batht=200.0 rstemp=.true. dtemp=10.0
         mbt=.true. mbr=.true. jevery=1 kevery=10 $end

 $data
H2O
C1
O   8.0       .5754303844   -1.1547341682     .0211294746
H   1.0       .8173324599    -.8387947512     .8833705481
H   1.0      -.4143850980   -1.1025580772     .0669877140
 $end 

 $efrag

FRAGNAME=H2ORHF  #  1
O1                 1.218816224744    2.939495080738   -1.204001236527
H2                 1.541968363086    2.211731603037   -1.710766931970
H3                  .344402153617    3.117302376618   -1.511674849006
FRAGNAME=H2ORHF  #  2
O1                -2.795752019738   -4.257992547478    1.569918272794
H2                -2.917206879641   -4.030551755722     .661954695706
H3                -2.032619040227   -4.811897913729    1.611092960267
FRAGNAME=H2ORHF  #  3
O1                -3.155950016673   -2.139118441316    3.373934765970
H2                -3.222894913980   -2.911685607788    2.835848520020
H3                -3.854194607586   -2.188192292459    4.007120917479
 $end

! TRAVIS-CI SMALL

! TRAVIS-CI SKIP
