!   efp1 saddle point on water pentamer 
!
!   FINAL EFP. ENERGY    = -.0508313783, RMS GRADIENT =  .0008283
!   FINAL EFP. ENERGY    = -.0510992690, RMS GRADIENT =  .0000960
!   FINAL EFP. ENERGY    = -.0511152994, RMS GRADIENT =  .0000259
!   FINAL EFP. ENERGY    = -.0511159161, RMS GRADIENT =  .0000085
!   FINAL EFP. ENERGY    = -.0511159883, RMS GRADIENT =  .0000017
!
!  This run takes 0 seconds on 2.66 GHz Cloverton (20 Mar 2007)
!
 $contrl runtyp=sadpoint coord=fragonly $end
 $statpt opttol=0.00001 nstep=100 hess=read $end
 $efrag 
coord=cart polmethd=frgscf position=optimize
FRAGNAME=h2orhf
O1     1.48303     1.97408     -0.278159
H2     1.60701     1.04123     -0.448798
H3     2.00303     2.44554     -0.908312
FRAGNAME=h2orhf
O1     1.36471     -0.786274     -0.850175
H2     0.447072     -0.850503     -1.08103
H3     1.46634     -1.40718     -0.139723
FRAGNAME=h2orhf
O1     0.0999644     -2.47248     1.16311
H2     -0.667321     -2.03155     0.816697
H3     -0.187786     -3.08233     1.82188
FRAGNAME=h2orhf
O1     -1.26773     1.97422     0.313018
H2     -0.348824     2.12606     0.0959489
H3     -1.41269     2.35157     1.16568
FRAGNAME=h2orhf
O1     -1.66087     -0.727752     -0.355413
H2     -2.43084     -0.827049     -0.891988
H3     -1.62026     0.190443     -0.0870386
 $end

 $HESS
ENERGY IS        -.0508314751 E(NUC) IS         .0000000000
 1  1 1.80397484E-02-2.49862101E-03-1.33598264E-03-1.87011660E-03 1.06345644E-03
 1  2 1.44697685E-02-3.65320085E-03-1.09537962E-04-1.00508333E-03-2.82389137E-03
 1  3-3.98823642E-04 7.80586882E-03-4.58209692E-05 2.43047390E-04-1.96239909E-04
 1  4 9.12658747E-06 3.24420411E-04 2.30487166E-04-1.48063376E-02 1.16553844E-03
 1  5 2.19456177E-03 1.22072635E-03 2.02745846E-03 5.94137956E-03 4.65612133E-04
 1  6 1.19959229E-03 3.42746723E-04 1.96614067E-04-5.19136273E-05 5.14055598E-04
 2  1-2.49862101E-03 1.71438025E-02 2.01716107E-03-4.07176989E-04-1.35898844E-03
 2  2-9.07428649E-03-1.24384176E-03-1.33909581E-02-1.44344643E-03 5.13537044E-05
 2  3-7.29494851E-05-1.88467727E-03 3.47576287E-05 3.48073284E-04-4.04758108E-04
 2  4 2.49798112E-04 9.06652134E-04 2.91244904E-04 2.75933106E-03-4.08411347E-03
 2  5-7.77070955E-05-2.74093540E-03-1.87675066E-03-1.30909246E-02 9.48389872E-04
 2  6-1.68060089E-05-9.12524440E-05-7.67171135E-05 3.38443365E-04-8.78242332E-04
 3  1-1.33598264E-03 2.01716107E-03 5.05515908E-03-6.86228118E-03-8.70641886E-05
 3  2 3.22134557E-03-1.33950907E-03-2.05444629E-03-3.04638938E-03-6.27873769E-03
 3  3 2.02908742E-03 2.88799865E-03-1.18769362E-05-6.11221221E-05-5.44234236E-05
 3  4 1.19365447E-04 7.04091751E-05-9.35134450E-05 2.63001858E-03 3.62892496E-04
 3  5-1.75593793E-03-1.00356155E-03 6.07737643E-03 7.97321130E-04 5.73558538E-05
 3  6-2.64492470E-04-1.98418684E-04-2.55965992E-04 7.69462479E-05-3.72540428E-04
 4  1-1.87011660E-03-4.07176989E-04-6.86228118E-03 4.25603070E-02 1.07559585E-02
 4  2-1.18719232E-03 2.93789171E-03-2.82093868E-03 9.16148446E-03 1.64582546E-02
 4  3-5.70653565E-03-9.15539354E-03-6.82927168E-05 4.84206223E-04 2.69964716E-05
 4  4-4.16687424E-04-3.55299657E-04 1.22534919E-03-9.92816082E-04 2.58467737E-03
 4  5-2.35364451E-03-1.11535590E-03 7.62958100E-03 8.10979744E-03-6.66923323E-06
 4  6 1.59238351E-04 2.74531688E-05-1.57604345E-03-6.64105831E-04 1.07586093E-03
 5  1 1.06345644E-03-1.35898844E-03-8.70641886E-05 1.07559585E-02 1.13492430E-02
 5  2-6.43374318E-03 2.65403039E-03 6.15545484E-05 1.86889099E-03 3.80709711E-03
 5  3-2.04023969E-03-5.88709930E-03 2.59166843E-05 7.42711633E-05 4.73001789E-05
 5  4-1.79379385E-05-5.39445223E-04-3.02257766E-04-3.92814301E-03 1.36057388E-03
 5  5-1.82135250E-03-2.40091780E-04 7.56032924E-03 4.40126727E-03 1.84737151E-04
 5  6-1.37411532E-04-7.77436543E-06-9.59004262E-04-2.29007661E-04-8.12602346E-04
 6  1 1.44697685E-02-9.07428649E-03 3.22134557E-03-1.18719232E-03-6.43374318E-03
 6  2 6.88616269E-02-1.19914700E-02-1.52570575E-03-2.78695531E-03-7.55573558E-03
 6  3-1.73949482E-03 2.09664854E-02-1.96794919E-04 1.61019798E-04-2.71303513E-04
 6  4-2.35851937E-04 1.15714160E-03 1.78166250E-03-1.76206759E-03 9.49970612E-03
 6  5-2.69691453E-04 5.42003817E-03 2.33496422E-03 2.55249560E-02-5.19432387E-04
 6  6 9.39273815E-04 1.06602467E-04 8.35837291E-04-1.32446267E-03 4.58851232E-03
 7  1-3.65320085E-03-1.24384176E-03-1.33950907E-03 2.93789171E-03 2.65403039E-03
 7  2-1.19914700E-02 1.25094041E-02 3.97942447E-03-2.69356393E-03 3.83502124E-03
 7  3 5.28537620E-03-4.47468717E-03-3.61866185E-03-2.72213191E-03 4.03357476E-03
 7  4 9.09729925E-04 3.45064277E-03 2.63362503E-03-3.57522343E-04-8.58307939E-04
 7  5-2.28234516E-04-4.83881634E-04 4.19679074E-04-1.42127192E-03-4.88002785E-03
 7  6 8.44848201E-04 2.27731781E-04 9.52072136E-04 5.88891215E-04-5.16676294E-04
 8  1-1.09537962E-04-1.33909581E-02-2.05444629E-03-2.82093868E-03 6.15545484E-05
 8  2-1.52570575E-03 3.97942447E-03 1.86750838E-02-2.41139457E-03-1.73646279E-03
 8  3 5.89512415E-04-4.66321319E-03-2.78480346E-03-3.37108910E-03 4.72056996E-03
 8  4 1.97040913E-03 3.86325218E-04-1.99018047E-03-1.19992688E-03 3.27064716E-04
 8  5 4.30929274E-04 1.15759920E-05 2.58323016E-04-3.89772704E-04 1.14836097E-04
 8  6-2.24010103E-03-6.85656802E-04-1.35581917E-03 1.55831303E-03-4.17882810E-03
 9  1-1.00508333E-03-1.44344643E-03-3.04638938E-03 9.16148446E-03 1.86889099E-03
 9  2-2.78695531E-03-2.69356393E-03-2.41139457E-03 9.81926977E-03 3.96966565E-03
 9  3 3.09032951E-03-4.50080872E-03 4.00101988E-03 4.33758385E-03-5.34213515E-03
 9  4 3.89765383E-04-1.47486249E-03-1.93492721E-03-2.57574596E-04 3.08773589E-04
 9  5 1.51264276E-05 4.17787010E-05 1.85813652E-04 2.54870607E-04-4.48042972E-05
 9  6-7.91510521E-04-1.44586568E-03 3.58285550E-04 2.85218713E-03-2.21517067E-03
10  1-2.82389137E-03 5.13537044E-05-6.27873769E-03 1.64582546E-02 3.80709711E-03
10  2-7.55573558E-03 3.83502124E-03-1.73646279E-03 3.96966565E-03 3.79854418E-02
10  3-5.79588755E-03-6.89537820E-03-1.54700622E-03 2.22842084E-03 2.04274656E-03
10  4-3.60266561E-03 2.34064994E-04 5.59723185E-03-1.68466412E-04 1.06728778E-04
10  5 5.91938433E-05-9.07776771E-04 1.29289554E-03 5.82370001E-04 7.04341027E-04
10  6-6.50036735E-04 2.07138214E-04-2.84521261E-03-3.96635764E-04 1.54359238E-05
11  1-3.98823642E-04-7.29494851E-05 2.02908742E-03-5.70653565E-03-2.04023969E-03
11  2-1.73949482E-03 5.28537620E-03 5.89512415E-04 3.09032951E-03-5.79588755E-03
11  3 2.66297191E-02 2.04926399E-03-2.23922688E-03 2.45974219E-03-2.37179939E-03
11  4 3.17800765E-04 2.30742761E-03 1.27246185E-03-3.85532602E-04 3.59897171E-04
11  5 1.85290954E-04-7.64063919E-05-6.91347370E-04-1.95816434E-03-2.26179479E-03
11  6-3.33620042E-03-2.93291286E-03 5.81219681E-04 7.80695905E-03-8.75824344E-03
12  1 7.80586882E-03-1.88467727E-03 2.88799865E-03-9.15539354E-03-5.88709930E-03
12  2 2.09664854E-02-4.47468717E-03-4.66321319E-03-4.50080872E-03-6.89537820E-03
12  3 2.04926399E-03 4.76939762E-02-2.59728699E-03 2.21875255E-04-8.77152077E-04
12  4-2.32989161E-03 1.49901353E-03 6.79750584E-03 1.13680520E-03 5.49590854E-04
12  5 1.66428046E-05 1.46208114E-03-2.19545488E-03 4.38761494E-03-1.87068989E-03
12  6 5.77643548E-03 2.47331662E-03 3.28212606E-03-4.88863033E-03 1.16505607E-02
13  1-4.58209692E-05 3.47576287E-05-1.18769362E-05-6.82927168E-05 2.59166843E-05
13  2-1.96794919E-04-3.61866185E-03-2.78480346E-03 4.00101988E-03-1.54700622E-03
13  3-2.23922688E-03-2.59728699E-03 8.33660074E-03-4.70871384E-04-7.57861298E-04
13  4-6.31812786E-04-6.10503648E-03-6.76794047E-03-1.49048107E-04-2.52015548E-04
13  5-1.13076216E-04 1.61411455E-04-6.98182053E-05-2.11150351E-04-4.52307115E-03
13  6 3.47292967E-03-3.11820590E-03 1.87114073E-03 1.98646987E-04-2.01063332E-03
14  1 2.43047390E-04 3.48073284E-04-6.11221221E-05 4.84206223E-04 7.42711633E-05
14  2 1.61019798E-04-2.72213191E-03-3.37108910E-03 4.33758385E-03 2.22842084E-03
14  3 2.45974219E-03 2.21875255E-04-4.70871384E-04 8.81657001E-03-6.56145432E-03
14  4 2.32137074E-03 4.71322256E-04-5.87045956E-03-5.03663179E-05 5.84368117E-04
14  5 7.08359777E-05 1.33777828E-04-3.18790700E-05 1.42231379E-04 3.00032389E-03
14  6-6.37791125E-03 2.21415991E-03 4.23515396E-03-9.99058654E-04-3.33642522E-03
15  1-1.96239909E-04-4.04758108E-04-5.44234236E-05 2.69964716E-05 4.73001789E-05
15  2-2.71303513E-04 4.03357476E-03 4.72056996E-03-5.34213515E-03 2.04274656E-03
15  3-2.37179939E-03-8.77152077E-04-7.57861298E-04-6.56145432E-03 8.81879586E-03
15  4 2.45326069E-03 5.22008895E-03 1.91172055E-04-2.42030365E-05-4.72224505E-04
15  5-2.33831022E-04 8.14624098E-05-4.75782363E-05-1.07604002E-05-3.05527147E-03
15  6 2.71786346E-03-3.18840808E-03 2.35844104E-03 3.93028236E-04-1.11225476E-03
16  1 9.12658747E-06 2.49798112E-04 1.19365447E-04-4.16687424E-04-1.79379385E-05
16  2-2.35851937E-04 9.09729925E-04 1.97040913E-03 3.89765383E-04-3.60266561E-03
16  3 3.17800765E-04-2.32989161E-03-6.31812786E-04 2.32137074E-03 2.45326069E-03
16  4 1.07194996E-02 1.34161117E-02-1.10687818E-02-2.00611644E-04-3.56601280E-05
16  5-2.56610965E-04 3.76277001E-04-2.33263469E-04-3.06864232E-04-8.64338846E-05
16  6-4.50591550E-03-2.70578086E-03 7.17247689E-03 1.32837997E-04-5.35422621E-03
17  1 3.24420411E-04 9.06652134E-04 7.04091751E-05-3.55299657E-04-5.39445223E-04
17  2 1.15714160E-03 3.45064277E-03 3.86325218E-04-1.47486249E-03 2.34064994E-04
17  3 2.30742761E-03 1.49901353E-03-6.10503648E-03 4.71322256E-04 5.22008895E-03
17  4 1.34161117E-02 2.78351026E-02 9.16695079E-03-5.94891805E-05-7.50764737E-04
17  5-4.27952939E-04 1.08994956E-03-7.22519259E-04 8.44285079E-04 2.38945576E-03
17  6-1.01353280E-03-3.38768261E-03 4.98977919E-03 8.20813953E-04-1.96412256E-04
18  1 2.30487166E-04 2.91244904E-04-9.35134450E-05 1.22534919E-03-3.02257766E-04
18  2 1.78166250E-03 2.63362503E-03-1.99018047E-03-1.93492721E-03 5.59723185E-03
18  3 1.27246185E-03 6.79750584E-03-6.76794047E-03-5.87045956E-03 1.91172055E-04
18  4-1.10687818E-02 9.16695079E-03 3.25972892E-02 4.62566413E-04-4.53187110E-04
18  5 2.37159045E-04-9.07970701E-04 1.53542812E-04 1.78324070E-03 3.44125699E-03
18  6 8.02257890E-03 1.60011030E-03-1.17101475E-02 4.45902624E-04 1.21756512E-02
19  1-1.48063376E-02 2.75933106E-03 2.63001858E-03-9.92816082E-04-3.92814301E-03
19  2-1.76206759E-03-3.57522343E-04-1.19992688E-03-2.57574596E-04-1.68466412E-04
19  3-3.85532602E-04 1.13680520E-03-1.49048107E-04-5.03663179E-05-2.42030365E-05
19  4-2.00611644E-04-5.94891805E-05 4.62566413E-04 1.92071332E-02 2.41946056E-03
19  5-2.76536501E-03 2.98261040E-03-4.85338125E-03 3.03912524E-03-3.89421751E-03
19  6-3.92852190E-03 4.17121478E-04 3.60705670E-03-3.32311910E-03 1.07582554E-02
20  1 1.16553844E-03-4.08411347E-03 3.62892496E-04 2.58467737E-03 1.36057388E-03
20  2 9.49970612E-03-8.58307939E-04 3.27064716E-04 3.08773589E-04 1.06728778E-04
20  3 3.59897171E-04 5.49590854E-04-2.52015548E-04 5.84368117E-04-4.72224505E-04
20  4-3.56601280E-05-7.50764737E-04-4.53187110E-04 2.41946056E-03 1.74537445E-02
20  5 1.64579118E-03 6.64548614E-03 7.01357908E-04 1.25138166E-02-2.47469789E-03
20  6-1.42810738E-02-1.84523017E-03 3.67974118E-03-1.15945169E-03 2.96020762E-03
21  1 2.19456177E-03-7.77070955E-05-1.75593793E-03-2.35364451E-03-1.82135250E-03
21  2-2.69691453E-04-2.28234516E-04 4.30929274E-04 1.51264276E-05 5.91938433E-05
21  3 1.85290954E-04 1.66428046E-05-1.13076216E-04 7.08359777E-05-2.33831022E-04
21  4-2.56610965E-04-4.27952939E-04 2.37159045E-04-2.76536501E-03 1.64579118E-03
21  5 4.88339769E-03-3.72332607E-03-2.67014216E-03-3.70819804E-03 9.12105420E-04
21  6-2.06984791E-03-2.90875432E-03-9.60776564E-03 8.88848734E-04-2.66321361E-03
22  1 1.22072635E-03-2.74093540E-03-1.00356155E-03-1.11535590E-03-2.40091780E-04
22  2 5.42003817E-03-4.83881634E-04 1.15759920E-05 4.17787010E-05-9.07776771E-04
22  3-7.64063919E-05 1.46208114E-03 1.61411455E-04 1.33777828E-04 8.14624098E-05
22  4 3.76277001E-04 1.08994956E-03-9.07970701E-04 2.98261040E-03 6.64548614E-03
22  5-3.72332607E-03 1.96264197E-02-1.28206316E-02 1.61888150E-02-3.88086943E-03
22  6-4.04990956E-03 4.60364945E-03 1.53692566E-02-2.95093038E-03 8.85916460E-03
23  1 2.02745846E-03-1.87675066E-03 6.07737643E-03 7.62958100E-03 7.56032924E-03
23  2 2.33496422E-03 4.19679074E-04 2.58323016E-04 1.85813652E-04 1.29289554E-03
23  3-6.91347370E-04-2.19545488E-03-6.98182053E-05-3.18790700E-05-4.75782363E-05
23  4-2.33263469E-04-7.22519259E-04 1.53542812E-04-4.85338125E-03 7.01357908E-04
23  5-2.67014216E-03-1.28206316E-02 3.56466706E-02 6.06597949E-04 2.47606372E-03
23  6 9.48951881E-04-3.54547724E-03-1.11855396E-02 6.77098777E-04-6.48610957E-03
24  1 5.94137956E-03-1.30909246E-02 7.97321130E-04 8.10979744E-03 4.40126727E-03
24  2 2.55249560E-02-1.42127192E-03-3.89772704E-04 2.54870607E-04 5.82370001E-04
24  3-1.95816434E-03 4.38761494E-03-2.11150351E-04 1.42231379E-04-1.07604002E-05
24  4-3.06864232E-04 8.44285079E-04 1.78324070E-03 3.03912524E-03 1.25138166E-02
24  5-3.70819804E-03 1.61888150E-02 6.06597949E-04 6.57960935E-02-7.34809493E-03
24  6 8.24631644E-04 2.66676777E-03 6.85654076E-03-5.65347109E-03 1.87329615E-02
25  1 4.65612133E-04 9.48389872E-04 5.73558538E-05-6.66923323E-06 1.84737151E-04
25  2-5.19432387E-04-4.88002785E-03 1.14836097E-04-4.48042972E-05 7.04341027E-04
25  3-2.26179479E-03-1.87068989E-03-4.52307115E-03 3.00032389E-03-3.05527147E-03
25  4-8.64338846E-05 2.38945576E-03 3.44125699E-03-3.89421751E-03-2.47469789E-03
25  5 9.12105420E-04-3.88086943E-03 2.47606372E-03-7.34809493E-03 1.28317056E-02
25  6-1.58883559E-03 2.13061591E-03-6.62688211E-03 2.58749098E-03-8.74498903E-03
26  1 1.19959229E-03-1.68060089E-05-2.64492470E-04 1.59238351E-04-1.37411532E-04
26  2 9.39273815E-04 8.44848201E-04-2.24010103E-03-7.91510521E-04-6.50036735E-04
26  3-3.33620042E-03 5.77643548E-03 3.47292967E-03-6.37791125E-03 2.71786346E-03
26  4-4.50591550E-03-1.01353280E-03 8.02257890E-03-3.92852190E-03-1.42810738E-02
26  5-2.06984791E-03-4.04990956E-03 9.48951881E-04 8.24631644E-04-1.58883559E-03
26  6 2.29158926E-02 4.07982993E-04-6.48235748E-03 2.61757964E-04 5.43327167E-03
27  1 3.42746723E-04-9.12524440E-05-1.98418684E-04 2.74531688E-05-7.77436543E-06
27  2 1.06602467E-04 2.27731781E-04-6.85656802E-04-1.44586568E-03 2.07138214E-04
27  3-2.93291286E-03 2.47331662E-03-3.11820590E-03 2.21415991E-03-3.18840808E-03
27  4-2.70578086E-03-3.38768261E-03 1.60011030E-03 4.17121478E-04-1.84523017E-03
27  5-2.90875432E-03 4.60364945E-03-3.54547724E-03 2.66676777E-03 2.13061591E-03
27  6 4.07982993E-04 7.74145210E-03 7.14700965E-03-4.21101305E-03 6.36318050E-03
28  1 1.96614067E-04-7.67171135E-05-2.55965992E-04-1.57604345E-03-9.59004262E-04
28  2 8.35837291E-04 9.52072136E-04-1.35581917E-03 3.58285550E-04-2.84521261E-03
28  3 5.81219681E-04 3.28212606E-03 1.87114073E-03 4.23515396E-03 2.35844104E-03
28  4 7.17247689E-03 4.98977919E-03-1.17101475E-02 3.60705670E-03 3.67974118E-03
28  5-9.60776564E-03 1.53692566E-02-1.11855396E-02 6.85654076E-03-6.62688211E-03
28  6-6.48235748E-03 7.14700965E-03 5.86081555E-02-4.07709099E-03 4.25165069E-03
29  1-5.19136273E-05 3.38443365E-04 7.69462479E-05-6.64105831E-04-2.29007661E-04
29  2-1.32446267E-03 5.88891215E-04 1.55831303E-03 2.85218713E-03-3.96635764E-04
29  3 7.80695905E-03-4.88863033E-03 1.98646987E-04-9.99058654E-04 3.93028236E-04
29  4 1.32837997E-04 8.20813953E-04 4.45902624E-04-3.32311910E-03-1.15945169E-03
29  5 8.88848734E-04-2.95093038E-03 6.77098777E-04-5.65347109E-03 2.58749098E-03
29  6 2.61757964E-04-4.21101305E-03-4.07709099E-03 1.42297277E-02-1.35632014E-02
30  1 5.14055598E-04-8.78242332E-04-3.72540428E-04 1.07586093E-03-8.12602346E-04
30  2 4.58851232E-03-5.16676294E-04-4.17882810E-03-2.21517067E-03 1.54359238E-05
30  3-8.75824344E-03 1.16505607E-02-2.01063332E-03-3.33642522E-03-1.11225476E-03
30  4-5.35422621E-03-1.96412256E-04 1.21756512E-02 1.07582554E-02 2.96020762E-03
30  5-2.66321361E-03 8.85916460E-03-6.48610957E-03 1.87329615E-02-8.74498903E-03
30  6 5.43327167E-03 6.36318050E-03 4.25165069E-03-1.35632014E-02 5.45313135E-02
 $END

! TRAVIS-CI SMALL

