!  HCN plus a single water fragment
!  Test reaction path following
!
!  FINAL E(T.S.) = -91.5709959492 after 12 iters
!     FINAL E(1) = -91.5736894668 at STOTAL=0.29987
!     FINAL E(2) = -91.5814961002 at STOTAL=0.59962
!     FINAL E(3) = -91.5932514991 at STOTAL=0.89933
!     FINAL E(4) = -91.6072770075 at STOTAL=1.19895
!     FINAL E(5) = -91.6219797490 at STOTAL=1.49848
!
!  This run takes 1 second on 2.66 GHz Cloverton (26 Oct 2015)
!  results have not changed in a very long time.
!
 $CONTRL SCFTYP=RHF RUNTYP=irc  $END
 $SYSTEM mwords=3 $end
 $GUESS  GUESS=HUCKEL $END
 $BASIS  GBASIS=STO NGAUSS=3 $END
 $irc    saddle=.true. tsengy=.true. npoint=5 $end
 $DATA
HYDROGEN CYANIDE...STO-3G...INTRINSIC REACTION COORDINATE
C1
NITROGEN    7.0   -.0381229713    .1872880382   -.3998194435
CARBON      6.0   1.1794416843    .2164345474   -.4148876952
HYDROGEN    1.0    .8375108064    .2724375435    .7393074087
 $END
 $efrag
polmethd=frgscf 
FRAGNAME=H2Orhf
ZO1                .1717371328    .4870548812   2.9353985642
ZH2                .6838836113    .7708640021   3.6756936551
ZH3               -.7344604753    .5542379607   3.1906842532
 $end
 $HESS
ENERGY IS      -91.5709959302 E(NUC) IS       23.1772964431
 1  1 1.12894057E+00 2.79923382E-02 3.10026862E-03-1.11549601E+00-2.69744830E-02
 1  2 9.63778629E-03-1.12637294E-02-1.46831093E-03-1.77590712E-02-2.15665061E-03
 1  3 4.45649976E-04 5.00597007E-03-2.28046783E-04 1.11552913E-03-2.35132626E-04
 2  1 2.79923382E-02 7.73559612E-04-1.12141080E-03-3.03666475E-02-4.70768434E-04
 2  2 6.01768378E-03 2.51446107E-03-3.50209605E-04-4.91810808E-03-1.39352533E-04
 2  3 6.56064161E-05 2.18573898E-05 6.33304627E-05 3.32626325E-04 3.64366476E-04
 3  1 3.10026862E-03-1.12141080E-03-2.19872652E-02-5.23024115E-02 4.49805992E-03
 3  2 1.03825384E-01 5.04030067E-02-3.21367302E-03-8.05635548E-02-1.18783733E-03
 3  3-1.62889519E-04-1.25614489E-03-6.31921349E-05 2.80667423E-03-4.29337518E-04
 4  1-1.11549601E+00-3.03666475E-02-5.23024115E-02 1.05349477E+00 2.73773246E-02
 4  2 2.58994620E-02 6.05481624E-02 3.47043493E-03 3.12865518E-02 1.42203014E-03
 4  3-4.74254125E-04-4.88476801E-03 1.29807650E-04 3.81365690E-05 9.30097322E-05
 5  1-2.69744830E-02-4.70768434E-04 4.49805992E-03 2.73773246E-02 1.71110921E-03
 5  2 9.15155056E-03-5.72916516E-04-1.50317740E-03-1.33986041E-02 1.72975230E-04
 5  3 2.48616360E-04-2.44518988E-04 2.71740083E-04-2.98962637E-04-7.40999310E-05
 6  1 9.63778629E-03 6.01768378E-03 1.03825384E-01 2.58994620E-02 9.15155056E-03
 6  2 1.52512715E-01-3.76548853E-02-1.51031997E-02-2.55004302E-01 2.10636136E-03
 6  3-6.99844946E-05-1.34972485E-03 2.12302823E-04-3.31023132E-03 5.79991656E-04
 7  1-1.12637294E-02 2.51446107E-03 5.04030067E-02 6.05481624E-02-5.72916516E-04
 7  2-3.76548853E-02-4.83632307E-02-1.96962568E-03-1.37308825E-02-9.14360553E-04
 7  3 2.58192969E-05 9.98075459E-04-3.65465810E-04 2.60661788E-03-4.50301769E-04
 8  1-1.46831093E-03-3.50209605E-04-3.21367302E-03 3.47043493E-03-1.50317740E-03
 8  2-1.51031997E-02-1.96962568E-03 2.43768709E-03 1.84887922E-02-3.61997204E-05
 8  3-5.88234982E-04-1.78299186E-04-5.93494160E-04 3.57446365E-04-5.50574677E-04
 9  1-1.77590712E-02-4.91810808E-03-8.05635548E-02 3.12865518E-02-1.33986041E-02
 9  2-2.55004302E-01-1.37308825E-02 1.84887922E-02 3.38367153E-01 2.01585344E-04
 9  3-1.67906889E-04-2.80060110E-03 4.00250757E-04 1.41219856E-03-8.06911967E-05
10  1-2.15665061E-03-1.39352533E-04-1.18783733E-03 1.42203014E-03 1.72975230E-04
10  2 2.10636136E-03-9.14360553E-04-3.61997204E-05 2.01585344E-04 1.64899198E-03
10  3 2.78671501E-06-1.11921184E-03 4.63707813E-04-3.76029518E-03 5.92408207E-04
11  1 4.45649976E-04 6.56064161E-05-1.62889519E-04-4.74254125E-04 2.48616360E-04
11  2-6.99844946E-05 2.58192969E-05-5.88234982E-04-1.67906889E-04 2.78671501E-06
11  3 2.73979398E-04 4.00650914E-04 2.58446629E-04-3.91425677E-04 2.60235263E-04
12  1 5.00597007E-03 2.18573898E-05-1.25614489E-03-4.88476801E-03-2.44518988E-04
12  2-1.34972485E-03 9.98075459E-04-1.78299186E-04-2.80060110E-03-1.11921184E-03
12  3 4.00650914E-04 5.40528395E-03-5.49352033E-04-9.10090484E-04-6.97738793E-05
13  1-2.28046783E-04 6.33304627E-05-6.31921349E-05 1.29807650E-04 2.71740083E-04
13  2 2.12302823E-04-3.65465810E-04-5.93494160E-04 4.00250757E-04 4.63707813E-04
13  3 2.58446629E-04-5.49352033E-04 6.01776957E-04-1.22735661E-03 4.66263444E-04
14  1 1.11552913E-03 3.32626325E-04 2.80667423E-03 3.81365690E-05-2.98962637E-04
14  2-3.31023132E-03 2.60661788E-03 3.57446365E-04 1.41219856E-03-3.76029518E-03
14  3-3.91425677E-04-9.10090484E-04-1.22735661E-03 1.28839589E-02-1.61111348E-03
15  1-2.35132626E-04 3.64366476E-04-4.29337518E-04 9.30097322E-05-7.40999310E-05
15  2 5.79991656E-04-4.50301769E-04-5.50574677E-04-8.06911967E-05 5.92408207E-04
15  3 2.60235263E-04-6.97738793E-05 4.66263444E-04-1.61111348E-03 1.29778518E-03
 $END

! TRAVIS-CI SMALL

! TRAVIS-CI SKIP
