!   Effective fragment geometry optimization test case.
!   System is one ab initio H2O, two EFP H2O molecules.
!
!   The job reads the built in FRAGNAME=H2ORHF parameters,
!   just to illustrate the full input, and test it too.
!
!        NSERCH:   0  E=      -76.0688824609  R.M.S.=  0.0012327
!        NSERCH:   1  E=      -76.0675322624  R.M.S.=  0.0033203
!        NSERCH:   2  E=      -76.0689565269  R.M.S.=  0.0010504
!             ...snipped...
!        NSERCH:  14  E=      -76.0691802615  R.M.S.=  0.0000122
!        NSERCH:  15  E=      -76.0691802708  R.M.S.=  0.0000071
!        NSERCH:  16  E=      -76.0691802722  R.M.S.=  0.0000025
!
!  This run takes 4 seconds on 2.66 GHz Cloverton (26 Oct 2015)
!
 $contrl scftyp=rhf runtyp=optimize $end
 $basis  gbasis=dh npfunc=1 ndfunc=1 $end
 $system mwords=1 $end
 $statpt nstep=50 ihrep=0 opttol=0.00001 purify=.false. $end
 $data
one ab initio water and two fragment waters
C1
o          8.           .000000     .000000     .000000
h          1.          -.330157     .042115     .891665
h          1.          -.439059    -.719592    -.424337
 $end
 $efrag
polmethd=frgscf 
fragname=water
zo1            .000000     .000000    2.885194
zh2            .935242    -.013824    2.758665
zh3           -.173429     .639854    3.557048
fragname=water
zo1           2.511740     .000000    1.428623
zh2           1.903253    -.027385     .707602
zh3           3.184445     .618557    1.192542
 $end
 $WATER
Standard water EFP...r(OH)=0.9438636, a(HOH)=106.70327
 COORDINATES 
zo1         .000000  .000000 -.119151  15.99491  8.0
zh2       -1.431042  .000000  .945510   1.007825 1.0
zh3        1.431042  .000000  .945510   1.007825 1.0
o1          .000000  .000000 -.119151
h2        -1.431042  .000000  .945510
h3         1.431042  .000000  .945510
b12        -.715521  .000000  .413179
b13         .715521  .000000  .413179
stop
 MONOPOLES
ZO1 8.0    
ZH2 1.0
ZH3 1.0
O1  -8.210827
H2  -0.556652
H3  -0.556652
B12 -0.337934
B13 -0.337934
stop
 DIPOLES
o1   .000000       .000000       .435528
h2  -.053498       .000000       .026668
h3   .053498       .000000       .026668
b12  .145227       .000000      -.106534
b13 -.145227       .000000      -.106534
stop
 QUADRUPOLES
o1  -3.600378 -4.554786 -4.072824   .000000   .000000   .000000
h2   -.273844  -.284801  -.273119   .000000  -.008071   .000000
h3   -.273844  -.284801  -.273119   .000000   .008071   .000000
b12  -.123332  -.156586  -.135104   .000000  -.012710   .000000
b13  -.123332  -.156586  -.135104   .000000   .012710   .000000
stop
 OCTUPOLES
o1    .000000   .000000  1.001522   .000000   .289430   .000000   .336875 >
      .000000   .000000   .000000
h2   -.050127   .000000   .018626   .000000  -.000173  -.020918   .008664 >
     -.013564   .000000   .000000
h3    .050127   .000000   .018626   .000000  -.000173   .020918   .008664 >
      .013564   .000000   .000000
b12   .442205   .000000  -.296631   .000000  -.097197   .145673  -.100224 >
      .147545   .000000   .000000
b13  -.442205   .000000  -.296631   .000000  -.097197  -.145673  -.100224 >
     -.147545   .000000   .000000
stop
 SCREEN
ZO1       3.171069               .307981
ZH2       -.743555               .220351
ZH3       -.743555               .220351
O1        3.063892               .308167
h2       -1.501489               .233582
h3       -1.501489               .233582
b12       1.990144               .440029
b13       1.990144               .440029
stop
 SCREEN1
ZO1       3.171069               .307981
ZH2       -.743555               .220351
ZH3       -.743555               .220351
O1        3.063892               .308167
h2       -1.501489               .233582
h3       -1.501489               .233582
b12       1.990144               .440029
b13       1.990144               .440029
stop
 POLARIZABLE POINTS
LMO1         .000000    .000000   -.118948     .7
  0.001372  0.001315  0.001555  0.000000  0.000000  0.000000  0.000000 >
  0.000000  0.000000
LMO2         .761149    .000000    .486642     .7
  2.093639  0.786767  1.541635  0.000000  0.951176  0.000000  0.000000 >
  1.315027  0.000000
LMO3        -.761149    .000000    .486642     .7
  2.093639  0.786767  1.541635  0.000000 -0.951176  0.000000  0.000000 >
 -1.315027  0.000000
LMO4         .000000   -.489534   -.407726     .7
  1.386526  0.729779  1.052409  0.000000  0.000000  0.086979  0.000000 >
  0.000000  0.655755
LMO5         .000000    .489534   -.407726     .7
  1.386526  0.729779  1.052409  0.000000  0.000000 -0.086979  0.000000 >
  0.000000 -0.655755
stop
 REPULSIVE POTENTIAL
O1       2   
   -.00015658525     .018861917
   1.2469537         .41985964
H2       2  
    .00044035869     .064324281
    .11725664        .69632546
H3       2  
    .00044035869     .064324281
    .11725664        .69632546
stop
 $END
 $FRGRPL
pair=water water
o1 o1 -24.269765 1.4362041
center center 128.74969 1.8712451
o1 center 4.2645641 1.2578017
o1 h2 3.7022852 1.6618349
h2 center -.42798437 1.1335629
h2 h2 6.2316930 3.5264849
o1 h3 'eq' o1 h2
h2 o1 'eq' o1 h2
h2 h3 'eq' h2 h2
h3 o1 'eq' o1 h2
h3 h2 'eq' h2 h2
h3 h3 'eq' h2 h2
h3 center 'eq' h2 center
center o1 'eq' o1 center
center h2 'eq' h2 center
center h3 'eq' h2 center
stop
 $end

! TRAVIS-CI SMALL

! TRAVIS-CI SKIP
