!   MD NVE trajectory for 64 waters in PBC with MP2-style EFP1 potential
!   this test case comes from Hui.
!
!   energy conservation ranges from -739.351 to -739.445 kcal/mole
!
!         *** AT T=     100
!    ELEC ENERGY      =       -1021.23653703 KCAL/MOL
!    POLZ ENERGY      =        -203.12132832 KCAL/MOL
!    DISP ENERGY      =        -429.20680712 KCAL/MOL
!    DISP8ENERGY      =          27.89203546 KCAL/MOL
!    DISP ENERGY      =            .00000000 KCAL/MOL
!    CH-TR ENRGY      =            .00000000 KCAL/MOL
!    REP  ENERGY      =         757.82099239 KCAL/MOL
!    POT  ENERGY      =        -867.85164461 KCAL/MOL
!    TRANS    KE      =          60.33860568 KCAL/MOL
!    ROT      KE      =          68.10202673 KCAL/MOL
!    TOT      KE      =         128.44063241 KCAL/MOL
!    TOTAL ENERGY     =        -739.41101220 KCAL/MOL  -.00983653
!    TEMPERATURE      =         336.63256895 K
!      ROT.KE TEMP =     356.98
!    TRANS.KE TEMP =     316.29
!
!   The final water (of 64 total) after 100 steps is located at:
!        PBC CARTESIAN COORDINATES (ANG)
!   O1        -5.037670076338    1.470131463705   -4.018914956423
!   H2        -5.506015767964    1.253560723645   -3.228580924667
!   H3        -5.472761878457    2.218178191166   -4.395743393952
!
!   This run requires 30 seconds on 2.66 GHz Cloverton (12/4/2008)
!
!   properties are not correct:
!    PRESSURE         =            104532.59 PASCAL  prior to April 2009
!    PRESSURE         =          -11358.2107 BAR   after April 2009
!    PRESSURE(AVERAGE)=         -195983.8633 BAR   after April 2009
!    DIFFUSION        =         278.70791730 ANG^2/PS
!    HEAT OF VAP      =          14.15411118 KCAL/MOL*K
!
 $contrl runtyp=md coord=fragonly $end
 $md     mdint=vverlet nsteps=100 dt=1.00d-15
         batht=300.0 mbt=.true. mbr=.true.
         jevery=1 kevery=1 pbcout=.true. $end
 $mdprp  pressr=.true. difusn=.true. htvap=.true. $end

 $efrag
fragtyp=mp2new swr1=5.0 swr2=6.2 xbox=12.4 ybox=12.4 zbox=12.4
FRAGNAME=WATER
O1               0.2513029719482  -3.1675936413501  -0.2107823315304
H2              -0.0219640486775  -2.2887596227301  -0.0013680118545
H3               0.7360971973151  -3.4856727234276   0.5339852232989
FRAGNAME=WATER
O1               0.0469427530999   0.2397349924867   0.6032482957952
H2              -0.7265989247338  -0.0264657933344   0.1324523014206
H3              -0.2139477226012   0.3728235560963   1.5005230853448
FRAGNAME=WATER
O1              -0.0959209679919   0.1808018230953   3.3360878249444
H2              -0.7949030430254   0.0878589594503   3.9635144238107
H3               0.2802773880484   1.0354468394875   3.4736928646562
FRAGNAME=WATER
O1               2.7205338900051  -0.3854158882370   0.4646052331967
H2               1.7972419645313  -0.3520072979723   0.2714878065152
H3               3.1700231492954  -0.0736461788630  -0.3045745300162
FRAGNAME=WATER
O1               0.6587829618871   2.6424346317738  -0.6503747785887
H2               0.8429437528712   1.8178892878941  -0.2295562511753
H3               1.4308526634042   3.1761853078806  -0.5508908813034
FRAGNAME=WATER
O1              -3.8014468446802   3.2721330965054   1.6919835523968
H2              -3.1753837587166   3.5807422546422   1.0566223528313
H3              -4.6282474684712   3.6721538259940   1.4745839238697
FRAGNAME=WATER
O1               0.4557854457834   2.8940070613958   3.1288080993186
H2               0.2321410826952   3.3529815493693   3.9226620357255
H3              -0.0782140666113   3.2620424494751   2.4430436149773
FRAGNAME=WATER
O1               2.5081821490562   4.5571898233887  -0.7139864815956
H2               2.8636419406595   5.0562103047833   0.0040005306397
H3               3.2398150243154   4.1507794389598  -1.1503606207295
FRAGNAME=WATER
O1               6.4810947892262  -0.6694004906365   0.2235238037351
H2               5.9217777504783  -1.0370914822338   0.8889907367139
H3               7.2923556258142  -0.4394899896191   0.6476410877077
FRAGNAME=WATER
O1               4.5946297049184  -2.0728036236394   2.3499767023651
H2               3.8949768825616  -1.4482130702354   2.2439058638156
H3               4.6662156346018  -2.2454490299625   3.2751509953343
FRAGNAME=WATER
O1               9.8616641226292  -2.0294718859633   1.8992610960600
H2               9.9032417877501  -2.6084335532358   2.6435413790832
H3               9.7905039112235  -2.5767062491274   1.1335266576351
FRAGNAME=WATER
O1               9.5153256794470  -0.2426636894906  -0.4858983740160
H2               9.4717734980650   0.3813730236853  -1.1926938480984
H3               9.5512413292445  -1.0987733273771  -0.8817074291113
FRAGNAME=WATER
O1               5.8489219051503   3.6454836184238   1.2768163206082
H2               5.5003996968181   4.3169784203408   0.7124534449965
H3               5.6791588246130   3.9211969260760   2.1634059227022
FRAGNAME=WATER
O1               2.8524103954681   0.7360330916236   3.3220235302251
H2               2.8513776042564   1.6463309739668   3.5714932734058
H3               2.8818109859501   0.7132502961858   2.3788931025906
FRAGNAME=WATER
O1               4.7980692528258   1.0075041997162   5.4517489797968
H2               4.3885254918077   0.4647497823254   4.7970963969254
H3               5.5142559985462   1.4516150431557   5.0266365734379
FRAGNAME=WATER
O1               8.2320865832146   0.3875544568964   2.0116442990377
H2               8.3909700663989   1.2408219728938   1.6407412942530
H3               9.0763014591090  -0.0161934223005   2.1348000841476
FRAGNAME=WATER
O1               4.2204878172572   5.7540281950436   0.9354607275591
H2               4.7246393244377   6.4683800238740   0.5799172330246
H3               4.1470956846895   5.9093161316486   1.8635650889719
FRAGNAME=WATER
O1               4.7281851583721   4.8953430566900   3.8708528936911
H2               5.3532221962878   4.2022632775894   4.0117343157653
H3               3.8938165683342   4.5737418040545   4.1729789341309
FRAGNAME=WATER
O1               6.7384149441498   2.6747677445256   4.2660466641562
H2               7.2115540145208   2.1518314123948   3.6387066712335
H3               7.3811666158399   3.0481992845238   4.8476802494728
FRAGNAME=WATER
O1               8.5145411247097   6.3900942521533  -1.0899519169949
H2               7.9504300099596   5.7567565913999  -1.5041264113312
H3               9.0963490057520   5.9068826771393  -0.5252532208734
FRAGNAME=WATER
O1               5.3727158521161   8.6752310170310   0.2951162881271
H2               5.0027350221895   8.9876176094578  -0.5150733541323
H3               5.1235849673324   9.2935406920280   0.9633268852576
FRAGNAME=WATER
O1               6.3250470699723   7.0292781331110   4.6418745398214
H2               6.8216167421626   7.0712896880799   3.8402935744846
H3               5.7884722713814   6.2546192610234   4.5883061583507
FRAGNAME=WATER
O1               7.1440719628562   6.9003634818520   1.7562967199332
H2               7.9524758717035   6.6866057183115   1.3184963170440
H3               6.7339649635528   7.5835151216545   1.2503376897333
FRAGNAME=WATER
O1               9.0026619002830   8.9739634186268  -0.5797840363101
H2               8.2011026456755   9.4723404515536  -0.5785396562309
H3               8.7859865712460   8.1125010533779  -0.8988652941804
FRAGNAME=WATER
O1               7.2757955754651   6.4900237970711   7.1666333682217
H2               7.2191482438012   6.9769493321384   6.3600522766933
H3               7.1477560835777   7.1095711204852   7.8670942569686
FRAGNAME=WATER
O1               4.5988012080358   6.5200682886856  10.4828629884233
H2               5.0821810592788   5.7233277641119  10.3331068200728
H3               3.7705566608096   6.4220090364753  10.0409650283798
FRAGNAME=WATER
O1               7.1507179424279   4.0468737934135  10.5065420717680
H2               7.5702709005188   3.7841692599978   9.7029002998486
H3               6.6632065788372   3.2997801190625  10.8148636023309
FRAGNAME=WATER
O1               9.0553024512861   2.7385353170119   5.7281874317477
H2               9.4206234506970   1.8682682045829   5.7208271010564
H3               9.0593119775945   3.0268395617122   6.6269326905616
FRAGNAME=WATER
O1               5.4425031287588   9.7507590740818   4.9584780781567
H2               5.5806855476971   8.8175776660026   4.9894059425365
H3               4.8859643760334   9.9669626995729   5.6895041126609
FRAGNAME=WATER
O1               6.0637618794031   8.2634538163020   8.8589986618609
H2               6.2365618815073   9.1044031923114   9.2512011100312
H3               5.5255242157691   7.7850137434567   9.4691410782117
FRAGNAME=WATER
O1               9.1174997008595   4.6167169394210   8.0555122586883
H2               9.7370242325562   5.0146350239084   8.6460450746032
H3               8.7114265700696   5.3197832602248   7.5741799254604
FRAGNAME=WATER
O1              10.1289378992792   9.0745698918556   6.4924334551780
H2               9.6010432115755   8.9430966308857   7.2637443097586
H3               9.5325770417828   9.2503533256771   5.7822698359396
FRAGNAME=WATER
O1              -2.5342744056612   5.3445548107638   4.7992267744026
H2              -3.0824532484053   4.6409388900710   4.4905148592482
H3              -1.8891194760821   4.9561643814577   5.3682667073654
FRAGNAME=WATER
O1               0.0876771901529   4.0465172641913   6.4570876005363
H2               0.7479984182652   3.3979322925771   6.2721771779256
H3               0.5405521115002   4.8129742082717   6.7706581868089
FRAGNAME=WATER
O1               1.4597557572796   7.2498985639397   6.8173956638802
H2               0.8295674598291   7.8304444822491   6.4215325555350
H3               2.2188462156807   7.7722576317615   7.0218489208531
FRAGNAME=WATER
O1               3.2180798859225   3.4198488916758   5.9116775379546
H2               3.7768140266182   3.9435676602602   6.4634141286806
H3               3.5266609501692   2.5304245707126   5.9793573588754
FRAGNAME=WATER
O1              -2.1148517114691   7.4819015207760   3.1725517765060
H2              -1.4523549571657   8.0899199862661   3.4594142002997
H3              -2.1226557460828   6.7744933694948   3.7973647553797
FRAGNAME=WATER
O1              -0.2303649218263   9.0538326543845   9.1675946592701
H2               0.2239430068581   8.5908787934857   8.4819150819977
H3               0.1029239151821   8.7219600258572   9.9859207334209
FRAGNAME=WATER
O1               3.5664540340665   8.9632158558733   7.4943313767637
H2               4.3172728373915   8.6678997194590   7.9841660001008
H3               3.6745107926638   9.8920433965454   7.3659507291440
FRAGNAME=WATER
O1               1.9374741401812   6.2059411888166   3.2247730190954
H2               1.6137772381212   6.2073934493351   4.1113939417909
H3               1.2943336134409   5.7544261544099   2.7019127216982
FRAGNAME=WATER
O1               0.3205653263988  -2.9408301193669   5.7417008476735
H2              -0.6088646912936  -2.8668239626292   5.8885388027887
H3               0.4535372035379  -2.8805272809126   4.8091985679714
FRAGNAME=WATER
O1              -0.7790934620682  -0.5203491957072   8.2077780028863
H2              -0.5581720226184   0.2188352453591   8.7515413096214
H3              -0.3425145763922  -1.2703216493880   8.5790173453276
FRAGNAME=WATER
O1               3.9186673683000  -0.2946365363591  10.0413146369625
H2               4.6721584238862  -0.4394843857301   9.4916340171863
H3               3.3232600559594   0.2469030207439   9.5482593717263
FRAGNAME=WATER
O1               2.5857329160491  -1.0461645036622   5.7331972798347
H2               1.8036441888949  -1.5740157080528   5.7089324305144
H3               2.5466755265219  -0.4689298266896   4.9874405486853
FRAGNAME=WATER
O1              -2.1309644652976   0.1897797964058   5.7112306517753
H2              -2.8472425495107  -0.3931990106032   5.5163977214770
H3              -1.7300657856098  -0.1285847231091   6.5042014806289
FRAGNAME=WATER
O1               0.0489714929553   2.0884698707187   8.8865539660232
H2              -0.1992670861262   2.9695477073268   8.6564281139837
H3               0.5282111832141   2.1447544250824   9.6977505034321
FRAGNAME=WATER
O1               4.3612030006397   2.9987524417094   9.7518722095303
H2               3.8058302211748   2.6232743292379   9.0874508696077
H3               4.6414559133402   2.2872177708954  10.3050947427057
FRAGNAME=WATER
O1               2.5730478903912   1.1399245234926   7.6722584922929
H2               1.6574625491640   1.2367798267376   7.8801069640070
H3               2.6530088425823   0.3511047874963   7.1601568185424
FRAGNAME=WATER
O1              -2.0821030557713   3.6110844752035  -0.7211020507211
H2              -1.2040616593109   3.3255177723532  -0.5252107073598
H3              -2.4684071155102   2.9452678472539  -1.2673033372940
FRAGNAME=WATER
O1              -1.3238511991343   6.9603517344789   0.3764809795373
H2              -1.6638857467601   7.4341976188186   1.1185894880577
H3              -0.7652977783139   7.5580809401416  -0.0942804535588
FRAGNAME=WATER
O1               0.0817544282840   4.9201383683556   1.4698729730170
H2               0.5771062177524   4.5234143760039   0.7712206040682
H3              -0.4434971407195   5.5995222907588   1.0781757311143
FRAGNAME=WATER
O1               1.8140490924897   6.8516522038242  -2.8994945992853
H2               1.1165938279916   6.3184226110371  -2.5529389624342
H3               1.6535102312670   6.9400666946323  -3.8253934090296
FRAGNAME=WATER
O1              -1.1374689724521   5.7130916797148  -2.4857561034792
H2              -1.5029528642082   6.5765345963813  -2.3772834866959
H3              -1.5153090974377   5.1718522583623  -1.8110893836898
FRAGNAME=WATER
O1               0.5070764374559   9.9507117302425   3.1066313642390
H2               1.2117573507257   9.4978910290955   2.6715949552091
H3               0.6600775732852  10.8737517260892   2.9822678945312
FRAGNAME=WATER
O1               2.3178267445667   8.4979844509519   1.3858586687738
H2               3.1557954974879   8.6995100222037   1.0010544753213
H3               2.3507094468238   7.5919606156733   1.6483810332276
FRAGNAME=WATER
O1               3.9174856835625   9.6103137425756  -1.5986826152415
H2               3.1839426726716   9.0375668672669  -1.7560170427746
H3               3.5919713407307  10.4935011828108  -1.6686741298105
FRAGNAME=WATER
O1               5.1556288356857  -0.8629171190156   7.3824109824299
H2               5.1118479671171  -0.1104727945174   6.8142655536869
H3               6.0653800717630  -0.9837793374055   7.6029182765165
FRAGNAME=WATER
O1               6.8539889556113  -1.2735264721994   9.7983564275921
H2               7.7650641201547  -1.5201311379770   9.7957801024524
H3               6.5912368456113  -1.2153998046767  10.7030448122283
FRAGNAME=WATER
O1               9.2833841210887  -1.7619452746009   9.0896823798369
H2               9.8195779294460  -2.3388171966914   9.6098683460635
H3               9.8313477691082  -1.0358752613591   8.8378160851557
FRAGNAME=WATER
O1               8.1871184824137  -1.5233241591416   4.7176208385991
H2               7.3610405824547  -1.6203934854417   5.1637724979809
H3               7.9881037505197  -1.3836255095730   3.8056143266288
FRAGNAME=WATER
O1               5.9418632583273   3.9607333591876   7.5421911923189
H2               6.2791382629124   4.8337841440616   7.4200996186436
H3               5.4889799640613   3.9582130739857   8.3703027934855
FRAGNAME=WATER
O1               5.9197796345881   1.8342168592972  11.7501990033267
H2               6.2368300842124   0.9475505669378  11.8148546482643
H3               5.8272473603519   2.1543054664022  12.6332955528965
FRAGNAME=WATER
O1               9.4419331359569   1.8238884156404   9.6342154674580
H2              10.1874592963075   2.1495974907180   9.1556939979659
H3               8.7319278728308   1.7548616952951   9.0161488914878
FRAGNAME=WATER
O1               7.3691998814037   1.4302147977329   8.2435190719868
H2               6.7513669548420   1.0072008480040   8.8181669008852
H3               6.9690701980158   2.2373451474976   7.9618893700249
 $end

 $water
Lyuda's version of the MP2 efp1 potential (this is not built in)
 COORDINATES 
O1          .0000000000    .0000000000   -.1191510000  15.9949100  8.0
H2        -1.4310420000    .0000000000    .9455100000   1.0078250  1.0
H3         1.4310420000    .0000000000    .9455100000   1.0078250  1.0
BO21       -.7155210000    .0000000000    .4131795000    .0000000   .0
BO31        .7155210000    .0000000000    .4131795000    .0000000   .0
 STOP
 MONOPOLES
O1        -8.2241028229   8.00000
H2        -0.5771758979   1.00000
H3        -0.5771758979   1.00000
BO21      -0.3107726906   0.00000
BO31      -0.3107726906   0.00000
 STOP
 DIPOLES
O1          0.0000000000    0.0000000000    0.4392301553
H2         -0.0508518747    0.0000000000    0.0227633835
H3          0.0508518747    0.0000000000    0.0227633835
BO21        0.1463051139    0.0000000000   -0.1101698641
BO31       -0.1463051139    0.0000000000   -0.1101698641
 STOP
 QUADRUPOLES
O1         -3.6254547573   -4.6491298207   -4.1181758412    0.0000000000 >
    0.0000000000    0.0000000000
H2         -0.2958012504   -0.3063491460   -0.2943264837    0.0000000000 >
   -0.0074868095    0.0000000000
H3         -0.2958012504   -0.3063491460   -0.2943264837    0.0000000000 >
    0.0074868095    0.0000000000
BO21       -0.1092619080   -0.1427961760   -0.1200841147    0.0000000000 >
   -0.0122385770    0.0000000000
BO31       -0.1092619080   -0.1427961760   -0.1200841147    0.0000000000 >
    0.0122385770    0.0000000000
 STOP
 OCTUPOLES
O1          0.0000000000    0.0000000000    1.0599060132    0.0000000000 >
    0.3116603219    0.0000000000    0.3551256541    0.0000000000 >
    0.0000000000    0.0000000000
H2         -0.0492773435    0.0000000000    0.0145860831    0.0000000000 >
   -0.0010191345   -0.0204847504    0.0073213708   -0.0134392057 >
    0.0000000000    0.0000000000
H3          0.0492773435    0.0000000000    0.0145860831    0.0000000000 >
   -0.0010191345    0.0204847504    0.0073213708    0.0134392057 >
    0.0000000000    0.0000000000
BO21        0.4563509181    0.0000000000   -0.3208544080    0.0000000000 >
   -0.1050466119    0.1500412237   -0.1083701598    0.1526280503 >
    0.0000000000    0.0000000000
BO31       -0.4563509181    0.0000000000   -0.3208544080    0.0000000000 >
   -0.1050466119   -0.1500412237   -0.1083701598   -0.1526280503 >
    0.0000000000    0.0000000000
 STOP
 POLARIZABLE POINTS
CT1   0.0000000000   0.0000000000  -0.1186468947
    0.0035705377    0.0048488741    0.0036601026    0.0000000000 >
    0.0000000000    0.0000000000   -0.0000000000   -0.0000000000 >
   -0.0000000000
CT2   0.7621202324   0.0000000000   0.4875155408
    2.0911278148    0.7809837211    1.5395957291    0.0000000000 >
    1.3062279025   -0.0000000000   -0.0000000000    0.9487778336 >
    0.0090939039
CT3  -0.7621202324   0.0000000000   0.4875155408
    2.0911278148    0.7809837211    1.5395957291    0.0000000000 >
   -1.3062279025   -0.0000000000   -0.0000000000   -0.9487778336 >
    0.0090939039
CT4  -0.0000000000   0.4916564243  -0.4087493364
    1.3856777616    0.7321569196    1.053404316    -0.0000000000 >
    0.0000000000   -0.6381084387   -0.000000000     0.0000000000 >
   -0.0850908820
CT5  -0.0000000000  -0.4916564243  -0.4087493364
    1.3856777616    0.7321569196    1.053404316    -0.0000000000 >
    0.0000000000    0.6381084387   -0.000000000     0.0000000000 >
    0.0850908820
CT6  0.0   0.0   0.0000004281
    0.0157884  0.0215769   0.0292931  0.0>
    0.0        0.0         0.0        0.0>
    0.0
 STOP
 SCREEN
 O1         0.157679252   0.496569905
 H2         0.151273915   0.494753863
 H3         0.151273915   0.494753863
 BO21      -0.577448507   0.935390296
 BO31      -0.577448507   0.935390296
 STOP
 SCREEN2
 O1         1.000000000   1.924252167
 H2         1.000000000   2.444900698
 H3         1.000000000   2.444900698
 BO21       1.000000000   9.999987366
 BO31       1.000000000   9.999987366
 STOP
 REPULSIVE POTENTIAL
O1       0.0
H2       0.0
H3       0.0
 STOP
 DISPERSION
O1   0.0
H2   0.0
H3   0.0
 STOP
 $end
 $FRGDPS
 PAIR=WATER WATER
O1      O1        937.38164      2.26580       .02718    -6
O1      H2        -4.94307  -1982.22003      2.39798   -6
O1      H3      'EQ'    O1      H2
O1      center    -571.13359      3.77699       .02764   -6
H2      O1      'EQ'    O1      H2
H2      H2        -1.05695     -1.11636       .99000     -6
H2      H3      'EQ'    H2      H2
H2      center     1.29922 -16027.12691      2.49092     -6
H3      O1      'EQ'    O1      H2
H3      H2      'EQ'    H2      H2
H3      H3      'EQ'    H2      H2
H3      center   'EQ'    H2     center
center  O1      'EQ'    O1      center
center  H2      'EQ'    H2      center
center  H3      'EQ'    H2      center
center  center     -34.50400    -51.37096       .01000   -6
 STOP
 $END
 $FRGDP8
 PAIR=WATER WATER
O1      O1   -7525.46758           2.26580       .02718    -6
O1      H2     11.53163    -1982.22003      2.39798   -6
O1      H3      'EQ'    O1      H2
O1      center 3487.79336        3.77699       .02764   -6
H2      O1      'EQ'    O1      H2
H2      H2     -2.40539        -1.11636       .99000     -6
H2      H3      'EQ'    H2      H2
H2      center -3.83158   -16027.12691      2.49092     -6
H3      O1      'EQ'    O1      H2
H3      H2      'EQ'    H2      H2
H3      H3      'EQ'    H2      H2
H3      center  'EQ'    H2     center
center  O1      'EQ'    O1      center
center  H2      'EQ'    H2      center
center  H3      'EQ'    H2      center
center  center 174.33619      -51.37096       .01000   -6
 STOP
 $END
 $FRGRPL
 PAIR=WATER WATER
O1      O1            -9.529254      1.207306    0
O1      H2             6.655061      1.892604    0
O1      H3      'EQ'    O1      H2
O1      center         5.839395      1.275523    0
H2      O1      'EQ'    O1      H2
H2      H2              .035175       .693767    0
H2      H3      'EQ'    H2      H2
H2      center         -.201399      1.045961    0
H3      O1      'EQ'    O1      H2
H3      H2      'EQ'    H2      H2
H3      H3      'EQ'    H2      H2
H3      center   'EQ'    H2     center
center  O1      'EQ'    O1      center
center  H2      'EQ'    H2      center
center  H3      'EQ'    H2      center
center  center       87.476479       1.822619    0
 STOP
 $END

! TRAVIS-CI SMALL

! TRAVIS-CI SKIP
