!  efp irc of water pentamer (H20)5
!
!  Point  1 on reaction path: FINAL EFP ENERGY= -.0472384019, S=  0.24966
!  Point 43 on reaction path: FINAL EFP ENERGY= -.0501465142, S= 10.71197
!
!     this run ends the IRC gracefully, saying that it
!     has reached the minimum based on such a small gradient.
!     Because it is many steps, the path distance to point 43
!     will vary a little bit, eg in 3rd decimal place.
!
!  This run takes 0 seconds on 2.66 GHz Cloverton (20 Mar 2007)
!
 $contrl runtyp=irc coord=fragonly $end
 $system mwords=3 $end
 $statpt opttol=0.00001 hess=read $end
 $irc pace=gs2 opttol=0.00001 stride=0.25 npoint=100 saddle=.t. $end
 $efrag 
 coord=cart polmethd=frgscf position=optimize
 FRAGNAME=h2orhf
 ZO1                .3916076915  -1.4279610353    .2112990425
 ZH2               1.2517782014  -1.5789864487    .5693164617
 ZH3                .2179300551   -.5047403849    .3028313507
 FRAGNAME=h2orhf
 ZO1               2.6103512528    .0139492822   1.5820296372
 ZH2               2.7909481869    .1495050017   2.4984835905
 ZH3               2.0679044684    .7342057977   1.3029947072
 FRAGNAME=h2orhf
 ZO1                .6841386476   1.9053801992    .3542213915
 ZH2               -.2310747549   1.7765483310    .1627397171
 ZH3               1.0450056656   2.3984899259   -.3651507284
 FRAGNAME=h2orhf
 ZO1              -1.7729268109  -1.5534203503  -1.6274688033
 ZH2              -1.6013508578  -1.7779672962  -2.5280346340
 ZH3              -1.0460126940  -1.8817182023  -1.1227957993
 FRAGNAME=h2orhf
 ZO1              -1.9403281188   1.0602563764   -.4416658592
 ZH2              -1.9784324888    .2610377267   -.9423414638
 ZH3              -2.7135981964   1.0786390379    .0992536533
 $end
 $HESS
ENERGY IS        -.0472272128 E(NUC) IS         .0000000000
 1  1 1.24326613E-02 3.28091651E-03 9.36474176E-03 1.29552735E-03 4.03909637E-03
 1  2-1.84355343E-03-5.44258102E-03-3.56096940E-03-2.96305399E-03-1.74949961E-03
 1  3 3.00993532E-04 6.37603774E-04-1.23915889E-04 1.78854651E-03-1.34986326E-04
 1  4 1.61344404E-04-8.88963348E-04-1.96156439E-03-6.65009031E-03-2.83555082E-04
 1  5-5.86396890E-03 8.83213888E-04-2.89546148E-04-1.92938465E-03-2.16079553E-04
 1  6-1.22493843E-03-4.02727263E-04 1.47575922E-03 6.18105165E-04-1.99251947E-03
 2  1 3.28091651E-03 9.45875697E-03 3.61582037E-03 4.80452630E-03 4.12065866E-03
 2  2-3.71370411E-03-3.49816832E-03-2.46165864E-03-1.74060179E-03-2.83440088E-03
 2  3 2.46984507E-04 2.37847392E-03 1.83116728E-03-3.31236593E-03 1.80904589E-04
 2  4-2.31880529E-04 3.70839515E-04 5.77440521E-03-6.51715263E-04-3.21243210E-03
 2  5-1.64700791E-03 7.22684896E-03 1.76335721E-03-9.09669251E-03-9.62198202E-04
 2  6-4.72306187E-04-4.09116417E-04 1.10973405E-03 3.84256053E-04-1.34843734E-03
 3  1 9.36474176E-03 3.61582037E-03 9.58083157E-03 4.10645451E-03-2.12527223E-03
 3  2-5.46834090E-03-3.05596159E-03-1.77627482E-03-2.03703612E-03 2.30145960E-03
 3  3 1.00726582E-03 1.37926747E-03-1.78960039E-04 9.86921992E-05-5.34754008E-04
 3  4 1.13911361E-03 2.42705448E-03-8.27730427E-04-5.96168459E-03-1.23736366E-03
 3  5-5.97194306E-03 3.77823776E-03 4.14921306E-03-2.38083784E-03-1.68133877E-04
 3  6-7.00875814E-04-1.03710064E-03 7.23674983E-04 1.56502420E-03-1.71386965E-03
 4  1 1.29552735E-03 4.80452630E-03 4.10645451E-03 2.07559747E-02-2.76225757E-03
 4  2-8.44494245E-03-1.22501209E-03-7.58264966E-04-4.68185292E-04 4.48760860E-03
 4  3 2.06942926E-03 3.10465963E-03-3.75810436E-05 8.21676984E-04-1.62223901E-03
 4  4 3.33016669E-03 7.26571771E-03-1.75472107E-03 7.86541187E-04-4.37884486E-03
 4  5 1.39292258E-04 6.46906768E-03-1.56352974E-03-1.24526319E-02-8.19481503E-04
 4  6-4.89098262E-04-2.15531939E-03 5.74067335E-04 6.62723515E-03-5.34701389E-03
 5  1 4.03909637E-03 4.12065866E-03-2.12527223E-03-2.76225757E-03 2.01678406E-02
 5  2-4.32605395E-03-2.64728925E-03-1.95289947E-03 2.90270785E-03-6.83641136E-03
 5  3-1.98908977E-04-6.92338410E-04-1.17428858E-04 7.01258181E-04 4.65935933E-04
 5  4-4.55149206E-04 3.19694588E-05-1.12541067E-03-7.85907983E-04-2.55917221E-03
 5  5-7.25015997E-04 4.82386049E-03-2.31498788E-04-6.23301110E-03-4.88477596E-04
 5  6-3.09847268E-04-5.18351663E-04 9.66784815E-04 1.09071263E-03-1.66426942E-03
 6  1-1.84355343E-03-3.71370411E-03-5.46834090E-03-8.44494245E-03-4.32605395E-03
 6  2 1.80427930E-02 3.40151222E-03 9.83557191E-04 3.26336383E-03-1.04519491E-03
 6  3 3.46335190E-04-7.29707133E-04-1.80932734E-03-4.39105042E-03-6.30177601E-04
 6  4 9.40494503E-04 2.06062993E-03 5.94022242E-05-1.41763234E-03 4.52534682E-03
 6  5 1.79714231E-03-1.11433497E-02-7.31889570E-03 1.00092988E-02 1.66901111E-03
 6  6 2.59585506E-03 1.03801480E-03-6.75018264E-03-1.32655636E-03 6.80196719E-03
 7  1-5.44258102E-03-3.49816832E-03-3.05596159E-03-1.22501209E-03-2.64728925E-03
 7  2 3.40151222E-03 9.08975860E-03 4.89954298E-04 3.96521606E-03 2.38312113E-04
 7  3-2.53861061E-03-4.78809968E-03-4.27838006E-03 2.65161927E-03-1.32232795E-03
 7  4-9.53493460E-04-2.48637463E-03-9.21311385E-04 1.97114398E-04 2.32942831E-04
 7  5 2.70386482E-04-3.89647348E-04-1.95993831E-04 3.76806602E-04 4.34093302E-04
 7  6 1.23652539E-04 1.42678551E-04-1.57095855E-04-1.82050391E-04 3.03247900E-04
 8  1-3.56096940E-03-2.46165864E-03-1.77627482E-03-7.58264966E-04-1.95289947E-03
 8  2 9.83557191E-04 4.89954298E-04 8.49215327E-03-1.52778335E-03 4.23686422E-03
 8  3-2.04122506E-03-9.79086679E-03 3.30405365E-03-5.87045247E-03 3.34520274E-03
 8  4 1.70190867E-03-2.57402429E-03-3.15461067E-03 7.10568894E-06-2.00181291E-05
 8  5 4.43884722E-06-4.55539615E-05-1.90342835E-05 3.95260136E-05-2.40145738E-04
 8  6-1.40028562E-04-4.55824693E-05-3.15107596E-06-2.57780968E-05-7.31274737E-05
 9  1-2.96305399E-03-1.74060179E-03-2.03703612E-03-4.68185292E-04 2.90270785E-03
 9  2 3.26336383E-03 3.96521606E-03-1.52778335E-03 4.82948347E-03 1.73398102E-03
 9  3 3.19258408E-03 1.74766102E-03-1.54947431E-03 3.02134316E-03-3.01619914E-03
 9  4 1.16403801E-04 2.32965984E-03 3.66599333E-03 1.41210690E-04 1.47585676E-04
 9  5 1.44019557E-04-1.85534175E-04-4.06243597E-05 1.88161803E-04 4.06097960E-04
 9  6 9.94578016E-05 7.97373126E-05-9.62754364E-05-2.24241406E-05 8.65986403E-05
10  1-1.74949961E-03-2.83440088E-03 2.30145960E-03 4.48760860E-03-6.83641136E-03
10  2-1.04519491E-03 2.38312113E-04 4.23686422E-03 1.73398102E-03 2.34170077E-02
10  3 7.96980619E-03-8.08070448E-03 1.12017340E-03-1.26342785E-03-3.87408017E-03
10  4 2.75186601E-03 3.66318575E-03 3.85481222E-03-1.70963369E-04-1.55140663E-04
10  5-1.75568601E-04 2.42325087E-04-2.37483840E-05-1.11995558E-03 5.61978158E-04
10  6 1.61073237E-05 1.42094728E-05-1.01846204E-04 6.65849871E-04-6.54719415E-04
11  1 3.00993532E-04 2.46984507E-04 1.00726582E-03 2.06942926E-03-1.98908977E-04
11  2 3.46335190E-04-2.53861061E-03-2.04122506E-03 3.19258408E-03 7.96980619E-03
11  3 1.26996769E-02 8.52142839E-03 2.02801874E-03 1.83938671E-03-4.14268632E-03
11  4 2.13808608E-03 5.30939450E-03 6.19809756E-03-2.61309767E-05-5.53118915E-05
11  5-5.06757491E-05 1.18514814E-04 1.33590313E-04-4.65749073E-04 2.35726308E-04
11  6 1.01679159E-05-6.48254585E-06-8.07902022E-06 1.55037552E-04-3.95883102E-04
12  1 6.37603774E-04 2.37847392E-03 1.37926747E-03 3.10465963E-03-6.92338410E-04
12  2-7.29707133E-04-4.78809968E-03-9.79086679E-03 1.74766102E-03-8.08070448E-03
12  3 8.52142839E-03 3.88815130E-02 3.95762542E-03 6.85099897E-03-3.41537760E-03
12  4-1.82109099E-03 1.03257370E-02 9.93328956E-03 3.46729662E-04 2.73581481E-04
12  5 4.70517933E-04-1.03403728E-03-7.12504772E-04 1.17645908E-03-1.53862952E-04
12  6 2.87815529E-04-1.82064452E-04-6.10402455E-04 2.05485792E-04 1.08207319E-03
13  1-1.23915889E-04 1.83116728E-03-1.78960039E-04-3.75810436E-05-1.17428858E-04
13  2-1.80932734E-03-4.27838006E-03 3.30405365E-03-1.54947431E-03 1.12017340E-03
13  3 2.02801874E-03 3.95762542E-03 1.67366357E-02-2.99158944E-03 4.06679450E-03
13  4 5.40512107E-04-1.93699588E-04 7.41786097E-03-5.75115942E-06 6.73686248E-04
13  5 3.76992783E-04-1.07543641E-04 1.83744667E-05 2.18936564E-04-1.23285944E-02
13  6-2.81731592E-03-2.71534976E-03-8.13995927E-04-2.19586973E-03 4.93179380E-03
14  1 1.78854651E-03-3.31236593E-03 9.86921992E-05 8.21676984E-04 7.01258181E-04
14  2-4.39105042E-03 2.65161927E-03-5.87045247E-03 3.02134316E-03-1.26342785E-03
14  3 1.83938671E-03 6.85099897E-03-2.99158944E-03 1.13553166E-02-1.83534967E-03
14  4 3.40394721E-04 4.37037536E-03-9.84509631E-03 2.85202006E-04 4.24681312E-04
14  5 3.87442005E-04-1.01257032E-04 3.93417780E-05-1.49939593E-04-1.73377795E-03
14  6-2.59716997E-03-1.67212766E-03-9.26221545E-04 2.92464662E-03-2.85793002E-03
15  1-1.34986326E-04 1.80904589E-04-5.34754008E-04-1.62223901E-03 4.65935933E-04
15  2-6.30177601E-04-1.32232795E-03 3.34520274E-03-3.01619914E-03-3.87408017E-03
15  3-4.14268632E-03-3.41537760E-03 4.06679450E-03-1.83534967E-03 6.52429454E-03
15  4-1.35708697E-03 2.92977596E-03-4.86682786E-03 3.01393461E-05 1.89872448E-04
15  5 4.87114111E-05-1.76717631E-04-3.81146405E-05 1.77024800E-04-2.63961740E-03
15  6-1.88063198E-03-3.02205533E-03-1.58231355E-03 4.49376951E-03-2.12092487E-03
16  1 1.61344404E-04-2.31880529E-04 1.13911361E-03 3.33016669E-03-4.55149206E-04
16  2 9.40494503E-04-9.53493460E-04 1.70190867E-03 1.16403801E-04 2.75186601E-03
16  3 2.13808608E-03-1.82109099E-03 5.40512107E-04 3.40394721E-04-1.35708697E-03
16  4 8.80991634E-03-2.02841898E-04-8.86684490E-03 8.59959331E-05-1.93772358E-04
16  5-1.03768832E-04 1.91036568E-04 2.03001708E-04-1.25287503E-03 1.65641533E-04
16  6-1.61665114E-03 2.05339137E-04-6.41777545E-04 6.43186150E-04-2.76327950E-03
17  1-8.88963348E-04 3.70839515E-04 2.42705448E-03 7.26571771E-03 3.19694588E-05
17  2 2.06062993E-03-2.48637463E-03-2.57402429E-03 2.32965984E-03 3.66318575E-03
17  3 5.30939450E-03 1.03257370E-02-1.93699588E-04 4.37037536E-03 2.92977596E-03
17  4-2.02841898E-04 3.88435927E-02 3.00730493E-03 1.52618753E-04-6.10455414E-05
17  5-5.25283371E-05-3.48211178E-04-4.44942775E-04-6.58006280E-04 3.41642186E-03
17  6-2.10614392E-03-7.63395607E-03-3.71255038E-03 1.34872740E-02-8.49838952E-03
18  1-1.96156439E-03 5.77440521E-03-8.27730427E-04-1.75472107E-03-1.12541067E-03
18  2 5.94022242E-05-9.21311385E-04-3.15461067E-03 3.66599333E-03 3.85481222E-03
18  3 6.19809756E-03 9.93328956E-03 7.41786097E-03-9.84509631E-03-4.86682786E-03
18  4-8.86684490E-03 3.00730493E-03 5.14570269E-02-2.07408504E-04-8.41639127E-05
18  5-6.26416847E-05-1.34270259E-03-8.26840887E-04 1.76271413E-03-4.32758220E-03
18  6 7.30945708E-03 2.09120931E-03 5.07541745E-04-8.42989380E-03 1.11666838E-02
19  1-6.65009031E-03-6.51715263E-04-5.96168459E-03 7.86541187E-04-7.85907983E-04
19  2-1.41763234E-03 1.97114398E-04 7.10568894E-06 1.41210690E-04-1.70963369E-04
19  3-2.61309767E-05 3.46729662E-04-5.75115942E-06 2.85202006E-04 3.01393461E-05
19  4 8.59959331E-05 1.52618753E-04-2.07408504E-04 8.76384276E-03-1.75693440E-03
19  5 6.05367003E-03 2.78678664E-03 1.68689716E-03-2.97218980E-03-2.30511792E-03
19  6 2.11634719E-03-2.63338848E-04 3.02853785E-03 3.91867109E-03-6.64672227E-03
20  1-2.83555082E-04-3.21243210E-03-1.23736366E-03-4.37884486E-03-2.55917221E-03
20  2 4.52534682E-03 2.32942831E-04-2.00181291E-05 1.47585676E-04-1.55140663E-04
20  3-5.53118915E-05 2.73581481E-04 6.73686248E-04 4.24681312E-04 1.89872448E-04
20  4-1.93772358E-04-6.10455414E-05-8.41639127E-05-1.75693440E-03 1.38685983E-02
20  5 3.57992678E-03-1.19584522E-02-3.06052504E-03 8.60091217E-03 1.13387039E-03
20  6-1.10608287E-02-2.68002650E-03-6.69592117E-03-1.41635565E-03 3.16890953E-03
21  1-5.86396890E-03-1.64700791E-03-5.97194306E-03 1.39292258E-04-7.25015997E-04
21  2 1.79714231E-03 2.70386482E-04 4.43884722E-06 1.44019557E-04-1.75568601E-04
21  3-5.06757491E-05 4.70517933E-04 3.76992783E-04 3.87442005E-04 4.87114111E-05
21  4-1.03768832E-04-5.25283371E-05-6.26416847E-05 6.05367003E-03 3.57992678E-03
21  5 9.60006441E-03 2.12861630E-03-1.02422541E-03 2.82847445E-04-8.37075976E-04
21  6-2.32479923E-03-3.82084531E-03 8.54173459E-03 6.04563720E-04-1.70337917E-03
22  1 8.83213888E-04 7.22684896E-03 3.77823776E-03 6.46906768E-03 4.82386049E-03
22  2-1.11433497E-02-3.89647348E-04-4.55539615E-05-1.85534175E-04 2.42325087E-04
22  3 1.18514814E-04-1.03403728E-03-1.07543641E-04-1.01257032E-04-1.76717631E-04
22  4 1.91036568E-04-3.48211178E-04-1.34270259E-03 2.78678664E-03-1.19584522E-02
22  5 2.12861630E-03 3.68206967E-02 1.48935671E-02-2.19669652E-02-3.17281101E-03
22  6 4.87840876E-03-5.54459664E-03 2.01092957E-02 3.24343107E-03-7.84535637E-03
23  1-2.89546148E-04 1.76335721E-03 4.14921306E-03-1.56352974E-03-2.31498788E-04
23  2-7.31889570E-03-1.95993831E-04-1.90342835E-05-4.06243597E-05-2.37483840E-05
23  3 1.33590313E-04-7.12504772E-04 1.83744667E-05 3.93417780E-05-3.81146405E-05
23  4 2.03001708E-04-4.44942775E-04-8.26840887E-04 1.68689716E-03-3.06052504E-03
23  5-1.02422541E-03 1.48935671E-02 2.37308013E-02-5.53439747E-04-1.21973029E-03
23  6 1.27685897E-03-3.04625085E-03 9.50845945E-03-3.33504290E-04-3.74061280E-03
24  1-1.92938465E-03-9.09669251E-03-2.38083784E-03-1.24526319E-02-6.23301110E-03
24  2 1.00092988E-02 3.76806602E-04 3.95260136E-05 1.88161803E-04-1.11995558E-03
24  3-4.65749073E-04 1.17645908E-03 2.18936564E-04-1.49939593E-04 1.77024800E-04
24  4-1.25287503E-03-6.58006280E-04 1.76271413E-03-2.97218980E-03 8.60091217E-03
24  5 2.82847445E-04-2.19669652E-02-5.53439747E-04 3.76007337E-02 4.30583843E-03
24  6 6.06201751E-04 1.73279966E-03-3.93089067E-03-6.41212412E-03 1.01665096E-02
25  1-2.16079553E-04-9.62198202E-04-1.68133877E-04-8.19481503E-04-4.88477596E-04
25  2 1.66901111E-03 4.34093302E-04-2.40145738E-04 4.06097960E-04 5.61978158E-04
25  3 2.35726308E-04-1.53862952E-04-1.23285944E-02-1.73377795E-03-2.63961740E-03
25  4 1.65641533E-04 3.41642186E-03-4.32758220E-03-2.30511792E-03 1.13387039E-03
25  5-8.37075976E-04-3.17281101E-03-1.21973029E-03 4.30583843E-03 1.44157069E-02
25  6 1.80224375E-03 3.23872665E-03-3.53320542E-03-2.15885498E-03 3.40419718E-03
26  1-1.22493843E-03-4.72306187E-04-7.00875814E-04-4.89098262E-04-3.09847268E-04
26  2 2.59585506E-03 1.23652539E-04-1.40028562E-04 9.94578016E-05 1.61073237E-05
26  3 1.01679159E-05 2.87815529E-04-2.81731592E-03-2.59716997E-03-1.88063198E-03
26  4-1.61665114E-03-2.10614392E-03 7.30945708E-03 2.11634719E-03-1.10608287E-02
26  5-2.32479923E-03 4.87840876E-03 1.27685897E-03 6.06201751E-04 1.80224375E-03
26  6 1.42703336E-02 4.80685467E-03 6.51556295E-03-1.86676592E-03 1.11057887E-03
27  1-4.02727263E-04-4.09116417E-04-1.03710064E-03-2.15531939E-03-5.18351663E-04
27  2 1.03801480E-03 1.42678551E-04-4.55824693E-05 7.97373126E-05 1.42094728E-05
27  3-6.48254585E-06-1.82064452E-04-2.71534976E-03-1.67212766E-03-3.02205533E-03
27  4 2.05339137E-04-7.63395607E-03 2.09120931E-03-2.63338848E-04-2.68002650E-03
27  5-3.82084531E-03-5.54459664E-03-3.04625085E-03 1.73279966E-03 3.23872665E-03
27  6 4.80685467E-03 7.80025667E-03-7.58680731E-03-6.64093252E-03 5.45157175E-03
28  1 1.47575922E-03 1.10973405E-03 7.23674983E-04 5.74067335E-04 9.66784815E-04
28  2-6.75018264E-03-1.57095855E-04-3.15107596E-06-9.62754364E-05-1.01846204E-04
28  3-8.07902022E-06-6.10402455E-04-8.13995927E-04-9.26221545E-04-1.58231355E-03
28  4-6.41777545E-04-3.71255038E-03 5.07541745E-04 3.02853785E-03-6.69592117E-03
28  5 8.54173459E-03 2.01092957E-02 9.50845945E-03-3.93089067E-03-3.53320542E-03
28  6 6.51556295E-03-7.58680731E-03 4.32858990E-02-1.13373767E-03-9.00339230E-03
29  1 6.18105165E-04 3.84256053E-04 1.56502420E-03 6.62723515E-03 1.09071263E-03
29  2-1.32655636E-03-1.82050391E-04-2.57780968E-05-2.24241406E-05 6.65849871E-04
29  3 1.55037552E-04 2.05485792E-04-2.19586973E-03 2.92464662E-03 4.49376951E-03
29  4 6.43186150E-04 1.34872740E-02-8.42989380E-03 3.91867109E-03-1.41635565E-03
29  5 6.04563720E-04 3.24343107E-03-3.33504290E-04-6.41212412E-03-2.15885498E-03
29  6-1.86676592E-03-6.64093252E-03-1.13373767E-03 2.72210904E-02-2.49553545E-02
30  1-1.99251947E-03-1.34843734E-03-1.71386965E-03-5.34701389E-03-1.66426942E-03
30  2 6.80196719E-03 3.03247900E-04-7.31274737E-05 8.65986403E-05-6.54719415E-04
30  3-3.95883102E-04 1.08207319E-03 4.93179380E-03-2.85793002E-03-2.12092487E-03
30  4-2.76327950E-03-8.49838952E-03 1.11666838E-02-6.64672227E-03 3.16890953E-03
30  5-1.70337917E-03-7.84535637E-03-3.74061280E-03 1.01665096E-02 3.40419718E-03
30  6 1.11057887E-03 5.45157175E-03-9.00339230E-03-2.49553545E-02 3.98814937E-02
 $END

! TRAVIS-CI SMALL

