!   This test came from Christine
!   glycine by 6-31++G(d,p), embedded in 30 EFP1 waters
!
!       FINAL E= -283.2769765249, RMS grad=0.001398027
!
!   This run takes 68 seconds on 2.66 GHz Cloverton (26 Oct 2015)
!   results haven't changed since at least 2008
!
 $contrl scftyp=rhf runtyp=gradient $end
 $system mwords=7 $end
 $basis  gbasis=n31 ngauss=6 npfunc=1 ndfunc=1 diffsp=.t. diffs=.t. $end
 $scf    dirscf=.true. $end
 $data
ab initio glycine with efp water
C1
C           6.0    .8888104467   1.1455874144    .8626499938
O           8.0   1.6934066956   1.7133491773   1.7211089321
H           1.0   1.7826390480   1.1958279059   2.5322257651
O           8.0    .3233527289    .1083126803   1.0853563601
C           6.0    .6979042395   1.9705524167   -.3898102601
H           1.0    .3463726263   2.9426276877   -.0581209531
H           1.0   1.6670641285   2.1235616024   -.8458483603
N           7.0   -.2246430136   1.4135517188  -1.3486763259
H           1.0    .1814265041    .6334248202  -1.8239154552
H           1.0  -1.0679634881   1.1068590034   -.8971057238
 $end
 $efrag
coord=cart
FRAGNAME=H2ORHF
ZO1              -1.6213012626  -5.3727239056   2.1160907497
ZH2               -.7877111288  -5.5281120737   1.7015301870
ZH3              -2.1716843076  -4.9575595452   1.4714237724
FRAGNAME=H2ORHF
ZO1               1.8096875691  -3.7880132843   5.8361512680
ZH2               1.7727963795  -3.7496134430   6.7785115741
ZH3               2.4626152025  -3.1628866429   5.5645253456
FRAGNAME=H2ORHF
ZO1               5.2683954185   2.3592126763  -2.8380236508
ZH2               5.6955958255   2.7709039328  -3.5721139556
ZH3               4.3415455535   2.3839997838  -3.0146967421
FRAGNAME=H2ORHF
ZO1               5.7481592504   -.2256131892  -1.6371651431
ZH2               5.7436265569    .5575987263  -2.1638880343
ZH3               6.4816792264   -.1519110134  -1.0477629984
FRAGNAME=H2ORHF
ZO1               1.3845917709    .1042933528  -4.9773937423
ZH2               1.9381190281   -.0923890767  -5.7161779135
ZH3                .4947824633    .0813761328  -5.2913884098
FRAGNAME=H2ORHF
ZO1               2.5114476378   2.3718861425  -3.4389524078
ZH2               2.0185087666   3.1623496629  -3.5907982053
ZH3               2.0862663070   1.6881865839  -3.9315518431
FRAGNAME=H2ORHF
ZO1               1.6721292214  -1.5117594200  -2.6056483033
ZH2               1.5710256303  -1.0706839643  -3.4339652476
ZH3               2.4236963182  -2.0766221279  -2.6890477902
FRAGNAME=H2ORHF
ZO1              -4.1625445176   3.5153583396    .1130152445
ZH2              -4.8821832397   3.2797246302   -.4504342375
ZH3              -3.7054934015   4.2232218537   -.3123222413
FRAGNAME=H2ORHF
ZO1               6.3518983269   -.0189003648   2.6993018784
ZH2               5.9335543366   -.8616248372   2.6239213542
ZH3               5.6756813545    .6304199673   2.5897931268
FRAGNAME=H2ORHF
ZO1              -3.1085862267   1.2811197996  -4.5141373079
ZH2              -3.5671005199    .8578902224  -3.8059566657
ZH3              -2.6725423468   2.0322008812  -4.1445139891
FRAGNAME=H2ORHF
ZO1               3.6132078682  -1.8136832554   4.7861771974
ZH2               4.1026219789  -2.1806805994   4.0673829071
ZH3               3.0787208854  -1.1239657375   4.4263274166
FRAGNAME=H2ORHF
ZO1               -.5744205092   -.6691734270   3.7493521904
ZH2               -.2246060625   -.5415220389   2.8820498036
ZH3               -.5404351033  -1.5965276974   3.9217978438
FRAGNAME=H2ORHF
ZO1               4.2178948834  -2.7434230017  -2.3324324891
ZH2               4.8442049967  -2.0403921228  -2.2663894785
ZH3               4.1484973751  -3.1265801473  -1.4726342327
FRAGNAME=H2ORHF
ZO1              -4.3248367220    .0783092477  -2.1368455201
ZH2              -4.5732848961   -.8316320544  -2.1028045800
ZH3              -3.7832163732    .2400979068  -1.3809683597
FRAGNAME=H2ORHF
ZO1               1.9975578898    .5166595656   4.0998184316
ZH2               2.4442374084   1.1568455422   4.6304009202
ZH3               1.1553836516    .3720551003   4.5007056415
FRAGNAME=H2ORHF
ZO1               5.2580192779  -2.6961867770   2.6008021678
ZH2               4.7366981296  -2.9084513140   1.8431436162
ZH3               5.8563803347  -3.4149093593   2.7283966408
FRAGNAME=H2ORHF
ZO1               3.1293690529   -.2939971015   -.4077340113
ZH2               4.0115191306   -.1414574875   -.7067680574
ZH3               2.6228361862   -.5327563209  -1.1675346063
FRAGNAME=H2ORHF
ZO1               4.6703536611   2.2274817062   2.1138183781
ZH2               5.1919679435   2.6761988005   1.4677146993
ZH3               3.8214928023   2.0856043587   1.7262819093
FRAGNAME=H2ORHF
ZO1               -.1857053814  -3.5067487555   3.8329150286
ZH2               -.8256119089  -4.1780025551   3.6573689471
ZH3                .3276982360  -3.8064502638   4.5660413381
FRAGNAME=H2ORHF
ZO1               3.5308828565  -2.9634724141    .5364149027
ZH2               2.7531868118  -3.4427447011    .7738288681
ZH3               3.2639596420  -2.0707802041    .3856466370
FRAGNAME=H2ORHF
ZO1              -2.8796639189  -3.3894767431    .1816917235
ZH2              -2.0879439081  -2.9605279767   -.1012585096
ZH3              -3.1931370062  -2.9121121069    .9331809660
FRAGNAME=H2ORHF
ZO1              -3.1597486897    .1155763624   2.7974258011
ZH2              -2.3744928137    .0005765651   3.3083335324
ZH3              -3.6013183913   -.7185637655   2.7871837494
FRAGNAME=H2ORHF
ZO1               -.3273319701  -2.1751103185   -.5289515824
ZH2                .1621392954  -2.1270338844  -1.3345476293
ZH3               -.1852147174  -1.3592777601   -.0760736991
FRAGNAME=H2ORHF
ZO1               1.0136073303  -3.9718688665   1.2343084983
ZH2                .7633950194  -3.7177272119   2.1081988078
ZH3                .4765521741  -3.4705517260    .6417451363
FRAGNAME=H2ORHF
ZO1               -.0968178952   6.3848779857  -1.6704385073
ZH2               -.9997918245   6.1343618085  -1.5574863844
ZH3                .2323829489   6.6065086067   -.8140594288
FRAGNAME=H2ORHF
ZO1              -2.7389494526   5.2106771173  -1.8271279860
ZH2              -2.4035157658   4.4878507964  -2.3329785623
ZH3              -3.3665928006   5.6560533037  -2.3735548653
FRAGNAME=H2ORHF
ZO1                .9472103268   4.8428057465  -3.8276062250
ZH2               1.1064450897   5.4232712446  -4.5546430534
ZH3                .7642008343   5.3886843582  -3.0796740617
FRAGNAME=H2ORHF
ZO1              -2.8409965958   1.0249329021    .0900143239
ZH2              -3.2277345287   1.8831324308    .1593381604
ZH3              -2.8570379781    .6494071033    .9558096244
FRAGNAME=H2ORHF
ZO1              -1.3948098003   3.2211214106  -3.2024613601
ZH2               -.9815504411   2.6241187275  -2.5994000427
ZH3               -.7011207081   3.6532451149  -3.6746297639
FRAGNAME=H2ORHF
ZO1               3.8822943566   2.2467766383   5.0162476314
ZH2               4.5460177769   1.7303147864   5.4447529766
ZH3               4.2474187661   2.5285245822   4.1927303482
 $end

! TRAVIS-CI SMALL

! TRAVIS-CI SKIP
