!   geometry optimization of water hexamer, using Jie's MP2 potential.
!
!   This file uses Lyuda's reworking of Jie's potential.
!   Note in particular using frag type=mp2new to execute different
!   code, this is not just a change in the input parameters!
!
!   at the initial geometry, the results break down as
!                CHARGE-CHARGE         =   -.0636061099
!                CHARGE-DIPOLE         =   -.0284594510
!                CHARGE-QUADRUPOLE     =   -.0177054269
!                CHARGE-OCTUPOLE       =    .0000102186
!                DIPOLE-DIPOLE         =   -.0051773289
!                DIPOLE-QUADRUPOLE     =   -.0034146400
!                QUADRUPOLE-QUADRUPOLE =   -.0037437712
!                                        --------------
!                ELECTROSTATIC ENERGY  =   -.1220965092
!                REPULSION ENERGY      =    .0849359042
!                POLARIZATION ENERGY   =   -.0258512838
!                C6 DISPERSION ENERGY  =   -.0224307993
!                C8 DISPERSION ENERGY  =    .0014461172
!                --------------------------------------
!                FINAL EFP ENERGY      =   -.0839965709
!
!    This run takes 0 seconds on 2.66 GHz Cloverton (26 Oct 2015)
!    results haven't changed since Aug 2007
!
 $CONTRL RUNTYP=optimize coord=fragonly $end  
 $SYSTEM MWORDS=1 $END
 $statpt opttol=1.0e-5 nstep=50 $end

!    note that keyword FRAG TYP is Lyuda's value MP2NEW,
!    not Jie's value MP2 which is now an illegal input.

!    Note also that this run reads its potential, not internally stored.
 $efrag
fragtyp=mp2new polmethd=frgscf
FRAGNAME=water
O1      -2.3168679936  -0.1586812707   1.1669083430
H2      -2.2188574447  -0.2258647320   0.1891602784
H3      -3.1982499385  -0.4928407182   1.3611863771
FRAGNAME=water
O1       2.1208448491  -0.7127152987   1.2352344284
H2       2.2562721876  -1.6579160997   1.1110443726
H3       1.3139602470  -0.6439278923   1.7977095974
FRAGNAME=water
O1      -0.1405308816  -0.5692481536   2.7254828246
H2      -0.9492131484  -0.4541006101   2.1755273660
H3      -0.1627347801   0.1578520701   3.3569637517
FRAGNAME=water
O1       2.1736466610   0.9730430207  -0.8945076123
H2       3.0861776534   0.9713812239  -1.2003352977
H3       2.1525684692   0.3627881451  -0.1218438147
FRAGNAME=water
O1      -2.0625019133  -0.3417110146  -1.5287472152
H2      -1.9960275502  -1.2034766389  -1.9530942997
H3      -1.3204608191   0.1853275280  -1.9081274131
FRAGNAME=water
O1       0.0321949391   1.0384085460  -2.5520969399
H2      -0.1267983055   1.9777364701  -2.6945341505
H3       0.8310397673   0.9988787267  -1.9775459828
 $end
!
!   Jie's data is stored, for the record, at the end of this file
!
 $water
Lyuda's version of the MP2 efp1 potential (this is not built in)
 COORDINATES 
O1          .0000000000    .0000000000   -.1191510000  15.9949100  8.0
H2        -1.4310420000    .0000000000    .9455100000   1.0078250  1.0
H3         1.4310420000    .0000000000    .9455100000   1.0078250  1.0
BO21       -.7155210000    .0000000000    .4131795000    .0000000   .0
BO31        .7155210000    .0000000000    .4131795000    .0000000   .0
 STOP
 MONOPOLES
O1        -8.2241028229   8.00000
H2        -0.5771758979   1.00000
H3        -0.5771758979   1.00000
BO21      -0.3107726906   0.00000
BO31      -0.3107726906   0.00000
 STOP
 DIPOLES
O1          0.0000000000    0.0000000000    0.4392301553
H2         -0.0508518747    0.0000000000    0.0227633835
H3          0.0508518747    0.0000000000    0.0227633835
BO21        0.1463051139    0.0000000000   -0.1101698641
BO31       -0.1463051139    0.0000000000   -0.1101698641
 STOP
 QUADRUPOLES
O1         -3.6254547573   -4.6491298207   -4.1181758412    0.0000000000 >
    0.0000000000    0.0000000000
H2         -0.2958012504   -0.3063491460   -0.2943264837    0.0000000000 >
   -0.0074868095    0.0000000000
H3         -0.2958012504   -0.3063491460   -0.2943264837    0.0000000000 >
    0.0074868095    0.0000000000
BO21       -0.1092619080   -0.1427961760   -0.1200841147    0.0000000000 >
   -0.0122385770    0.0000000000
BO31       -0.1092619080   -0.1427961760   -0.1200841147    0.0000000000 >
    0.0122385770    0.0000000000
 STOP
 OCTUPOLES
O1          0.0000000000    0.0000000000    1.0599060132    0.0000000000 >
    0.3116603219    0.0000000000    0.3551256541    0.0000000000 >
    0.0000000000    0.0000000000
H2         -0.0492773435    0.0000000000    0.0145860831    0.0000000000 >
   -0.0010191345   -0.0204847504    0.0073213708   -0.0134392057 >
    0.0000000000    0.0000000000
H3          0.0492773435    0.0000000000    0.0145860831    0.0000000000 >
   -0.0010191345    0.0204847504    0.0073213708    0.0134392057 >
    0.0000000000    0.0000000000
BO21        0.4563509181    0.0000000000   -0.3208544080    0.0000000000 >
   -0.1050466119    0.1500412237   -0.1083701598    0.1526280503 >
    0.0000000000    0.0000000000
BO31       -0.4563509181    0.0000000000   -0.3208544080    0.0000000000 >
   -0.1050466119   -0.1500412237   -0.1083701598   -0.1526280503 >
    0.0000000000    0.0000000000
 STOP
 POLARIZABLE POINTS
CT1   0.0000000000   0.0000000000  -0.1186468947
    0.0035705377    0.0048488741    0.0036601026    0.0000000000 >
    0.0000000000    0.0000000000   -0.0000000000   -0.0000000000 >
   -0.0000000000
CT2   0.7621202324   0.0000000000   0.4875155408
    2.0911278148    0.7809837211    1.5395957291    0.0000000000 >
    1.3062279025   -0.0000000000   -0.0000000000    0.9487778336 >
    0.0090939039
CT3  -0.7621202324   0.0000000000   0.4875155408
    2.0911278148    0.7809837211    1.5395957291    0.0000000000 >
   -1.3062279025   -0.0000000000   -0.0000000000   -0.9487778336 >
    0.0090939039
CT4  -0.0000000000   0.4916564243  -0.4087493364
    1.3856777616    0.7321569196    1.053404316    -0.0000000000 >
    0.0000000000   -0.6381084387   -0.000000000     0.0000000000 >
   -0.0850908820
CT5  -0.0000000000  -0.4916564243  -0.4087493364
    1.3856777616    0.7321569196    1.053404316    -0.0000000000 >
    0.0000000000    0.6381084387   -0.000000000     0.0000000000 >
    0.0850908820
CT6  0.0   0.0   0.0000004281
    0.0157884  0.0215769   0.0292931  0.0>
    0.0        0.0         0.0        0.0>
    0.0
 STOP
 SCREEN
 O1         0.157679252   0.496569905
 H2         0.151273915   0.494753863
 H3         0.151273915   0.494753863
 BO21      -0.577448507   0.935390296
 BO31      -0.577448507   0.935390296
 STOP
 SCREEN2
 O1         1.000000000   1.924252167
 H2         1.000000000   2.444900698
 H3         1.000000000   2.444900698
 BO21       1.000000000   9.999987366
 BO31       1.000000000   9.999987366
 STOP
 REPULSIVE POTENTIAL
O1       0.0
H2       0.0
H3       0.0
 STOP
 DISPERSION
O1   0.0
H2   0.0
H3   0.0
 STOP
 $end
 $FRGDPS
 PAIR=WATER WATER
O1      O1        937.38164      2.26580       .02718    -6
O1      H2        -4.94307  -1982.22003      2.39798   -6
O1      H3      'EQ'    O1      H2
O1      center    -571.13359      3.77699       .02764   -6
H2      O1      'EQ'    O1      H2
H2      H2        -1.05695     -1.11636       .99000     -6
H2      H3      'EQ'    H2      H2
H2      center     1.29922 -16027.12691      2.49092     -6
H3      O1      'EQ'    O1      H2
H3      H2      'EQ'    H2      H2
H3      H3      'EQ'    H2      H2
H3      center   'EQ'    H2     center
center  O1      'EQ'    O1      center
center  H2      'EQ'    H2      center
center  H3      'EQ'    H2      center
center  center     -34.50400    -51.37096       .01000   -6
 STOP
 $END
 $FRGDP8
 PAIR=WATER WATER
O1      O1   -7525.46758           2.26580       .02718    -6
O1      H2     11.53163    -1982.22003      2.39798   -6
O1      H3      'EQ'    O1      H2
O1      center 3487.79336        3.77699       .02764   -6
H2      O1      'EQ'    O1      H2
H2      H2     -2.40539        -1.11636       .99000     -6
H2      H3      'EQ'    H2      H2
H2      center -3.83158   -16027.12691      2.49092     -6
H3      O1      'EQ'    O1      H2
H3      H2      'EQ'    H2      H2
H3      H3      'EQ'    H2      H2
H3      center  'EQ'    H2     center
center  O1      'EQ'    O1      center
center  H2      'EQ'    H2      center
center  H3      'EQ'    H2      center
center  center 174.33619      -51.37096       .01000   -6
 STOP
 $END
 $FRGRPL
 PAIR=WATER WATER
O1      O1            -9.529254      1.207306    0
O1      H2             6.655061      1.892604    0
O1      H3      'EQ'    O1      H2
O1      center         5.839395      1.275523    0
H2      O1      'EQ'    O1      H2
H2      H2              .035175       .693767    0
H2      H3      'EQ'    H2      H2
H2      center         -.201399      1.045961    0
H3      O1      'EQ'    O1      H2
H3      H2      'EQ'    H2      H2
H3      H3      'EQ'    H2      H2
H3      center   'EQ'    H2     center
center  O1      'EQ'    O1      center
center  H2      'EQ'    H2      center
center  H3      'EQ'    H2      center
center  center       87.476479       1.822619    0
 STOP
 $END

!   original MP2-type EFP1 potential of Jie's.
--- $water
Jie's MP2 efp1 potential (this is not built in)
 COORDINATES 
O1          .0000000000    .0000000000   -.1191510000  15.9949100  8.0
H2        -1.4310420000    .0000000000    .9455100000   1.0078250  1.0
H3         1.4310420000    .0000000000    .9455100000   1.0078250  1.0
BO21       -.7155210000    .0000000000    .4131795000    .0000000   .0
BO31        .7155210000    .0000000000    .4131795000    .0000000   .0
 STOP
 MONOPOLES
O1        -8.2241028229   8.00000
H2        -0.5771758979   1.00000
H3        -0.5771758979   1.00000
BO21      -0.3107726906   0.00000
BO31      -0.3107726906   0.00000
 STOP
 DIPOLES
O1          0.0000000000    0.0000000000    0.4392301553
H2         -0.0508518747    0.0000000000    0.0227633835
H3          0.0508518747    0.0000000000    0.0227633835
BO21        0.1463051139    0.0000000000   -0.1101698641
BO31       -0.1463051139    0.0000000000   -0.1101698641
 STOP
 QUADRUPOLES
O1         -3.6254547573   -4.6491298207   -4.1181758412    0.0000000000 >
    0.0000000000    0.0000000000
H2         -0.2958012504   -0.3063491460   -0.2943264837    0.0000000000 >
   -0.0074868095    0.0000000000
H3         -0.2958012504   -0.3063491460   -0.2943264837    0.0000000000 >
    0.0074868095    0.0000000000
BO21       -0.1092619080   -0.1427961760   -0.1200841147    0.0000000000 >
   -0.0122385770    0.0000000000
BO31       -0.1092619080   -0.1427961760   -0.1200841147    0.0000000000 >
    0.0122385770    0.0000000000
 STOP
 OCTUPOLES
O1          0.0000000000    0.0000000000    1.0599060132    0.0000000000 >
    0.3116603219    0.0000000000    0.3551256541    0.0000000000 >
    0.0000000000    0.0000000000
H2         -0.0492773435    0.0000000000    0.0145860831    0.0000000000 >
   -0.0010191345   -0.0204847504    0.0073213708   -0.0134392057 >
    0.0000000000    0.0000000000
H3          0.0492773435    0.0000000000    0.0145860831    0.0000000000 >
   -0.0010191345    0.0204847504    0.0073213708    0.0134392057 >
    0.0000000000    0.0000000000
BO21        0.4563509181    0.0000000000   -0.3208544080    0.0000000000 >
   -0.1050466119    0.1500412237   -0.1083701598    0.1526280503 >
    0.0000000000    0.0000000000
BO31       -0.4563509181    0.0000000000   -0.3208544080    0.0000000000 >
   -0.1050466119   -0.1500412237   -0.1083701598   -0.1526280503 >
    0.0000000000    0.0000000000
 STOP
 POLARIZABLE POINTS
CT1   0.0000000000   0.0000000000  -0.1186468947
    0.0035705377    0.0048488741    0.0036601026    0.0000000000 >
    0.0000000000    0.0000000000   -0.0000000000   -0.0000000000 >
   -0.0000000000
CT2   0.7621202324   0.0000000000   0.4875155408
    2.0911278148    0.7809837211    1.5395957291    0.0000000000 >
    1.3062279025   -0.0000000000   -0.0000000000    0.9487778336 >
    0.0090939039
CT3  -0.7621202324   0.0000000000   0.4875155408
    2.0911278148    0.7809837211    1.5395957291    0.0000000000 >
   -1.3062279025   -0.0000000000   -0.0000000000   -0.9487778336 >
    0.0090939039
CT4  -0.0000000000   0.4916564243  -0.4087493364
    1.3856777616    0.7321569196    1.053404316    -0.0000000000 >
    0.0000000000   -0.6381084387   -0.000000000     0.0000000000 >
   -0.0850908820
CT5  -0.0000000000  -0.4916564243  -0.4087493364
    1.3856777616    0.7321569196    1.053404316    -0.0000000000 >
    0.0000000000    0.6381084387   -0.000000000     0.0000000000 >
    0.0850908820
 STOP
 POLARIZ2
CT6  0.0   0.0   0.0000004281
    0.0157884  0.0215769   0.0292931  0.0>
    0.0        0.0         0.0        0.0>
    0.0
 STOP
 SCREEN
 O1         0.157679252   0.496569905
 H2         0.151273915   0.494753863
 H3         0.151273915   0.494753863
 BO21      -0.577448507   0.935390296
 BO31      -0.577448507   0.935390296
 STOP
 SCREEN2
 O1         1.000000000   1.924252167
 H2         1.000000000   2.444900698
 H3         1.000000000   2.444900698
 BO21       1.000000000   9.999987366
 BO31       1.000000000   9.999987366
 STOP
 MONOHF
O1        -8.2108263875   8.00000
H2         -.5566522005   1.00000
H3         -.5566522005   1.00000
BO21       -.3379346057    .00000
BO31       -.3379346057    .00000
 STOP
 DIPHF
O1           .0000000000     .0000000000     .4355276239
H2          -.0534983179     .0000000000     .0266683580
H3           .0534983179     .0000000000     .0266683580
BO21         .1452271117     .0000000000    -.1065338980
BO31        -.1452271117     .0000000000    -.1065338980
 STOP
 QUADHF
O1         -3.6003786979   -4.5547871522   -4.0728237560     .0000000000 >
     .0000000000     .0000000000
H2          -.2738436542    -.2848009246    -.2731192006     .0000000000 >
    -.0080709854     .0000000000
H3          -.2738436542    -.2848009246    -.2731192006     .0000000000 >
     .0080709854     .0000000000
BO21        -.1233319658    -.1565865235    -.1351043716     .0000000000 >
    -.0127096600     .0000000000
BO31        -.1233319658    -.1565865235    -.1351043716     .0000000000 >
     .0127096600     .0000000000
 STOP
 SCRHF
 O1       0.1547739764         0.5025549673
 H2       0.1659265605         0.5428577904
 H3       0.1659265605         0.5428577904
 BO21    -0.4205612984         0.8984695080
 BO31    -0.4205612984         0.8984695080
 STOP
 SCRHF2
 O1       1.0000000000         1.9482465681
 H2       1.0000000000         2.4635569986
 H3       1.0000000000         2.4635569986
 BO21     1.0000000000         9.9999928059
 BO31     1.0000000000         9.9999928059
 STOP
 REPULSIVE POTENTIAL
O1       0.0
H2       0.0
H3       0.0
 STOP
 DISPERSION
O1   0.0
H2   0.0
H3   0.0
 STOP
 $end
--- $FRGDPS
 PAIR=WATER WATER
O1      O1        937.38164      2.26580       .02718    -6
O1      H2        -4.94307  -1982.22003      2.39798   -6
O1      H3      'EQ'    O1      H2
O1      center    -571.13359      3.77699       .02764   -6
H2      O1      'EQ'    O1      H2
H2      H2        -1.05695     -1.11636       .99000     -6
H2      H3      'EQ'    H2      H2
H2      center     1.29922 -16027.12691      2.49092     -6
H3      O1      'EQ'    O1      H2
H3      H2      'EQ'    H2      H2
H3      H3      'EQ'    H2      H2
H3      center   'EQ'    H2     center
center  O1      'EQ'    O1      center
center  H2      'EQ'    H2      center
center  H3      'EQ'    H2      center
center  center     -34.50400    -51.37096       .01000   -6
 STOP
 $END
--- $FRGDP8
 PAIR=WATER WATER
O1      O1   -7525.46758           2.26580       .02718    -6
O1      H2     11.53163    -1982.22003      2.39798   -6
O1      H3      'EQ'    O1      H2
O1      center 3487.79336        3.77699       .02764   -6
H2      O1      'EQ'    O1      H2
H2      H2     -2.40539        -1.11636       .99000     -6
H2      H3      'EQ'    H2      H2
H2      center -3.83158   -16027.12691      2.49092     -6
H3      O1      'EQ'    O1      H2
H3      H2      'EQ'    H2      H2
H3      H3      'EQ'    H2      H2
H3      center  'EQ'    H2     center
center  O1      'EQ'    O1      center
center  H2      'EQ'    H2      center
center  H3      'EQ'    H2      center
center  center 174.33619      -51.37096       .01000   -6
 STOP
 $END
--- $FRGRPL
 PAIR=WATER WATER
O1      O1            -9.529254      1.207306    0
O1      H2             6.655061      1.892604    0
O1      H3      'EQ'    O1      H2
O1      center         5.839395      1.275523    0
H2      O1      'EQ'    O1      H2
H2      H2              .035175       .693767    0
H2      H3      'EQ'    H2      H2
H2      center         -.201399      1.045961    0
H3      O1      'EQ'    O1      H2
H3      H2      'EQ'    H2      H2
H3      H3      'EQ'    H2      H2
H3      center   'EQ'    H2     center
center  O1      'EQ'    O1      center
center  H2      'EQ'    H2      center
center  H3      'EQ'    H2      center
center  center       87.476479       1.822619    0
 STOP
 $END

! TRAVIS-CI SMALL

