!  HCN plus a single water fragment
!  saddle point location, and follow-on semi-numerical hessian.
!
!  nserch=0:  FINAL E= -91.5700765737, RMS grad=0.0014357
!  nserch=27: FINAL E= -91.5709959317, RMS grad=0.0000304
!
!       FREQ=1242.06i, 34.22,  63.77,   82.91,   136.25,
!  INTENSITY=   ---   0.07293, 0.11918, 0.11620, 0.05723, 
!       FREQ= 210.33, 264.94,  2126.03, 3062.54
!  INTENSITY=1.19081, 0.02499, 1.02756, 3.80388
!
!  This run takes 3 seconds on 2.66 GHz Cloverton (20 Mar 2007)
!
 $CONTRL SCFTYP=RHF RUNTYP=sadpoint  $END
 $SYSTEM TIMLIM=30 mwords=1 $END
 $GUESS  GUESS=HUCKEL $END
 $BASIS  GBASIS=STO NGAUSS=3 $END
 $statpt nstep=120 hssend=.t. hess=read $end
 $force  nvib=2 $end
 $DATA
HYDROGEN CYANIDE...STO-3G...INTRINSIC REACTION COORDINATE
C1
NITROGEN    7.0   0.0956446187   0.0971943897  -0.6177141353
CARBON      6.0   1.1980851783  -0.0308901957  -0.1175034257
HYDROGEN    1.0   0.5590221799   0.6821507462   0.6222887923
 $END
 $efrag
polmethd=frgscf 
fragname=h2orhf
ZO1               0.2754221920   0.4775819478   2.9826938249
ZH2               1.0327123459   0.0452098332   3.3438647420
ZH3              -0.4757492568   0.1382739766   3.4425742541
 $end
 $HESS
ENERGY IS      -91.5700826000 E(NUC) IS       23.2117587418
 1  1 9.32592874E-01-9.67510578E-02 4.42148482E-01-8.91624808E-01 8.42820000E-02
 1  2-4.37567088E-01-2.82034079E-02 1.09369738E-02-6.46659461E-03-3.04448032E-04
 1  3-6.83787321E-04 4.05026601E-03-1.47439585E-04-3.75808857E-04 2.40179283E-04
 2  1-9.67510578E-02 1.46291974E-03-5.91670665E-02 5.37915230E-02 2.95020912E-02
 2  2 7.94676935E-02 4.19597007E-02-3.05120386E-02-2.01959042E-02-2.96531948E-04
 2  3 1.10337554E-04-2.12773744E-04-4.85606534E-06 4.59852910E-04 4.25182363E-04
 3  1 4.42148482E-01-5.91670665E-02 1.84983682E-01-4.82217145E-01 9.89385541E-02
 3  2-1.50752947E-01 4.98119023E-02-4.06225149E-02-3.74742384E-02-1.23757305E-03
 3  3-8.44642970E-05 2.25334306E-03 4.49088355E-04 2.31785976E-03 4.99486860E-04
 4  1-8.91624808E-01 5.37915230E-02-4.82217145E-01 8.47049403E-01-9.92424759E-02
 4  2 3.78955867E-01 3.37522208E-02 4.62956288E-02 1.02658161E-01-5.20330093E-04
 4  3 8.95991651E-04-2.37885125E-03 6.57870709E-04 1.51442761E-03-1.52643837E-04
 5  1 8.42820000E-02 2.95020912E-02 9.89385541E-02-9.92424759E-02 5.53866277E-02
 5  2 2.75934056E-02 1.54999920E-02-8.54989064E-02-1.24466523E-01 8.14395997E-04
 5  3 1.86048007E-04-7.62206704E-04 2.63104075E-04-1.14486394E-03-8.77124947E-04
 6  1-4.37567088E-01 7.94676935E-02-1.50752947E-01 3.78955867E-01 2.75934056E-02
 6  2 2.92266331E-01 4.86916841E-02-1.05230733E-01-1.35192400E-01 2.06730109E-03
 6  3-1.08176819E-04-4.70404014E-03-1.08511521E-03-3.28476047E-03-8.32611565E-04
 7  1-2.82034079E-02 4.19597007E-02 4.98119023E-02 3.37522208E-02 1.54999920E-02
 7  2 4.86916841E-02-6.18343648E-03-5.70204323E-02-9.67749728E-02-4.80792570E-04
 7  3 3.72241795E-05-9.12950848E-04 2.11729969E-05 2.13021449E-03 6.35618954E-04
 8  1 1.09369738E-02-3.05120386E-02-4.06225149E-02 4.62956288E-02-8.54989064E-02
 8  2-1.05230733E-01-5.70204323E-02 1.16489583E-01 1.43970776E-01-2.69788700E-04
 8  3-6.22088566E-04 6.86876834E-04-1.10098109E-03 1.57635313E-04 4.69705345E-04
 9  1-6.46659461E-03-2.01959042E-02-3.74742384E-02 1.02658161E-01-1.24466523E-01
 9  2-1.35192400E-01-9.67749728E-02 1.43970776E-01 1.74446128E-01-5.58736237E-05
 9  3-8.59305846E-05-2.34921050E-03-3.23295208E-04 1.84954999E-03 3.58170141E-04
10  1-3.04448032E-04-2.96531948E-04-1.23757305E-03-5.20330093E-04 8.14395997E-04
10  2 2.06730109E-03-4.80792570E-04-2.69788700E-04-5.58736237E-05 1.30429075E-03
10  3-2.49356125E-04-7.72613549E-04-5.29651099E-04-3.25632985E-03-7.18687186E-04
11  1-6.83787321E-04 1.10337554E-04-8.44642970E-05 8.95991651E-04 1.86048007E-04
11  2-1.08176819E-04 3.72241795E-05-6.22088566E-04-8.59305846E-05-2.49356125E-04
11  3 3.29983359E-04 2.78987638E-04 8.47894934E-04 5.32621299E-04-1.77778800E-05
12  1 4.05026601E-03-2.12773744E-04 2.25334306E-03-2.37885125E-03-7.62206704E-04
12  2-4.70404014E-03-9.12950848E-04 6.86876834E-04-2.34921050E-03-7.72613549E-04
12  3 2.78987638E-04 4.74284457E-03 9.51941586E-04-8.56615419E-04-2.15875345E-05
13  1-1.47439585E-04-4.85606534E-06 4.49088355E-04 6.57870709E-04 2.63104075E-04
13  2-1.08511521E-03 2.11729969E-05-1.10098109E-03-3.23295208E-04-5.29651099E-04
13  3 8.47894934E-04 9.51941586E-04 2.97150640E-03 6.91766548E-04-4.23026853E-04
14  1-3.75808857E-04 4.59852910E-04 2.31785976E-03 1.51442761E-03-1.14486394E-03
14  2-3.28476047E-03 2.13021449E-03 1.57635313E-04 1.84954999E-03-3.25632985E-03
14  3 5.32621299E-04-8.56615419E-04 6.91766548E-04 1.05273156E-02 2.08284133E-03
15  1 2.40179283E-04 4.25182363E-04 4.99486860E-04-1.52643837E-04-8.77124947E-04
15  2-8.32611565E-04 6.35618954E-04 4.69705345E-04 3.58170141E-04-7.18687186E-04
15  3-1.77778800E-05-2.15875345E-05-4.23026853E-04 2.08284133E-03 1.76834266E-03
 $END

! TRAVIS-CI SMALL

! TRAVIS-CI SKIP
