!   The system is glycine tetramer capped with methyl and hydrogen,
!   CH3-[NH-CH2-C=O]4-H, surrounded by 58 water molecules.
!   The former is assigned to FMO and the latter is assigned to EFP. 
!   test case from Takeshi Nagata, Jan 2007
!
!              Euncorr(2)= -857.192997178, RMS grad = .0014280 
!
!   This run takes 525 seconds on 2.66 GHz Cloverton (26 Oct 2015)
!   answers essentially unchanged since 2009
!
!   ---------------------------------------------------------------------
!   the 2-body gradient vector (ab initio atoms, then EFP particles):
! ATOM# FRG#   Z            E'X              E'Y              E'Z
!    1    1   6.0       0.000289679      -0.003407096       0.000454228
!    2    1   6.0       0.002464113       0.000292774      -0.006207170
!           ...
!   32    4   1.0       0.005000394       0.001271067      -0.002923335
!   33    4   1.0      -0.000028098       0.000855324      -0.001386537
!
!  FRG    E'X         E'Y         E'Z          TX          TY          TZ
!    1  0.00019208 -0.00007119  0.00020673  -0.00002544  0.00023791 -0.00004001
!    2 -0.00000286  0.00000579  0.00000286   0.00005316  0.00007352 -0.00003183
!    3  0.00001124  0.00000031  0.00000536   0.00004873 -0.00000957 -0.00004682
!           ...
!   57 -0.00005516  0.00005364  0.00004467   0.00027683  0.00018390 -0.00014852
!   58 -0.00001548  0.00001263  0.00000298  -0.00002216  0.00000113  0.00000313
!
!   geometry optimization takes 380 minutes on 3.0 GHz Woodcrest:
!     nserch= 0: Euncorr(2)= -857.192998212, R MS grad = .0014935 
!     nserch=51: Euncorr(2)= -857.204550865, R MS grad = .0000212 
!   note that geom.opt. numbers are BEFORE the FMO code change of 1/2009
!
 $contrl scftyp=rhf MPLEVL=0 nosym=1 maxit=200 runtyp=gradient NPRINT=-5 $end
 $system BALTYP=loop MWORDS=20 MEMDDI=20 $end
#---$gddi ngroup=4 $end
 $scf dirscf=.t. NPUNCH=0 diis=.t. soscf=.f. $end
 $statpt nstep=300 $END 
 $fmo
        nfrag=4 icharg(1)=0,0,0,0 
        frgnam(1)=frag01,frag02,frag03,frag04 
        indat(1)=1,1,1,1,1, 2,2,2,2,3,
                 3,3,3,4,4, 4,4,1,1,1,
                 1,1,1,2,2, 2,3,3,3,4,
                 4,4,4
 $end
        respap=0.0 resppc=0.0
        maxit=30 modpar=15
 $fmoxyz
C    C     2.268265    1.096649    0.922379
C    C     1.136551    0.098938    0.607117
O    O     0.991257   -0.444672   -0.476379
N    N     0.192276   -0.068329    1.671112
C    C    -0.740585   -1.208313    1.587372
C    C    -1.723358   -1.074127    0.381622
O    O    -2.265854   -2.025345   -0.149643
N    N    -1.886627    0.264908   -0.074738
C    C    -2.894211    0.537308   -1.108475
C    C    -2.281189    0.415695   -2.537170
O    O    -2.902512    0.046417   -3.516220
N    N    -0.913132    0.866440   -2.590515
C    C    -0.148712    0.453659   -3.784225
C    C    -0.010788   -1.086655   -4.012344
O    O     0.130386   -1.570862   -5.122803
N    N    -0.123947   -1.878036   -2.828705
C    C     0.243286   -3.300217   -2.966156
H    H     2.643860    0.960800    1.931274
H    H     1.882645    2.111435    0.830215
H    H     3.077667    0.966568    0.211487
H    H     0.607300    0.039734    2.600815
H    H    -0.228821   -2.171082    1.499512
H    H    -1.325592   -1.224152    2.508316
H    H    -1.744965    0.990082    0.628616
H    H    -3.743271   -0.148071   -1.041809
H    H    -3.262817    1.557449   -0.985413
H    H    -0.435562    0.597595   -1.719986
H    H    -0.625839    0.874573   -4.673172
H    H     0.853775    0.878967   -3.706024
H    H     0.295258   -1.438416   -1.999054
H    H    -0.321716   -3.737762   -3.788254
H    H     1.308792   -3.444107   -3.165220
H    H    -0.017227   -3.821000   -2.048386
 $end     
 $FMOLMO
 csto-L1 5 5
 1 0  -0.117822 0.54233  0.0000   0.0000   0.85073
 0 1  -0.117822 0.54233  0.80205  0.0000  -0.28363
 0 1  -0.117822 0.54233 -0.40111 -0.69455 -0.28363
 0 1  -0.117822 0.54233 -0.40111  0.69455 -0.28363
 0 1   1.00363 -0.01505  0.0000   0.0000   0.0000 
 mini  5 5
1 0 -0.104883  0.308874  0.000000  0.000000  0.521806
0 1 -0.104884  0.308875  0.491962  0.000000 -0.173935
0 1 -0.104884  0.308876 -0.245981 -0.426051 -0.173934
0 1 -0.104884  0.308876 -0.245981  0.426051 -0.173934
0 1  0.988209  0.063992  0.000000  0.000000  0.000000
 $end
       0 0 1 1 1
       0 0 1 1 1 0 1 1 1
 $FMOBND
  -5  6 csto-L1 mini
  -9 10 csto-L1 mini
 -13 14 csto-L1 mini
 $end
 $data
Basis set input using fake atomic coordinates
c1
h-1 1 1 0 0
 sto 3

c-1 6 2 0 0
 sto 3

n-1 7 3 0 0
 sto 3

o-1 8 4 0 0
 sto 3

 $end

 $EFRAG
 COORD=CART
 FRAGNAME=H2ORHF
 ZO1               3.4735018354    .5287407327  -3.7910617120
 ZH2               3.3511911822   -.4032480613  -3.8765920929
 ZH3               3.3625202694    .8971394647  -4.6529456488
 FRAGNAME=H2ORHF
 ZO1              -5.3349576433   3.7445769860  -2.0631144485
 ZH2              -4.4323119441   3.7837475861  -1.7900304692
 ZH3              -5.7642671613   3.1267928811  -1.4931016491
 FRAGNAME=H2ORHF
 ZO1              -6.7804179505  -2.7094473803  -4.9596145758
 ZH2              -6.5264504076  -1.8006787573  -4.9368432967
 ZH3              -7.4279446820  -2.7931654100  -5.6412148088
 FRAGNAME=H2ORHF
 ZO1              -2.9561412120   6.6944324631    .2832837032
 ZH2              -3.4834664616   6.4555735717   1.0287721104
 ZH3              -2.1355806838   7.0143229238    .6227376277
 FRAGNAME=H2ORHF
 ZO1               2.6661386400   1.7263344815  -6.1536858494
 ZH2               2.0228953931   1.2202601832  -6.6237979465
 ZH3               2.2502862433   2.5394316109  -5.9153199616
 FRAGNAME=H2ORHF
 ZO1               -.7686054474  -5.0626873649    .9171643608
 ZH2              -1.6269332831  -4.7088978026    .7469153481
 ZH3               -.7586849496  -5.3262521986   1.8234279076
 FRAGNAME=H2ORHF
 ZO1                .5374464473  -3.1420895788   5.0072101675
 ZH2               1.0046023528  -3.8399047299   5.4381368769
 ZH3               1.1762428452  -2.6512026284   4.5154301170
 FRAGNAME=H2ORHF
 ZO1               6.8225704813  -3.2033237055   2.5560029016
 ZH2               6.9294936991  -3.4620388338   1.6546082256
 ZH3               6.5481621698  -3.9729971282   3.0284236410
 FRAGNAME=H2ORHF
 ZO1                .7858219114   4.3856548733   2.0854869892
 ZH2               1.6486916242   4.5111948104   2.4468372860
 ZH3                .2515029750   4.0286620624   2.7768174898
 FRAGNAME=H2ORHF
 ZO1              -2.7483314583   4.1023351893   -.7509162601
 ZH2              -2.7291836234   5.0273135748   -.5640291261
 ZH3              -1.8541492721   3.8357599828   -.8932339728
 FRAGNAME=H2ORHF
 ZO1               3.3947456552  -2.3732806900  -3.9989618012
 ZH2               4.2865118697  -2.6200085105  -4.1853937068
 ZH3               2.8438008972  -2.9244331938  -4.5314740031
 FRAGNAME=H2ORHF
 ZO1              -3.9012175696  -3.6087450911  -1.8797644492
 ZH2              -3.1685659467  -3.0504557916  -1.6738200111
 ZH3              -3.8044034421  -3.8608067850  -2.7841815992
 FRAGNAME=H2ORHF
 ZO1              -1.0828369481   3.5381488471  -4.0853289307
 ZH2              -1.7528555240   3.2599325011  -4.6891080517
 ZH3              -1.0466886075   2.8881886479  -3.4018646003
 FRAGNAME=H2ORHF
 ZO1              -5.5287615323   2.6031465813  -4.7159382850
 ZH2              -5.5423448217   3.0978035352  -3.9121917788
 ZH3              -5.8469208820   1.7391563245  -4.5081549403
 FRAGNAME=H2ORHF
 ZO1              -3.1019226679   2.7202033690  -6.0100955198
 ZH2              -3.9417385421   2.6494655702  -5.5851438574
 ZH3              -3.2013481624   3.3523649766  -6.7039000505
 FRAGNAME=H2ORHF
 ZO1               1.4900048983   4.1020947935  -4.8842459575
 ZH2                .5716889783   4.0076761659  -4.6876258974
 ZH3               1.6196534177   4.9982536393  -5.1506461050
 FRAGNAME=H2ORHF
 ZO1              -6.5800514804   2.1186485960    .0796542298
 ZH2              -7.3822072965   2.5272862165    .3632733331
 ZH3              -5.8938634371   2.4542100649    .6341115536
 FRAGNAME=H2ORHF
 ZO1              -3.2356152085    .9745946740   2.6818266022
 ZH2              -3.6117417380    .1143078216   2.5853184710
 ZH3              -2.9535228389   1.0481900219   3.5795381783
 FRAGNAME=H2ORHF
 ZO1               -.8946770817   3.7495128042   4.2337590935
 ZH2              -1.6058461737   4.3696928633   4.2559778007
 ZH3              -1.2453081328   2.9240340193   4.5279037787
 FRAGNAME=H2ORHF
 ZO1              -2.1337348907    .2124406668  -7.1992887973
 ZH2              -2.4417602597    .9882424773  -6.7586865083
 ZH3              -1.2061463190    .3259643845  -7.3318416592
 FRAGNAME=H2ORHF
 ZO1               1.6414850400  -6.0089105082   5.0948019636
 ZH2               2.1891315217  -6.0165346705   4.3260993831
 ZH3               1.9274606057  -6.7253088607   5.6387411425
 FRAGNAME=H2ORHF
 ZO1              -2.6940069634  -2.5079314584  -6.7908206966
 ZH2              -2.5490602038  -1.5754202339  -6.7737412615
 ZH3              -3.1232516903  -2.7008087512  -7.6090051308
 FRAGNAME=H2ORHF
 ZO1              -5.7195853171  -5.3749518378   5.6814880575
 ZH2              -6.5469368065  -5.8129199775   5.5608569015
 ZH3              -5.1407932202  -5.6987093623   5.0098786264
 FRAGNAME=H2ORHF
 ZO1              -3.6730675388  -5.5044734382   3.5637363584
 ZH2              -3.8026854344  -5.3724342491   2.6381860854
 ZH3              -2.7535535157  -5.6783275738   3.6868101365
 FRAGNAME=H2ORHF
 ZO1              -4.2066599001  -2.9732514199   4.7484299154
 ZH2              -3.9605608227  -3.7934171492   4.3513885138
 ZH3              -4.8715960061  -3.1704892931   5.3886139908
 FRAGNAME=H2ORHF
 ZO1              -4.3974534902  -1.6435898368   2.2041447585
 ZH2              -5.2105459697  -1.4241711769   1.7779822010
 ZH3              -4.6207449795  -1.9843440077   3.0555588527
 FRAGNAME=H2ORHF
 ZO1               5.5706756844  -5.3046324230   4.0014600413
 ZH2               5.3894071684  -5.1567491333   4.9158728101
 ZH3               4.7410845631  -5.4740743312   3.5843911438
 FRAGNAME=H2ORHF
 ZO1               2.3296260196  -1.9085193446   3.1557628902
 ZH2               3.2397524754  -1.6584922956   3.1498668430
 ZH3               2.1992695331  -2.4756290352   2.4126126771
 FRAGNAME=H2ORHF
 ZO1               5.1951070906   -.9848887533   -.1260388518
 ZH2               5.1250874687   -.8064964538    .7981645317
 ZH3               5.2777808295   -.1497650136   -.5580247849
 FRAGNAME=H2ORHF
 ZO1               -.1025131511  -3.8726253181  -7.0954128416
 ZH2               -.9181800132  -3.4650849077  -6.8515341053
 ZH3                .4033146802  -3.9623607111  -6.3036021203
 FRAGNAME=H2ORHF
 ZO1               2.1606242653  -4.5678990051  -5.3260308475
 ZH2               2.5448240462  -4.9945238626  -6.0752038672
 ZH3               2.1720988998  -5.1953816440  -4.6210398371
 FRAGNAME=H2ORHF
 ZO1               2.4978504091  -6.2138930901  -3.0719675131
 ZH2               3.3040709692  -6.0677420866  -2.6034306984
 ZH3               1.8334789500  -6.3817891313  -2.4228912943
 FRAGNAME=H2ORHF
 ZO1              -3.6231040613  -4.3273932725    .9551081140
 ZH2              -3.9608771913  -4.4047862538    .0771570372
 ZH3              -3.7501318219  -3.4293759460   1.2164647349
 FRAGNAME=H2ORHF
 ZO1                .5663025431  -6.8784794679   -.8704287586
 ZH2                .0868382453  -6.2728445155   -.3280278501
 ZH3               -.0307994110  -7.5748309368  -1.0927850992
 FRAGNAME=H2ORHF
 ZO1              -5.8253553607   6.3368932450   -.5268668807
 ZH2              -5.0211877286   6.7930170238   -.7169825611
 ZH3              -5.8768275872   5.6141570959  -1.1317482928
 FRAGNAME=H2ORHF
 ZO1               4.6041215158  -5.3015622666  -1.1566935899
 ZH2               4.1693967703  -4.4694206804  -1.0595687726
 ZH3               5.5252773126  -5.1434054888  -1.0250239817
 FRAGNAME=H2ORHF
 ZO1              -4.0884087362  -3.9477200475  -4.6418658516
 ZH2              -3.5489807027  -3.4967301415  -5.2715514522
 ZH3              -4.9816706871  -3.7053811758  -4.8268885864
 FRAGNAME=H2ORHF
 ZO1               6.8582453333  -3.3262358445   -.4037242158
 ZH2               7.6980211674  -3.1365797956   -.7906164301
 ZH3               6.3596229803  -2.5253126353   -.4315848705
 FRAGNAME=H2ORHF
 ZO1               -.8191142749  -5.3390868792   3.7323406738
 ZH2               -.2020935990  -5.8972938943   4.1779513424
 ZH3               -.6269251880  -4.4545174243   3.9996956598
 FRAGNAME=H2ORHF
 ZO1               3.0794793785  -5.7526775544   2.7247500558
 ZH2               2.7409150569  -5.0056792362   2.2575818134
 ZH3               3.1490526859  -6.4555099821   2.0985994449
 FRAGNAME=H2ORHF
 ZO1              -6.2965525919  -2.1424416123  -1.9663644941
 ZH2              -5.5166120567  -2.6625331266  -1.8564734915
 ZH3              -6.8499501974  -2.6081406489  -2.5727916963
 FRAGNAME=H2ORHF
 ZO1               1.2966869045  -2.3869452835  -9.0178783409
 ZH2               1.0409843516  -2.5630195562  -9.9092214336
 ZH3                .8305654515  -3.0027144078  -8.4752572662
 FRAGNAME=H2ORHF
 ZO1               3.3262983818  -2.8007994443  -1.1402725551
 ZH2               3.8646485390  -2.1005498834   -.8075442654
 ZH3               3.1517858339  -2.6018038339  -2.0462662480
 FRAGNAME=H2ORHF
 ZO1              -4.3461309805   3.0823410968   1.3283327382
 ZH2              -3.7052897027   3.3409978037    .6854504637
 ZH3              -3.9423712773   2.4158800531   1.8609547743
 FRAGNAME=H2ORHF
 ZO1              -2.7865050785   6.0772172889   4.0649128631
 ZH2              -2.9849715638   6.6021249729   4.8238340919
 ZH3              -3.5741517739   6.0418139516   3.5460316233
 FRAGNAME=H2ORHF
 ZO1                .0128741739   3.3184981493   -.5914690110
 ZH2                .7531384170   3.2371393345  -1.1713552478
 ZH3                .3372610009   3.6937768050    .2115363260
 FRAGNAME=H2ORHF
 ZO1              -4.9738052741   5.6543612330   2.2128454742
 ZH2              -5.5545110587   6.0074995512   1.5579007635
 ZH3              -4.8858429233   4.7327832829   2.0289021112
 FRAGNAME=H2ORHF
 ZO1               -.7334749256   6.9300135041   2.0330925425
 ZH2               -.1511881042   6.1998575721   1.8963708298
 ZH3              -1.2303559603   6.7385157860   2.8123975633
 FRAGNAME=H2ORHF
 ZO1              -2.2040288054   1.2652344988   5.3457535053
 ZH2              -2.7675533655   1.4837424963   6.0707174901
 ZH3              -1.8884424347    .3894915629   5.5018240241
 FRAGNAME=H2ORHF
 ZO1               1.8192214407  -3.7656381104   1.0400471892
 ZH2               2.1911649761  -3.5121984896    .2104058094
 ZH3                .9499082707  -4.0866836198    .8608745143
 FRAGNAME=H2ORHF
 ZO1              -6.5826802935   -.8036419512    .6099916725
 ZH2              -6.6106170785    .1172397377    .4048699891
 ZH3              -6.6713132854  -1.2665363139   -.2077805793
 FRAGNAME=H2ORHF
 ZO1               5.2151633570   1.3550037021  -1.7099996630
 ZH2               4.7978590224   1.0964375670  -2.5161504555
 ZH3               4.8642921989   2.2010758849  -1.4821186719
 FRAGNAME=H2ORHF
 ZO1               3.1984798564  -7.3177260115    .4444616921
 ZH2               3.7620251951  -6.7869824437   -.0955442065
 ZH3               2.3578221656  -7.3434134092    .0160772169
 FRAGNAME=H2ORHF
 ZO1               2.3585222897   2.8931296876  -2.3597021787
 ZH2               2.2522290758   3.4118561916  -3.1410491060
 ZH3               2.5642150644   2.0163032470  -2.6420925636
 FRAGNAME=H2ORHF
 ZO1              -5.6954626348   -.2541335332  -4.0541544534
 ZH2              -4.7556055035   -.2743774717  -4.1386364625
 ZH3              -5.8983936291   -.5973762030  -3.1986534684
 FRAGNAME=H2ORHF
 ZO1                .7439651357   -.2083235472  -7.2390932832
 ZH2               1.0188840795   -.6930027580  -8.0009227202
 ZH3                .6233331120   -.8376945731  -6.5461153032
 FRAGNAME=H2ORHF
 ZO1               5.1449636582  -1.0647686571   2.7665790702
 ZH2               5.5173189845   -.4071919176   3.3321078465
 ZH3               5.7400859128  -1.7973368384   2.7737773849
 FRAGNAME=H2ORHF
 ZO1              -1.8292885095  -1.4826140962   5.6773770580
 ZH2              -2.5783224307  -1.9873364083   5.4033660607
 ZH3              -1.0759331792  -2.0439074981   5.5863610293
 $END

! TRAVIS-CI SMALL
