!   EFP/FMO-MP2(2) test case.
!   The system is   four FMO water molecules,
!            plus twenty EFP water molecules 
!   test case from Takeshi Nagata, Jan 2007
!
!          results for a EFP/FMO MP2/6-31G single point gradient:
!   Euncorr(1)= -304.249799586, Ecorr  (1)= -304.762051076, RMS=  .0035995
!   Euncorr(2)= -304.303659595, Ecorr  (2)= -304.820999346, RMS=  .0008002
!
!   the gradient changed as of 11/2010 with a MP2/EFP code change.
!   this run takes 32 seconds on a 2.66 GHz Cloverton (12 Nov 2010)
!
 $mp2 code=ddi $end
 $contrl scftyp=rhf mplevl=2 runtyp=gradient $end
 $SYSTEM MWORDS=20 memddi=100 $END
 $basis  GBASIS=N31 NGAUSS=6 $end
 $statpt projct=.false. nstep=999 npun=-1 nprt=-2 opttol=0.00001
         hess=guess movie=.f.  $end
 $fmo    nfrag=4 icharg(1)=0,0,0,0
         frgnam(1)=frag01,frag02,frag03,frag04
         indat(1)=1,1,1,
                  2,2,2,
                  3,3,3,
                  4,4,4
 $end
 $fmoprp nprint=0 $end
 $fmoxyz
O  8   -.2746037289  -1.0311641492  11.0027870394
H  1   -.8508902117  -1.1513900463  11.7751123349
H  1   -.8069312858   -.9002397842  10.1732123774
O  8  -1.9984883429   2.1653821627   8.5604073579
H  1  -2.8708254558   2.3423373670   8.9792066102
H  1  -2.0313452530   2.4161744007   7.6135581406
O  8    .7491115492   1.5616394859  11.6742256589
H  1    .8886703705   2.1395043220  10.9025177649
H  1    .5350100214    .6469466095  11.3927238711
O  8  -1.4930682466   -.5527158580   8.6066297161
H  1  -1.7021467635    .4099658014   8.6172766477
H  1   -.8227517278   -.7546032094   7.9208349220
 $end

 $data
water cluster FMO/EFP1 calculation 
C1
h-1 1
c-1 6
n-1 7
o-1 8
 $end

 $efrag
coord=cart 
FRAGNAME=H2ORHF
ZO1              -1.4467627389   3.2796523056   5.8913721927
ZH2               -.9647355671   2.5973113659   5.4521238554
ZH3               -.8213897859   3.9475896388   6.1229900733
FRAGNAME=H2ORHF
ZO1              -3.2290845656  -2.6016475467   7.6721816773
ZH2              -2.7820086123  -1.8780492365   8.0813357210
ZH3              -3.6523832645  -3.0849516799   8.3636393986
FRAGNAME=H2ORHF
ZO1              -4.6338029952   2.9781879946   9.0919097689
ZH2              -4.7121335502   3.6263826707   9.7735155494
ZH3              -4.7894069603   3.4238403118   8.2745604726
FRAGNAME=H2ORHF
ZO1               2.8063539771   -.8123430962   7.9432472823
ZH2               2.5751136412    .1002333990   8.0111479565
ZH3               3.6637758794   -.8464094587   7.5501243772
FRAGNAME=H2ORHF
ZO1                .4675775511  -4.8708895505   8.5267759217
ZH2                .8837396879  -4.1889698805   9.0294419078
ZH3               1.0020503391  -5.6429610821   8.6222894978
FRAGNAME=H2ORHF
ZO1              -3.1222174881   6.2460377947   8.5931835441
ZH2              -3.4259183378   5.7327760401   7.8616053737
ZH3              -3.6961305686   6.0526253636   9.3171268164
FRAGNAME=H2ORHF
ZO1              -4.4513960015   5.1687808976  10.9675135615
ZH2              -5.1227302329   5.5292918189  11.5244881385
ZH3              -3.6804781917   5.0674584415  11.5025817296
FRAGNAME=H2ORHF
ZO1              -4.0813559568   4.3583878062   6.4430239527
ZH2              -3.3331094245   3.9393449979   6.0488048438
ZH3              -4.6653562231   4.5894675370   5.7384501092
FRAGNAME=H2ORHF
ZO1               4.2925919050    .9831253623   5.8209003734
ZH2               3.6404602219    .6302034930   5.2369064726
ZH3               3.8349163314   1.5274720910   6.4414631520
FRAGNAME=H2ORHF
ZO1              -2.0092575214   5.0630360047  12.2471704056
ZH2              -1.3605033184   5.3196801127  11.6114580178
ZH3              -1.6407215461   4.3446488659  12.7360258113
FRAGNAME=H2ORHF
ZO1               2.5986257631    .8509934290   3.2418187232
ZH2               2.5694203497    .1853030839   2.5733264926
ZH3               3.3236673761   1.4168497394   3.0296872795
FRAGNAME=H2ORHF
ZO1                .4425040407   1.2683764774   5.1960113304
ZH2                .2974270001    .3737322788   5.4595314703
ZH3               1.0240777002   1.2414445485   4.4530946434
FRAGNAME=H2ORHF
ZO1               5.1157190880   2.2576191822   3.4029180471
ZH2               5.1865216370   1.9818437127   4.3028143431
ZH3               5.9788992813   2.1846737243   3.0281149414
FRAGNAME=H2ORHF
ZO1               2.0801068354   1.9237185115   7.4710192942
ZH2               1.4383780590   1.8480065685   6.7830292264
ZH3               1.7167743766   2.5071839932   8.1178855942
FRAGNAME=H2ORHF
ZO1               -.8809858138  -3.6646446440   6.2725912796
ZH2              -1.7608529282  -3.4915141263   6.5671046729
ZH3               -.4824967577  -4.2223115684   6.9215077054
FRAGNAME=H2ORHF
ZO1               1.7184961784  -2.7524975598   9.9234228850
ZH2               1.1343146354  -2.2337798377  10.4530853281
ZH3               2.1977787802  -2.1494305449   9.3780085313
FRAGNAME=H2ORHF
ZO1               -.6597668564   2.8972165890  13.5643382116
ZH2               -.0905482257   3.0775636879  14.2953262610
ZH3               -.1617765529   2.3763236313  12.9547853933
FRAGNAME=H2ORHF
ZO1               -.5851973933   6.0129881656   9.7949557528
ZH2              -1.3805246328   6.1449185203   9.3041121752
ZH3               -.1387366634   6.8443009450   9.8166429281
FRAGNAME=H2ORHF
ZO1                .4075698046   3.3251615796   9.2940804350
ZH2                .2737975641   4.2350003589   9.5066288704
ZH3               -.4471778441   2.9518632638   9.1493970614
FRAGNAME=H2ORHF
ZO1                .3668595428  -1.2271695273   6.4855436918
ZH2                .0204563988  -2.0727065109   6.2490050578
ZH3               1.2099845652  -1.3804359403   6.8811799607
 $end

! TRAVIS-CI SMALL

