!  H2CO(H2O)4...TDDFT + EFP gradient test from Noriyuki (June 2010)...40 AOs
!
!  STATE      ENERGY     EXCITATION  TRANSITION DIPOLE, A.U.  OSCILLATOR
!            HARTREE          EV         X       Y       Z     STRENGTH
!  0  A  -114.5008834860    0.000
!  1  A  -114.3927619442    2.942     0.0459  0.0637 -0.0188    0.000
!  2  A  -114.2319113016    7.319    -0.0784  0.1412  0.3002    0.021
!  3  A  -114.1913727674    8.422    -0.1005  0.2916  0.7731    0.143
!  4  A  -114.1813652157    8.695    -0.0260 -0.0358  0.0109    0.000
!  5  A  -114.1403853451    9.810     0.1001  0.1193 -0.0557    0.007
!  with root 1 having RMS gradient= 0.000009159
!
!  If converted to a tight geometry optimization, it runs 16 steps,
!    NSERCH=  0     ENERGY=    -114.3927619  r.m.s.= 0.0000092
!    NSERCH=  1     ENERGY=    -114.3927614  r.m.s.= 0.0000544
!    NSERCH=  9     ENERGY=    -114.3927265  r.m.s.= 0.0003801
!    NSERCH= 15     ENERGY=    -114.3927624  r.m.s.= 0.0000491
!    NSERCH= 16     ENERGY=    -114.3927629  r.m.s.= 0.0000024
!
!  the gradient run takes 26 seconds on 2.66 GHz Cloverton (25 Jun 2010)
!
 $CONTRL SCFTYP=RHF DFTTYP=B3LYP TDDFT=EXCITE RUNTYP=GRADIENT $END
 $SYSTEM MWORDS=2 $END
 $GUESS  GUESS=HUCKEL $END
 $BASIS  GBASIS=DH NDFUNC=1 NPFUNC=1 $END
 $TDDFT  NSTATE=5 IROOT=1 MULT=1 $END
 $STATPT OPTTOL=1.0E-05 $END
 $DATA  
H2CO+4EFP TD-B3LYP/DH(d,p) S1
C1
O           8.0   2.0046394572  -1.6983458738  -1.0803502172
C           6.0   1.6864387177  -1.1433619435   0.0668605451
H           1.0   0.7867298151  -1.5283667256   0.5664801688
H           1.0   1.8451944981  -0.0589815678   0.1487405204
 $END
 $EFRAG

FRAGNAME=H2ODFT
O1               -0.0318734156  -0.8913537364  -2.9033893527
H2                0.7196996780  -1.2740811975  -2.4796724311
H3                0.2370340132  -0.6636859560  -3.7790231977
FRAGNAME=H2ODFT
O1               -1.2226712383   0.7972895693  -1.1328423557
H2               -1.5485520039   0.2287216227  -0.4535701932
H3               -0.9007630079   0.2391241395  -1.8225559907
FRAGNAME=H2ODFT
O1               -1.0952923474  -0.1302754165   1.5115780916
H2               -1.5897419136  -0.1446448752   2.3154385267
H3               -0.5730488426   0.6557650121   1.5283298169
FRAGNAME=H2ODFT
O1                0.3618033737   1.9557685253   0.5976757318
H2                0.3923260220   2.8951697238   0.6841176787
H3               -0.1191680497   1.7716100927  -0.1932924190
 $END

! TRAVIS-CI SMALL

