!   optimization of water dimer...fa= fragment donor/ab initio acceptor
!
!   FINAL E= -76.4151506990, RMS GRADIENT = 0.011327961
!
!   This run takes 6 seconds on 2.66 GHz Cloverton (6 Sep 2008)
!
 $contrl scftyp=rhf dfttyp=b3lyp runtyp=gradient units=bohr $end
 $system mwords=3 $end
 $statpt nstep=70 opttol=1d-5 $end
 $data
this is the ab initio water...in acceptor position
C1
O      8.0     -2.7894534        .0000000      -5.0199236 
S   8
  1        11720.00000         0.7100000000E-03
  2        1759.000000         0.5470000000E-02
  3        400.8000000         0.2783700000E-01
  4        113.7000000         0.1048000000
  5        37.03000000         0.2830620000
  6        13.27000000         0.4487190000
  7        5.025000000         0.2709520000
  8        1.013000000         0.1545800000E-01
 S   8
  1        11720.00000        -0.1600000000E-03
  2        1759.000000        -0.1263000000E-02
  3        400.8000000        -0.6267000000E-02
  4        113.7000000        -0.2571600000E-01
  5        37.03000000        -0.7092400000E-01
  6        13.27000000        -0.1654110000
  7        5.025000000        -0.1169550000
  8        1.013000000         0.5573680000
 S   1
  1       0.3023000000          1.000000000
 P   3
  1        17.70000000         0.4301800000E-01
  2        3.854000000         0.2289130000
  3        1.046000000         0.5087280000
 P   1
  1       0.2753000000          1.000000000
 D   1
  1        1.185000000          1.000000000
 S   1
  1       0.789600000E-01      1.00000000
 P   1
  1       0.685600000E-01      1.00000000
 D   1
  1       0.332000000          1.00000000

H     1.0    -1.8683652        .0000000      -3.4925138 
S   3
  1        13.01000000         0.1968500000E-01
  2        1.962000000         0.1379770000
  3       0.4446000000         0.4781480000
 S   1
  1       0.1220000000          1.000000000
 P   1
  1       0.7270000000          1.000000000
 S   1
  1       0.297400000E-01      1.00000000
 P   1
  1    0.141000000          1.00000000

H     1.0             -4.5171506        .0000000      -4.5767004
S   3
  1        13.01000000         0.1968500000E-01
  2        1.962000000         0.1379770000
  3       0.4446000000         0.4781480000
 S   1
  1       0.1220000000          1.000000000
 P   1
  1       0.7270000000          1.000000000
 S   1
  1       0.297400000E-01      1.00000000
 P   1
  1       0.141000000          1.00000000
 
 $end 
 $efrag water                                                                   
coord=cart polmethd=frgscf                                       
FRAGNAME=WATER
O1        -.1191510        .0000000        .0000000
H2         .9455100      -1.4310420        .0000000
H3         .9455100      1.4310420        .0000000
 $end                                                                           
 $water                                                                         
 TITLE                                                                          
 COORDINATES                                                                    
O1          .0000000000    .0000000000   -.1191510000  15.9949100  8.0          
H2         -1.4310420000    .0000000000    .9455100000   1.0078250  1.0         
H3          1.4310420000    .0000000000    .9455100000   1.0078250  1.0         
BO21       -.7155210000    .0000000000    .4131795000    .0000000   .0          
BO31        .7155210000    .0000000000    .4131795000    .0000000   .0          
 STOP                                                                           
 MONOPOLES                                                                      
O1        -7.3982441969   8.00000                                               
H2          -.7590328409   1.00000                                              
H3          -.7590328409   1.00000                                              
BO21       -.5418450607    .00000                                               
BO31       -.5418450607    .00000                                               
 STOP                                                                           
 DIPOLES                                                                        
O1           .0000000000     .0000000000     .9278468653                        
H2           -.1155511958     .0000000000     .0474310253                       
H3            .1155511958     .0000000000     .0474310253                       
BO21         .1416251128     .0000000000    -.1225428935                        
BO31        -.1416251128     .0000000000    -.1225428935                        
 STOP                                                                           
 QUADRUPOLES                                                                    
O1         -2.9052623204   -4.1444153290   -3.3556741004     .0000000000 >      
     .0000000000     .0000000000                                                
H2           -.5291141322    -.5300857127    -.5243585482     .0000000000 >     
     .0005083097     .0000000000                                                
H3           -.5291141322    -.5300857127    -.5243585482     .0000000000 >     
    -.0005083097     .0000000000                                                
BO21        -.0337565705    -.2904531621    -.1758939845     .0000000000 >      
    -.0965085591     .0000000000                                                
BO31        -.0337565705    -.2904531621    -.1758939845     .0000000000 >      
     .0965085591     .0000000000                                                
 STOP                                                                           
 OCTUPOLES                                                                      
O1           .0000000000     .0000000000    2.4378825979     .0000000000 >      
     .9118969717     .0000000000     .7633854397     .0000000000 >              
     .0000000000     .0000000000                                                
H2           -.3057516009     .0000000000     .0787841441     .0000000000 >     
     .0244828858    -.1026695055     .0266543532    -.1012365439 >              
     .0000000000     .0000000000                                                
H3            .3057516009     .0000000000     .0787841441     .0000000000 >     
     .0244828858     .1026695055     .0266543532     .1012365439 >              
     .0000000000     .0000000000                                                
BO21         .5531778277     .0000000000    -.4402049453     .0000000000 >      
    -.1927759072     .1482613471    -.1413533058     .1877478181 >              
     .0000000000     .0000000000                                                
BO31        -.5531778277     .0000000000    -.4402049453     .0000000000 >      
    -.1927759072    -.1482613471    -.1413533058    -.1877478181 >              
     .0000000000     .0000000000                                                
 STOP                                                                           
 SCREEN
O1             .047344       .274009
H2             .467925      1.126551
H3             .467925      1.126551
BO21           .019952       .101585
BO31           .019952       .101585
 STOP
 POLARIZABLE POINTS                                                             
 CT1   -.0000000004    .0000000000   -.1187177860                               
     .0044005416     .0057649397     .0038792532     .0000007268 >              
     .0000002718    -.0000004419     .0000007048    -.0000002637 >              
     .0000004001                                                                
 CT2    .7512087500    .0000000013    .4928821612                               
    2.1769913976    1.1885399471    2.0373693837     .0000453985 >              
    1.2150088257     .0004567637     .0005551853     .5661371420 >              
     .0000414513                                                                
 CT3   -.7512097237    .0000000007    .4928813085                               
    2.1774393514    1.1885443098    2.0373637561     .0000364292 >              
   -1.2150538735     .0001599781     .0002592752    -.5661544328 >              
    -.0000163458                                                                
 CT4    .0000003420    .4942527214   -.3775292793                               
    2.7294847809    3.2199480337    2.5142416849     .0000357897 >              
    -.0002162955    -.1091018588     .0007192805    -.0000120880 >              
    -.7135736705                                                                
 CT5    .0000003424   -.4942527235   -.3775292722                               
    2.7294917686    3.2202066009    2.5143367696    -.0001183662 >              
    -.0000247742     .1088393761     .0007150278     .0000329149 >              
     .7135784265                                                                
 STOP                                                                           
REPULSIVE POTENTIAL
O1      2
 -.1167393899           .2303709401
1.3190087171           .3769591493
H2       2
.0000969320           .0900000000
.1466606010           .6573461761
H3       2
.0000969320           .0900000000
.1466606010           .6573461761
 STOP
 $end                                                                           
 $FRGRPL
 $END

! TRAVIS-CI SMALL

! TRAVIS-CI SKIP
