!    restricted open shell reference geom. opt. with spin-flip TDDFT
!    H2CO plus 4 EFP...test case from Noriyuki...August 2012
!
!    NSERCH:   0  E=     -114.5150027968  R.M.S.=  0.0010025
!    NSERCH:   1  E=     -114.5149616151  R.M.S.=  0.0009338
!    NSERCH:   2  E=     -114.5149213882  R.M.S.=  0.0014200
!    NSERCH:   3  E=     -114.5149619384  R.M.S.=  0.0012358
!                ...
!    NSERCH:  23  E=     -114.5150165550  R.M.S.=  0.0000576
!    NSERCH:  24  E=     -114.5150161016  R.M.S.=  0.0000674
!    NSERCH:  25  E=     -114.5150167779  R.M.S.=  0.0000195
!
!    This run takes 571 seconds on 2.66 GHz Cloverton (2 Sep 2012)
!
!-----------------------------------------------------------------------
! H2CO
!-----------------------------------------------------------------------
 $CONTRL RUNTYP=OPTIMIZE SCFTYP=ROHF DFTTYP=BHHLYP TDDFT=SPNFLP MULT=3
         MAXIT=100 $END
 $SYSTEM MWORDS=20 $END
!-----------------------------------------------------------------------
! Wave function
!-----------------------------------------------------------------------
 $GUESS GUESS=MOREAD NORB=40 $END
 $BASIS GBASIS=DH NDFUNC=1 NPFUNC=1 $END
 $SCF DIRSCF=.T. $END
 $TDDFT NSTATE=5 IROOT=1 MULT=1 TAMMD=.T. $END
!-----------------------------------------------------------------------
! Geometry
!-----------------------------------------------------------------------
 $DATA  
H2CO+4EFP SF-BHHLYP/DZP S0
C1
 O           8.0   2.0065177031  -1.2031129862  -1.2169950460
 C           6.0   1.6980755869  -0.9875281118  -0.0808327687
 H           1.0   0.6926337598  -1.1837470950   0.3070746434
 H           1.0   2.4085937003  -0.5732667969   0.6457050638
 $END
 $EFRAG

 FRAGNAME=H2ODFT
 O1               -0.2607558609  -1.2192926828  -2.8464034949
 H2                0.5798699552  -1.4061847697  -2.4600124504
 H3               -0.1088336171  -1.0653933575  -3.7651597649
 FRAGNAME=H2ODFT
 O1               -1.2258944512   0.6375267225  -1.1452541210
 H2               -1.7100302701   0.1762400402  -0.4791418483
 H3               -1.0191509795   0.0067132591  -1.8162309949
 FRAGNAME=H2ODFT
 O1               -1.4822435061  -0.0932740441   1.5185526334
 H2               -2.0307828966   0.0350780839   2.2758562200
 H3               -0.8073112399   0.5653710870   1.5576867793
 FRAGNAME=H2ODFT
 O1                0.4945917252   1.5140297733   0.6032952713
 H2                0.7936956145   2.4091881340   0.6136309767
 H3                0.0094500242   1.3993456937  -0.1981805836
 $END
--- OPEN SHELL ORBITALS --- GENERATED AT Tue Aug 21 00:40:12 2012
H2CO+4EFP SF-BHHLYP/DZP S0                                                      
E(RO-BHHLYP)=     -114.3824568977, E(NUC)=   31.5047046498,   20 ITERS
 $VEC   
 1  1 9.98694192E-01 3.23472961E-03 4.41761294E-03-3.64265345E-04 2.44691530E-04
 1  2 1.30840046E-03-7.51372674E-05 4.36810638E-05 2.48147077E-04-1.84868372E-03
 1  3-1.76752189E-03-1.29430679E-03-7.68174630E-05-1.69637086E-04 9.70568501E-05
 1  4-6.95500458E-05 1.51134591E-04-9.74085090E-04-9.95699712E-05 7.54711444E-05
 1  5 3.78165521E-04-1.72912087E-04 1.18732941E-04 6.24860044E-04-1.61689856E-04
 1  6-7.23269848E-05-5.43883334E-04-1.73749258E-06 1.42614865E-04-1.13495034E-04
 1  7 9.82542816E-05-6.59065586E-05 5.53855307E-05 1.45695273E-05-8.17835598E-06
 1  8 9.72273395E-05-5.16545578E-05-4.14954031E-05-1.96016906E-05-2.60763219E-05
 2  1-2.71128675E-04 6.00987698E-04-1.38810284E-03-1.20309064E-04 9.16516778E-05
 2  2 4.54180941E-04 1.88381301E-04-1.26471253E-04-7.16868390E-04 8.42834331E-05
 2  3 6.06663841E-05 4.36576583E-05 1.01085149E-05 7.36017762E-06 6.13325945E-06
 2  4 9.96600116E-01 1.81312094E-02 8.72915006E-04 4.84177463E-04-3.51391518E-04
 2  5-1.61535773E-03-2.94531076E-05 2.64371165E-05 1.02430540E-04-5.39390500E-03
 2  6-5.13371398E-03-4.64740953E-03-1.59674010E-04-2.13293980E-04 8.56594791E-05
 2  7 6.56193039E-04-1.30596574E-04 4.38838392E-04 8.86210715E-05-1.71914683E-04
 2  8 6.33158829E-04-1.41893729E-04-2.99736143E-04-1.69829390E-04-3.03573442E-04
 3  1-2.16504396E-01 4.77113841E-01 3.16409968E-01-4.74472968E-02 2.99804962E-02
 3  2 1.61282778E-01-1.96427539E-03-2.75369811E-03-1.43569227E-02-2.36689166E-04
 3  3-4.96805978E-03 1.82791118E-02 6.63625615E-05-6.12097305E-03 5.56288754E-03
 3  4-1.09969303E-01 2.02312777E-01 1.01026198E-01 5.08225660E-02-3.56605388E-02
 3  5-1.87098756E-01 3.15625335E-04 1.57204317E-03 1.34216231E-02-1.29940937E-02
 3  6-1.45486164E-02 2.63933798E-02-2.60677245E-03-1.32986449E-02 9.45233662E-03
 3  7 2.73904703E-02-2.05492743E-03 5.45062927E-03 9.82288865E-04-2.60659117E-03
 3  8 2.78960774E-02-5.05463199E-03-3.68804225E-03-2.26484859E-03-4.34852396E-03
 4  1 1.01511374E-01-2.23458909E-01-2.88076656E-01-5.99148881E-02 4.90736676E-02
 4  2 2.64422831E-01-1.96673507E-02 2.59553986E-02 1.03801650E-01-5.68020880E-04
 4  3-2.56945748E-04 2.15888692E-02-1.84553995E-03-8.35079638E-03 5.08521336E-03
 4  4-1.71144247E-01 3.59900028E-01 2.23133200E-01-3.16321107E-02 2.23290547E-02
 4  5 1.29437785E-01-9.99239357E-03-9.11809937E-03 2.99729700E-02 1.53671770E-02
 4  6-2.64085245E-03-3.57720859E-03 8.29247185E-03 4.44249052E-03 1.68286415E-03
 4  7 1.63929143E-01 6.62216565E-02 1.27927304E-02 2.61326512E-03-4.13614396E-03
 4  8 1.65196724E-01 7.97524325E-02-9.28468071E-03-5.40273698E-03-8.43709087E-03
 5  1 5.34167584E-02-1.02861083E-01-2.52681410E-01-6.53715547E-02 1.17907538E-01
 5  2 5.34892524E-01-8.02135027E-03 3.37992741E-02 1.70336163E-01-4.51346278E-03
 5  3-7.55479296E-04 3.40880083E-02-2.68449629E-03-8.62933888E-03 9.06540489E-03
 5  4 1.35542865E-02-2.00125227E-02-7.57095106E-02 2.11109136E-01-3.82193079E-02
 5  5-3.71821393E-01 2.29061923E-03 1.74733386E-02 1.80674752E-02-1.93387043E-02
 5  6-6.50619072E-03 1.06470894E-02-7.60405412E-03-8.98119615E-03 2.99292238E-03
 5  7-1.65236865E-01-1.39352432E-01-8.25479300E-03-1.91211716E-03 1.31914741E-03
 5  8-7.52932460E-02-7.41273338E-02 4.75135931E-03 1.32804587E-03-7.33891469E-04
 6  1-1.50042871E-02 3.16659662E-02 6.34776953E-02 2.89758261E-01 5.26598286E-02
 6  2-7.33077713E-02 8.77322930E-02 1.38802475E-02-2.28374822E-02-8.91247002E-03
 6  3 3.51543929E-03-1.48689549E-04 2.43857079E-03 2.11444946E-02 5.18310630E-03
 6  4-3.76612045E-04 1.49229946E-04 2.08660596E-03 4.28690116E-01 1.73130344E-01
 6  5 1.83539718E-01 8.28323727E-02 2.73936028E-02 9.98506821E-03 4.06493798E-03
 6  6 2.07244463E-03-2.00902318E-03 1.32175275E-03 3.93114042E-03 3.92504260E-04
 6  7-1.71744464E-01-1.04765921E-01-7.58142046E-03 1.79247534E-04 7.65627590E-03
 6  8 2.26080107E-01 1.70901038E-01-5.16284108E-03-5.19166008E-03-9.96881749E-03
 7  1 1.20755689E-03-4.09425074E-03 1.34930416E-04-1.88751687E-01 6.16705917E-01
 7  2-1.62800211E-01-8.51040519E-02 2.61652672E-01-6.87582199E-02 3.78498267E-03
 7  3 7.56144392E-03-1.21817695E-02-9.80336196E-03-5.29468046E-03 2.47346805E-02
 7  4-1.18605468E-03 6.09704654E-03-1.46470877E-02-7.26856757E-02 2.83032532E-01
 7  5-7.18949467E-02-4.04968869E-03 4.94604016E-02-1.65088657E-02-3.20518552E-03
 7  6-8.72891229E-03 1.36026396E-02 9.12461972E-03 6.67209480E-03-2.55715409E-02
 7  7-3.97355416E-03 5.64619369E-03-1.28404853E-03 4.30249253E-03-1.03495843E-03
 7  8 8.68904186E-03 6.62371527E-03-1.59521970E-03 4.08246375E-03-1.43486108E-03
 8  1-4.00765445E-03 1.57522750E-02-1.35707937E-03 6.66318488E-01 2.41062481E-01
 8  2 1.16049891E-01 3.04169633E-01 1.09692683E-01 5.88498186E-02-6.10238722E-03
 8  3 4.63468554E-03 5.74658852E-03 7.38143568E-04 1.21614254E-02 5.28210893E-03
 8  4 3.42786863E-04-1.57184312E-03 1.28124605E-02-1.72508193E-01-5.22998759E-02
 8  5-2.68595295E-02-2.54971417E-02-8.63872048E-03-4.53886328E-03 1.83869162E-02
 8  6-4.57321501E-03-1.34287513E-02-3.35746150E-03-3.64178626E-02-1.54050824E-02
 8  7 1.57557876E-01 1.83657772E-01 2.95495552E-03-2.59435895E-04-3.55010009E-03
 8  8-1.55148839E-01-1.98528745E-01 6.98838346E-04 2.08387911E-03 4.38614455E-03
 9  1 2.47065312E-03 1.56342917E-03-3.59116980E-02 1.14499074E-01-3.86529626E-01
 9  2 9.93944469E-02 7.83789192E-02-2.96608756E-01 9.29491009E-02 4.80870270E-03
 9  3 7.01339238E-03-2.99984333E-03-3.54472031E-03-3.76854974E-03 1.23773299E-02
 9  4-3.54291848E-04 2.38087399E-02-1.05247858E-01-2.17039794E-01 6.90106912E-01
 9  5-1.71634076E-01-6.06684210E-02 3.65344007E-01-1.88034789E-01 8.34576923E-03
 9  6 1.05794906E-02-7.20067344E-03-6.43840313E-03-4.29148464E-03 2.03960627E-02
 9  7 1.10338881E-02 7.75629992E-02-5.55985711E-03 2.23792037E-02-6.00074391E-03
 9  8 9.95791357E-03 4.33304060E-02-7.62977909E-03 2.17946987E-02-5.88673810E-03
10  1 2.32847671E-02 2.83196886E-04-3.83058708E-01 1.76165681E-02-2.40714788E-02
10  2-9.35809129E-02 6.94606334E-02-4.94928881E-02-2.63571096E-01 1.13941604E-02
10  3 2.60603497E-02 1.36140739E-02-5.11586498E-03 3.05573385E-03-3.10791512E-03
10  4-1.28740958E-01 2.66394388E-01 2.41138376E+00-1.92992424E-02 8.01978880E-02
10  5 2.72452634E-01-1.23904130E-01 8.14325055E-02 4.51853490E-01 7.58890559E-04
10  6 1.20381344E-02 1.28789602E-02-5.29198100E-03-2.45565941E-03-1.30441451E-03
10  7-7.40018863E-02-1.50426035E+00 6.51979392E-03 5.09088320E-03 7.60469618E-03
10  8-5.46472446E-02-1.61266655E+00-1.13531306E-02-1.95332135E-03 9.15369172E-04
11  1-1.07197186E-01 9.19750924E-02 1.47387023E+00-3.97102861E-03-9.54207106E-03
11  2 6.82650511E-02-3.96716130E-02 1.18579957E-01 3.45060076E-01-6.26398335E-02
11  3-5.70891794E-02-4.72034000E-02-4.68221735E-03-6.97826768E-03 8.70686820E-03
11  4 2.05708321E-02 6.59169900E-03-5.04547058E-01-7.33712409E-02 1.49345769E-01
11  5 9.42459316E-02-6.38310807E-01 7.23540592E-02 1.57558121E+00-1.75366603E-02
11  6-3.41409313E-03 3.66736486E-02-1.00115598E-02-1.67181397E-02 9.70713123E-03
11  7 2.40752671E-02-6.89325793E-01 3.54409731E-03 9.95969141E-03 1.67980370E-02
11  8 2.53337010E-02-2.88734694E-01-1.64515752E-02 2.18754652E-03 1.09855085E-02
12  1-3.00996805E-03 1.52367616E-02 1.83317683E-02-2.61700614E-02-1.08238718E-02
12  2-7.24691394E-03-1.85690268E-01-7.44037700E-02-3.47412561E-02 1.69242239E-02
12  3-1.38800121E-03-7.80988416E-03-2.96622848E-03-3.15391647E-02-1.62099167E-02
12  4-6.05741774E-03 3.17336655E-02 6.65563075E-02-7.36094174E-01-3.19186412E-01
12  5-1.08983051E-01 1.34116316E+00 5.81271817E-01 3.27969530E-01-7.99563778E-03
12  6 5.66807123E-03 1.10588193E-02-9.09744366E-05 1.43930487E-02 7.09479103E-03
12  7 7.35950015E-02 1.67218911E-01 3.74644148E-02 5.32920804E-03-1.83895309E-02
12  8-8.53899417E-02-3.39381087E-01 1.91663161E-02 1.30606539E-02 3.23764334E-02
13  1-7.56815015E-03 2.73094897E-02 6.29647245E-02-2.87346862E-01-1.04135910E-01
13  2-3.83093065E-02-4.75550070E-01-1.67152094E-01-7.13237358E-02-4.25331470E-03
13  3 3.36891395E-03 9.08109688E-03 2.40314790E-03 1.53858388E-02 3.14332287E-03
13  4 6.63378654E-03 2.80751109E-03-1.26638339E-01 4.14528172E-01 8.36466456E-02
13  5 1.09206301E-01 2.38857327E+00 9.60480119E-01 5.32226501E-01 9.72236109E-03
13  6-3.55687678E-03 1.05454747E-04-3.43683759E-03-2.38245027E-02-5.53115621E-03
13  7 8.09007638E-02 2.29876737E+00-5.32329820E-03 3.58033700E-03 2.47963909E-02
13  8-6.25913348E-02-2.25541099E+00 3.38836150E-03-4.75349985E-03-1.94854338E-02
14  1-2.53118093E-02 6.22360724E-02 2.89153692E-01 6.07221755E-02-7.68420932E-02
14  2 2.85798334E-02-1.95753631E-02 2.16172948E-02 2.74732007E-01-3.78557711E-03
14  3-1.43936968E-02 2.15765087E-02 1.38252979E-02 9.02238176E-03-3.51508101E-02
14  4 8.89578520E-03 1.41093779E-01-8.17361964E-01 2.00889742E-01-7.13726107E-01
14  5 3.88504028E-01-5.96063080E-01 9.32282675E-01-3.72332466E-01 2.75710809E-02
14  6 2.23588756E-02 2.24053360E-02-2.88534963E-03-6.47073135E-03 2.14107906E-02
14  7 5.84372660E-02-5.45583665E-02 5.24654770E-03-4.63589961E-03 3.88288125E-03
14  8 8.31266868E-02 3.42150447E-01-8.08827485E-03-8.71170565E-03 2.68716195E-03
15  1 6.19448261E-02-2.25540062E-01-5.32364351E-01 1.74615341E-02-7.17299369E-02
15  2 2.19137527E-01 2.42655680E-01-1.22037280E-01-1.27454821E+00-5.02770109E-02
15  3-2.84166406E-02-2.39318563E-02-7.43877366E-03-1.04503947E-04-1.16717619E-02
15  4-1.80831393E-02-2.61473059E-01 2.63984438E+00 2.34333401E-01-2.72748080E-01
15  5-6.36152062E-01-2.33153872E-01 3.36823838E-01 7.42068292E-01-8.53470776E-02
15  6-2.78644782E-03-1.89167105E-02-4.32360075E-02-2.57174946E-02 3.51655841E-04
15  7-2.57789496E-01-6.29158524E-01-1.50942637E-02 4.22359381E-03 2.31314270E-02
15  8-2.66136642E-01-6.51357825E-01-2.60664309E-03 8.59500285E-03 2.52551001E-02
16  1-4.64864545E-03-6.55523147E-02 2.36598402E-01 1.48942291E-01-1.92984799E-01
16  2-5.93288303E-01-2.38056664E-01 2.99845522E-01 9.90745753E-01-9.26738204E-03
16  3-1.06490919E-03 5.60381480E-02-8.35685842E-03-2.25208125E-02 7.49796344E-03
16  4-7.44164756E-02-6.29600918E-01 8.50720573E-01 3.70632039E-02-6.24028920E-02
16  5-9.07602264E-02-1.45519483E-01 9.15600457E-02 3.56915512E-01-1.00804726E-01
16  6 1.58064452E-02-2.57174891E-01-3.24054664E-02 6.73849462E-02-6.48660119E-02
16  7-2.61152076E-01-2.18327465E-01 1.20984567E-02-4.26577149E-03-3.35267330E-02
16  8-2.51314101E-01-2.01709804E-01 7.24567740E-03-6.04412090E-03-3.50666031E-02
17  1-4.59329236E-02 1.48402011E-01-3.96039608E-02-9.32552555E-02 6.49300102E-02
17  2 4.89263431E-01-1.15680912E-01 6.97463204E-02 1.71795343E-01 4.52296032E-02
17  3 6.59126744E-02-1.45186197E-01 6.93317980E-03 6.63582870E-02-5.01065421E-02
17  4 5.79388369E-02-9.54507697E-01 1.13161214E+00-1.97980526E-01 1.40447304E-01
17  5 7.51851030E-01 1.17946483E-01-5.34585223E-02-2.81211468E-01-2.19564872E-01
17  6-1.15578029E-01 7.05759270E-02-6.50982817E-02-9.16219785E-02 2.89377890E-02
17  7-1.94776145E-01-1.16060610E-01 3.53775891E-02 2.47507593E-02 5.28008964E-02
17  8-2.05060383E-01-1.37728777E-01-5.95233262E-02-9.03876353E-03 3.40882500E-02
18  1-2.97077439E-03 1.35416859E-02 2.19922951E-02 2.19149120E-01-7.89861705E-01
18  2 2.18788432E-01-3.65510942E-01 1.30147324E+00-2.98864088E-01 3.81365097E-03
18  3-7.36909465E-03 5.11660550E-03 5.97665378E-03 3.80385703E-03-1.32890341E-02
18  4 7.15817939E-03 7.07392070E-02-2.68418980E-01-3.92695654E-02 6.86818046E-02
18  5 1.83366689E-02 2.06736829E-01-6.61937714E-01 6.50822263E-02 3.69655492E-02
18  6 4.18934962E-03-7.59933701E-03 5.45882797E-03-1.10077052E-03 4.82451334E-02
18  7 7.32944842E-02 3.35440907E-02 1.10450526E-03-2.26368044E-02-2.18430795E-03
18  8 8.83202511E-02 3.61976779E-02 1.61243834E-02-1.64566856E-02 2.40514845E-03
19  1 2.21585810E-03 3.00617232E-02-1.20612598E-01-6.51706575E-01-2.01074454E-01
19  2-8.96321079E-02 1.49089861E+00 4.70144151E-01 2.02313246E-01 4.00866527E-02
19  3 5.61559941E-03-2.12066254E-02-7.53999898E-03-6.60555721E-02-3.07256529E-02
19  4 6.61756846E-03-4.19788169E-02 2.07754394E-01-2.14993383E-01-9.21688487E-02
19  5-4.90808639E-02-1.24649349E+00-4.11491410E-01-2.60747542E-01-9.21248828E-02
19  6 1.43757727E-02 7.61158038E-02 1.83515382E-02 1.69079104E-01 7.78957125E-02
19  7-2.95610924E-01-4.82594400E-01 3.37415754E-02 4.91089363E-03-2.23851122E-02
19  8 3.16253583E-01 3.73684259E-01 1.95756063E-02 1.93316637E-02 4.38050227E-02
20  1 6.53131243E-03 2.29675788E-01-8.66704612E-01 2.33485972E-02 5.11026073E-02
20  2 3.93927981E-02 1.15311053E-02-1.43811853E-01-3.15933396E-01 6.97016613E-02
20  3 8.66030567E-02 4.63922680E-02-5.10062795E-03 7.39837652E-03-1.23294858E-02
20  4 7.03895777E-02-1.07853315E+00 3.41456710E+00 8.81965659E-02-9.33147157E-02
20  5-3.60041082E-01-3.22864420E-02 2.37581395E-01 6.73948497E-01 1.21716516E-01
20  6-1.58435341E-01-6.12167365E-02 1.23852384E-01 3.91230991E-02 6.09440351E-02
20  7 6.49477978E-01-1.59239376E+00-1.21171507E-01-3.03217764E-02 9.40545706E-03
20  8 7.18458841E-01-1.86575737E+00 1.05254285E-01 5.16335188E-02 6.09032872E-02
21  1-9.52218843E-04 1.14670524E-03 3.25292722E-02 4.86376670E-01 1.69734256E-01
21  2 8.78887051E-02-9.41285288E-01-3.23303054E-01-1.53759528E-01 3.34352558E-02
21  3-1.06120922E-02-2.32899039E-02-6.40521432E-03-6.78123179E-02-2.61771639E-02
21  4-3.97443151E-03 6.24208170E-02-2.20338067E-01-2.74034746E-01-8.57598781E-02
21  5-3.74367717E-02 2.21390951E+00 7.65910343E-01 4.03066729E-01-1.23437865E-01
21  6 3.79237593E-02 9.01422645E-02 1.84276509E-02 2.36038385E-01 9.51016022E-02
21  7-7.72528210E-01 2.43010034E+00 5.64173035E-02 9.69891313E-04-5.65189386E-02
21  8 6.97813792E-01-2.21383978E+00 9.61245626E-03 2.02145857E-02 6.88338606E-02
22  1 1.86978373E-04 8.16667889E-03-2.04834362E-02 1.09982973E-03-5.42053435E-04
22  2-7.41956584E-05-3.17459028E-03-1.60054020E-03-4.94988921E-03-8.90839343E-02
22  3 1.08807214E-01-1.39816665E-02 1.52799123E-01-5.70467144E-02 1.99416473E-02
22  4-2.76901109E-06 2.22571942E-04 9.73927862E-03 9.04163157E-05-5.74369831E-04
22  5-1.22133595E-03 7.42617332E-03 9.58502216E-04-3.51405536E-03-3.06355404E-01
22  6 3.61200125E-01-5.54081154E-02 5.21846804E-01-1.97214040E-01 5.92232814E-02
22  7-2.02365151E-03 4.69981835E-03 9.18600453E-02-3.03208685E-01 8.44462548E-02
22  8 1.35573978E-03-4.57954698E-03-9.13144460E-02 3.05988612E-01-8.46464979E-02
23  1-5.16599442E-02-1.81242495E+00 4.55799972E+00-2.91210420E-02 2.44539215E-02
23  2 6.76101472E-02-2.19410284E-01 1.60694285E-01 8.77972024E-01-3.13076068E-01
23  3-4.14234738E-01-5.98199173E-01 6.20981754E-02 8.79995808E-02-4.12730736E-02
23  4-1.20116038E-02-1.10165054E-01-1.86066143E+00-8.22485782E-02 4.63842673E-02
23  5 2.80689432E-01-2.91661788E-01 2.18314961E-01 1.09790045E+00 2.11444378E-01
23  6-4.15494112E-02-1.08512643E-01 1.22068525E-01 7.52806490E-02 3.93556418E-02
23  7 7.99048166E-02-9.95543210E-02 1.33464836E-02 5.64952755E-03-1.92439233E-02
23  8 9.34625652E-02-1.27655917E-01-4.50714376E-03 2.08024944E-03-2.83840140E-02
24  1 1.26628323E-03 6.08545442E-02-1.44097615E-01-4.38550220E-02 1.47788710E-01
24  2-3.98662875E-02-4.71941861E-02 1.62502800E-01-6.95388249E-02-3.91472046E-02
24  3-1.04386859E-01 1.84662812E-01 1.13629205E-01 7.93560523E-02-3.31965437E-01
24  4-3.55315637E-04 1.54809982E-02 2.68943266E-02-1.94582041E-02 6.01222651E-02
24  5-1.70449521E-02 8.87391182E-02-2.33160631E-01 1.42957929E-02 7.67669885E-02
24  6 1.95015415E-01-2.78755396E-01-1.94855237E-01-1.39302511E-01 5.64400374E-01
24  7-8.67217678E-03 2.57924299E-02-6.28957472E-02 2.14362783E-01-6.07757878E-02
24  8-4.87852201E-03 1.33173989E-02-6.35763645E-02 2.14160247E-01-6.13228185E-02
25  1-1.13119502E-03 4.69524933E-01-9.61949572E-01-3.33613039E-02 2.47835688E-02
25  2 1.16046394E-01 1.00030482E-01-7.60011653E-02-3.49355213E-01 4.73590187E-01
25  3-3.23749480E-01 9.38370257E-02 3.38597812E-01 5.27332387E-02 1.95061410E-01
25  4-1.61660827E-02-1.47902854E-01 1.19289218E+00-1.51557199E-02 5.89869356E-04
25  5 5.53605913E-02-3.16004637E-02 3.82082574E-02 1.05507326E-01 3.38189704E-01
25  6-4.14848512E-01-8.08040468E-02 3.23972614E-01 6.57921494E-02 1.58841988E-01
25  7-3.63578580E-01-1.77090529E-01 4.92655474E-02-4.10944951E-02-2.15870894E-01
25  8-3.59047372E-01-1.80305651E-01 5.96154351E-02-3.70379432E-02-2.12041404E-01
26  1 3.80961040E-04-2.78784588E-03-1.01934964E-02 1.08269045E-01 3.60084748E-02
26  2 1.29998116E-02-1.16956195E-01-3.95167683E-02-2.28106440E-02 1.48804482E-01
26  3-3.45650101E-02-1.16501145E-01-2.07373522E-02-3.09057226E-01-1.28370882E-01
26  4-1.75173134E-04-2.80365857E-03 1.39557272E-02 2.32030120E-01 8.15299698E-02
26  5 3.65698294E-02 1.03401957E-01 3.25847200E-02 1.56551977E-02-1.75701959E-01
26  6 3.74800036E-02 1.38307530E-01 4.08120485E-02 3.54287780E-01 1.56201503E-01
26  7 5.15910508E-01-3.31290325E-01-3.16341625E-01-1.59039338E-01-2.37314984E-01
26  8-5.10442749E-01 3.22951918E-01-4.14566839E-01-9.81476558E-02 1.03266875E-01
27  1-4.09954219E-04-3.89687241E-03 1.34977276E-02-4.82233788E-04 1.74457265E-04
27  2 1.22640492E-03-2.90114976E-03 3.71278326E-03 5.96100672E-04-4.09020254E-01
27  3 4.82253924E-01-7.74463038E-02 6.92562961E-01-2.61632762E-01 8.30138914E-02
27  4 2.93527906E-05-9.48830920E-04-5.52055017E-03-6.00939645E-04-8.27016167E-04
27  5 2.25985850E-03-2.78773508E-03-1.25960373E-03 2.80829799E-03-1.84262699E-02
27  6 2.55076533E-02-7.13600498E-03 3.61036196E-02-1.63904619E-02 5.23712280E-03
27  7-3.50667799E-03 1.61026423E-03-7.85022960E-02 2.79563068E-01-6.91542813E-02
27  8 2.45789428E-03-8.57365073E-04 9.22209672E-02-2.76780706E-01 6.99140520E-02
28  1 3.25673048E-02-3.39734664E-01-2.09921763E-01 1.34991446E-01-9.12622761E-02
28  2-4.80158795E-01-6.23849046E-02 5.31907012E-02 2.43359589E-01 2.62423941E-01
28  3-3.64955570E-01 1.26134539E-03 2.51674726E-01-1.51239324E-02 1.35851076E-01
28  4-3.98078791E-02 5.75876322E-02 1.78417065E-01 1.02746818E-01-5.93498654E-02
28  5-3.60291681E-01 5.07655235E-02-8.55719167E-02-3.38322245E-01-1.91665022E-01
28  6-2.73162461E-01 4.29171360E-01-1.73587323E-02-2.12232575E-01 1.71530513E-01
28  7 1.21686293E-01-6.27489275E-02 6.87962086E-02 1.48082770E-01 4.88687362E-01
28  8 1.02496658E-01 1.10279512E-02-2.35900278E-01 1.56026630E-02 3.45280498E-01
29  1 3.22026839E-03-3.31527019E-02-3.77236191E-03-6.73708546E-02-3.42316242E-02
29  2-5.10781511E-02 2.54158362E-02 1.63496815E-02 3.28408743E-02-2.32826754E-01
29  3 4.01341592E-02 1.88694418E-01 7.75966317E-02 5.06008973E-01 2.23323926E-01
29  4-2.85235890E-03 6.21007614E-03-5.63307132E-03-1.10782746E-01-4.49151618E-02
29  5-4.96813785E-02 4.07552531E-01 1.36498509E-01 5.32767320E-02 1.78215973E-02
29  6-2.18731275E-02 3.69419041E-03-9.88812399E-03-8.53653415E-02-1.95366806E-02
29  7-1.57083593E-01 4.40481493E-01-9.38838547E-02-1.58986781E-01-4.85452508E-01
29  8 1.78570318E-01-4.37445214E-01-3.73038815E-01 1.04519671E-02 4.71615587E-01
30  1 9.00299319E-06 1.76934364E-01 6.63490248E-02-7.25729561E-02 5.00614359E-02
30  2 2.73846541E-01 3.11962165E-02-1.60358278E-02-1.20740022E-01 5.39483492E-01
30  3-2.92274405E-01-6.41705234E-02 3.65353802E-01 1.07743029E-01 1.52113168E-01
30  4 6.13489740E-02 4.96502117E-02-4.22949731E-01-5.31741048E-02 3.89732860E-02
30  5 2.14162275E-01-1.75387929E-02 1.52122152E-03 6.15820701E-02-6.60594915E-02
30  6 7.47233010E-01-2.43502402E-01-2.97587186E-01 1.42153114E-01-3.18324224E-01
30  7 1.89537932E-01-6.98880303E-02-2.33035383E-01-5.28110893E-02 1.61223068E-02
30  8 1.81190842E-01-5.83460658E-02 1.92939919E-01 9.70115561E-02 9.73311714E-02
31  1 1.66076761E-05-6.83840404E-03-3.51094908E-04 2.65687340E-02-7.82664740E-02
31  2 9.59322772E-03-7.44341795E-02 2.32846166E-01-5.45952532E-02 4.76628510E-02
31  3 1.37089753E-01-1.91922897E-01-1.37758452E-01-9.37099284E-02 3.83598403E-01
31  4-1.73081581E-03 1.25416864E-02-2.19809827E-02 1.04674764E-01-3.44205397E-01
31  5 8.86754345E-02 7.84433295E-02-2.27729713E-01 4.54126794E-02-2.18678705E-02
31  6-6.13707178E-02 7.28107384E-02 4.21787582E-02 2.52553778E-02-1.17354265E-01
31  7 1.65054945E-03 1.59622132E-02-1.88447685E-01 6.37560153E-01-1.70628782E-01
31  8 1.93147020E-03 8.25216200E-03-1.98416433E-01 6.36234564E-01-1.70528560E-01
32  1 1.12143242E-04 8.84463557E-04-3.06694104E-03-2.77188017E-04 3.19849441E-04
32  2-3.15648837E-04 1.07941727E-03 5.21345261E-03-1.39335275E-03 1.77450858E-01
32  3-2.02334486E-01 2.59601698E-02-3.04094357E-01 1.09981308E-01-2.17308348E-02
32  4-6.87919475E-05 8.38706172E-04 1.02463143E-03-1.06728805E-03-6.43892564E-03
32  5 2.24281990E-04-3.96096284E-03-2.63246910E-03-1.07018088E-03-3.80387900E-01
32  6 4.53550438E-01-7.39421493E-02 6.46605686E-01-2.44754644E-01 8.58508805E-02
32  7 1.65924059E-03-5.30301442E-03-1.75671889E-01 5.75969066E-01-1.55382574E-01
32  8-1.70272827E-03 5.49268543E-03 1.74070944E-01-5.80510826E-01 1.55276843E-01
33  1-1.60640497E-04 1.96748668E-02-4.09603231E-02-3.49385107E-02 1.14616699E-01
33  2-3.12993435E-02-9.31326326E-02 3.06668268E-01-1.02242915E-01 1.32198480E-01
33  3 2.99187571E-01-4.29825762E-01-2.86223818E-01-1.99170307E-01 8.27545846E-01
33  4 1.07809099E-03 1.38513350E-02-6.64927213E-04 8.57378999E-02-2.50844893E-01
33  5 5.12011475E-02 3.31804542E-02-7.85847023E-02 1.11873530E-02 1.34736123E-01
33  6 2.85534224E-01-4.18598070E-01-2.96670470E-01-1.96015987E-01 8.26581982E-01
33  7-3.41003599E-04 1.61538676E-02 8.45442704E-02-2.42045067E-01 6.96629106E-02
33  8-1.42173793E-04 2.61577984E-03 5.91850361E-02-2.26047233E-01 6.82954320E-02
34  1-1.93150369E-02-8.40380374E-01 2.06542110E+00-1.21137009E-02 1.27182178E-02
34  2 4.60690184E-02-2.42183342E-01 1.67492986E-01 8.67545413E-01-3.86592928E-01
34  3-5.03723473E-01 6.50850390E-01-4.38744342E-02-3.68192112E-01 2.90345667E-01
34  4-8.44712251E-02-4.32795181E-01-2.14996295E-01-2.52149523E-01 1.83137643E-01
34  5 9.74157917E-01-9.26158934E-02 8.14342947E-02 3.98083872E-01-3.25058882E-01
34  6-1.98097384E-01 1.38129759E-01-8.90157223E-02-1.42818931E-01 8.40901097E-02
34  7 1.15853038E-02-3.20071023E-01-3.62535518E-01-1.99133342E-01-3.05420952E-01
34  8 7.60000690E-03-3.46484158E-01 4.86512475E-01 1.07476047E-01-1.21672853E-01
35  1 6.40645463E-04 4.56889746E-03-2.99643706E-02-2.30088472E-02-1.19017153E-02
35  2-1.51300002E-02-4.83621375E-01-1.78527852E-01-1.10460772E-01 3.16558970E-01
35  3-7.20189461E-02-2.44709220E-01-5.85330345E-02-6.11211894E-01-2.72009732E-01
35  4-1.39019720E-03 2.12751779E-02 1.30051191E-02 8.58217808E-01 3.03277216E-01
35  5 1.52490937E-01 8.81603383E-01 3.13319965E-01 1.73742582E-01 1.28549248E-01
35  6-4.26661644E-02-9.14001482E-02-1.69870055E-02-2.69158000E-01-1.12153339E-01
35  7 2.65962691E-02 9.79133551E-01 4.69848338E-01 1.36856828E-02-4.84581181E-01
35  8-3.57979385E-02-9.76242659E-01 1.84483166E-01 2.22666123E-01 6.12180120E-01
36  1-5.61840370E-02-3.04508715E-02 1.56973594E+00-1.73745929E-01 1.19079772E-01
36  2 6.36829036E-01-2.27400132E-01 1.51735197E-01 7.95948190E-01-4.34864008E-01
36  3-4.91512810E-01 8.78726601E-01-8.86616973E-02-4.60070831E-01 3.06383088E-01
36  4 2.66938321E-02-1.08246456E+00-1.26714844E+00-2.25448347E-01 1.64729570E-01
36  5 8.55446452E-01 5.55509022E-02-2.67188358E-02-1.34578294E-01 3.40679953E-01
36  6 4.40825889E-01-9.43378134E-01 5.97931757E-02 4.24912748E-01-3.26964384E-01
36  7 7.58175012E-02 4.04963954E-01 3.93671468E-01 1.88223629E-01 2.48007344E-01
36  8 7.96025246E-02 3.71514210E-01-4.80175283E-01-1.20190046E-01 8.52587967E-02
37  1-1.02274117E-02 4.51135675E-01-5.13847609E-01-6.07686808E-02 4.26669852E-02
37  2 2.23541888E-01 4.66364502E-02-2.90651595E-02-1.54735722E-01-1.25107160E-01
37  3 1.16136265E-01 8.61319831E-02-1.07690233E-01-3.97919751E-02-3.30903877E-02
37  4-1.19106750E-01 8.35526043E-01 1.16534589E+00-1.75812158E-01 1.38216288E-01
37  5 6.97318089E-01-5.17677789E-03 9.02704618E-04 2.43187577E-04 6.85375501E-01
37  6-5.05646851E-01-5.58472334E-01 5.63157007E-01 3.13229948E-01 1.35540016E-01
37  7-5.50621551E-01-4.77179167E-01-7.40165210E-01-7.45973832E-02 5.41253905E-01
37  8-5.74097538E-01-4.68682197E-01 4.14654874E-01 3.36693284E-01 7.71369142E-01
38  1 1.38242873E-03-1.37384184E-03-3.14978718E-03 1.41782201E-01 5.19579272E-02
38  2 3.33830177E-02 2.33795117E-01 8.34454577E-02 4.78320295E-02-2.49816925E-01
38  3 6.64549602E-02 1.98061907E-01 4.98200804E-02 5.10533396E-01 2.15763330E-01
38  4 6.38965311E-03-4.47427250E-02-2.81789849E-02 8.51957850E-01 3.00324675E-01
38  5 1.58832354E-01-1.85615094E-01-6.66806450E-02-4.10548509E-02-6.22140504E-01
38  6 1.87818137E-01 4.81846575E-01 1.26470520E-01 1.28711657E+00 5.32232411E-01
38  7 7.89973948E-01 4.00600730E-02 8.75610836E-01 2.23471788E-01-1.43998644E-01
38  8-7.71287420E-01-1.65470355E-02 6.97995565E-01 3.30968503E-01 4.36609800E-01
39  1 4.99733649E-02 4.99831172E-02-1.67233211E-01-9.12442166E-02 6.66058578E-02
39  2 3.44481910E-01-4.79836933E-02 3.44119265E-02 1.93160782E-01 2.08623130E-01
39  3 1.02636131E-01 3.82188764E-01 3.00205942E-02-6.04122345E-02 7.59718158E-02
39  4-4.82485402E-01 2.53276893E+00 9.56457940E-01-5.04962260E-03 8.07478810E-03
39  5 4.35936599E-02-2.82824795E-02 2.07074540E-02 8.69989653E-02-1.96506504E+00
39  6-1.45762058E+00-1.99985393E+00-1.85928436E-01 8.14200217E-02-1.76822364E-01
39  7 4.44974281E-01-2.39831405E-01 3.93593728E-01 7.93216712E-02-1.39452127E-01
39  8 4.26542452E-01-2.35789095E-01-2.70217505E-01-1.55574756E-01-2.66448466E-01
40  1-5.43307759E-01-6.67825324E-02 4.86618769E+00 6.65978959E-02-4.70636107E-02
40  2-2.50715516E-01-1.71212560E-01 1.22515228E-01 6.53055583E-01-1.73344794E+00
40  3-1.78121741E+00-1.75584997E+00 2.17531465E-02 7.47374528E-03 1.13605496E-02
40  4-6.65388297E-02 2.74312512E-01-1.26975602E+00 5.68303675E-02-3.85013925E-02
40  5-2.02374546E-01-2.14075585E-01 1.48527545E-01 7.72186661E-01-3.72881891E-01
40  6-1.61271545E-01 1.54234489E-01-1.20749490E-01-1.47549861E-01 4.62174367E-02
40  7 2.02903092E-01-9.77748892E-02 4.36460207E-02-1.54122233E-02-1.03141633E-01
40  8 1.98508563E-01-9.42368964E-02 1.50777967E-02-2.41069703E-02-1.03151162E-01
 $END   

! TRAVIS-CI MEDIUM
! TRAVIS-CI SKIP
! DOES NOT CONVERGED FOR GCC > 4.4

