!   restricted open shell reference geom.opt. with spin-flip TDDFT
!   H2CO + 4 EFP water + PCM outer layer...test from Noriyuki...August 2012
!
!   NSERCH:   0  E=     -114.5310299710  R.M.S.=  0.0010344
!   NSERCH:   1  E=     -114.5284303502  R.M.S.=  0.0061704
!   NSERCH:   2  E=     -114.5303789286  R.M.S.=  0.0033562
!   NSERCH:   3  E=     -114.5291946635  R.M.S.=  0.0108953
!         ...skipped...
!   NSERCH:  26  E=     -114.5310323428  R.M.S.=  0.0001448
!   NSERCH:  27  E=     -114.5310375004  R.M.S.=  0.0000797
!   NSERCH:  28  E=     -114.5310368258  R.M.S.=  0.0001514
!   NSERCH:  29  E=     -114.5310402717  R.M.S.=  0.0000126
!
!   This run takes 746 seconds on 2.66 GHz Cloverton (22 Jul 2014)
!
!-----------------------------------------------------------------------
! H2CO
!-----------------------------------------------------------------------
 $CONTRL RUNTYP=OPTIMIZE SCFTYP=ROHF DFTTYP=BHHLYP TDDFT=SPNFLP MULT=3
         MAXIT=100 $END
 $SYSTEM MWORDS=20 $END
!-----------------------------------------------------------------------
! Wave function
!-----------------------------------------------------------------------
 $GUESS GUESS=MOREAD NORB=40 $END
 $BASIS GBASIS=DH NDFUNC=1 NPFUNC=1 $END
 $TDDFT NSTATE=5 IROOT=1 MULT=1 $END
!-----------------------------------------------------------------------
! PCM
!-----------------------------------------------------------------------
 $PCM SOLVNT=WATER $END
 $PCMITR MXITR1=100 MXITR2=100 $END
!-----------------------------------------------------------------------
! Geometry
!-----------------------------------------------------------------------
! NSERCH=26 check11c.dat
 $DATA  
H2CO/EFP/PCM SF-BHHLYP/DZP S0
C1
 O           8.0   1.9786430660  -0.9696485601  -1.2848449477
 C           6.0   1.9263979603  -1.0056532049  -0.0899974641
 H           1.0   1.0897798800  -1.4591633351   0.4554860658
 H           1.0   2.7265805375  -0.6000710677   0.5427509634
 $END
 $EFRAG

 FRAGNAME=H2ODFT
 O1               -0.4148817768  -1.2525528027  -2.7105993607
 H2                0.4542566303  -1.3480268040  -2.3551255946
 H3               -0.3177513997  -1.1677174859  -3.6456111858
 FRAGNAME=H2ODFT
 O1               -1.3655421898   0.7707414599  -1.2314039412
 H2               -1.9262204450   0.4359811427  -0.5498954099
 H3               -1.1661079600   0.0441862535  -1.7999300832
 FRAGNAME=H2ODFT
 O1               -2.0453835921   0.2303791907   1.3927298093
 H2               -2.6208303894   0.6893368690   1.9835743634
 H3               -1.1868910022   0.6067960862   1.5030894391
 FRAGNAME=H2ODFT
 O1                0.4189895194   1.1685073427   0.7102088328
 H2                0.9099907646   1.9693385810   0.8022173060
 H3               -0.0019263200   1.2038208747  -0.1338653729
 $END
--- OPEN SHELL ORBITALS --- GENERATED AT Tue Aug 21 01:22:58 2012
H2CO/EFP/PCM SF-BHHLYP/DZP S0                                                   
E(RO-BHHLYP)=     -114.3950444685, E(NUC)=   31.5760839278,   20 ITERS
 $VEC   
 1  1 9.98692672E-01 3.23745365E-03 4.42277893E-03-6.83805483E-05-4.73180240E-05
 1  2 1.36962971E-03-1.78015504E-05-1.12674724E-05 2.63493784E-04-1.87218366E-03
 1  3-1.80062100E-03-1.24507359E-03-6.39877058E-05-2.78433798E-05-1.95044228E-05
 1  4-6.97829207E-05 1.50591576E-04-9.70963487E-04-1.52174438E-05-8.36036274E-06
 1  5 3.94848939E-04-3.18142838E-05-2.13539961E-05 6.60822716E-04-1.18092428E-04
 1  6-6.63772519E-05-5.93077514E-04-4.36896834E-05 2.71632032E-05 1.95531862E-05
 1  7 9.82580107E-05-6.81421936E-05 4.87654628E-05 2.64430056E-05-1.72740789E-05
 1  8 9.79233711E-05-5.41746274E-05-4.39560833E-05-2.22942422E-05-2.10326197E-05
 2  1-2.71817915E-04 6.00073751E-04-1.38001111E-03-1.82993888E-05-7.76767951E-06
 2  2 4.78995396E-04 2.89858700E-05 3.28906844E-05-7.48497645E-04 8.02461519E-05
 2  3 6.00150976E-05 4.40543282E-05 1.62449113E-05-4.47402026E-07 8.50024091E-06
 2  4 9.96584813E-01 1.82211318E-02 8.61685702E-04 9.57801172E-05 8.02706171E-06
 2  5-1.71815236E-03-4.40974768E-06-6.62493435E-07 1.10449363E-04-5.42359157E-03
 2  6-5.21321930E-03-4.61474882E-03-1.79552755E-04-4.52706243E-05-1.80336464E-05
 2  7 6.45949827E-04-1.32305587E-04 3.57131678E-04 1.97965337E-04-2.34796230E-04
 2  8 6.40549653E-04-1.35575390E-04-3.43473016E-04-1.69278252E-04-2.68805849E-04
 3  1-2.16749922E-01 4.77067731E-01 3.18482271E-01-1.04234931E-02-6.74825839E-03
 3  2 1.69675752E-01-4.55876855E-03-8.50155903E-04-1.41016149E-02-2.35589075E-03
 3  3-5.38093041E-03 2.03258380E-02 2.09943921E-03-7.19529077E-04-7.06814720E-04
 3  4-1.09730925E-01 2.01633887E-01 9.98432185E-02 8.68723060E-03 5.56228102E-03
 3  5-1.96402691E-01 3.58823775E-03-1.16967257E-03 1.33192643E-02-1.59404639E-02
 3  6-1.59708863E-02 3.09804357E-02 2.45305712E-05-2.35929950E-03-1.41199484E-03
 3  7 2.72373791E-02-1.67392650E-03 4.40108515E-03 2.48196976E-03-3.45211292E-03
 3  8 2.76830558E-02-4.98635127E-03-4.30205773E-03-2.07297161E-03-3.84400857E-03
 4  1 1.00907355E-01-2.23633915E-01-2.81179147E-01-1.01537600E-03-8.28537059E-03
 4  2 2.77827036E-01 6.25091836E-04 4.57389429E-03 1.11353177E-01-3.01711897E-03
 4  3-1.94247844E-03 2.37173965E-02-4.96143984E-04-2.16983093E-03-1.11249579E-03
 4  4-1.70926978E-01 3.59155885E-01 2.16724755E-01-1.44448808E-03-8.35794881E-03
 4  5 1.33293309E-01 2.67651654E-03-1.62699280E-02 3.31795741E-02 1.33541629E-02
 4  6 1.28069312E-04-3.69787017E-03 1.11205751E-02 1.08172384E-03 3.42612521E-04
 4  7 1.64081363E-01 7.15590602E-02 1.08421825E-02 5.86951215E-03-6.18906362E-03
 4  8 1.64127750E-01 7.62732174E-02-1.06183652E-02-5.29646047E-03-7.27639323E-03
 5  1 5.34909855E-02-1.01502227E-01-2.57698383E-01 3.68961739E-02 1.92302399E-02
 5  2 5.51196590E-01 2.31355375E-02 6.33782094E-03 1.72503140E-01-4.75599866E-03
 5  3-2.43701626E-03 3.75250281E-02-1.51658122E-03 5.92845086E-04 4.73904723E-04
 5  4 1.35270783E-02-2.05891806E-02-7.06959945E-02 1.02667426E-01 6.33402961E-02
 5  5-4.09809114E-01 1.28088881E-03 1.35436910E-02 1.85853238E-02-1.92920034E-02
 5  6-9.55673748E-03 1.31022148E-02-8.58973266E-03-2.06826204E-03-7.15191770E-04
 5  7-1.61184519E-01-1.42495492E-01-7.25615248E-03-3.68823616E-03 2.35146535E-03
 5  8-8.12729671E-02-7.83152092E-02 4.60181082E-03 2.40038534E-03-1.05253150E-03
 6  1-1.30511690E-02 2.78117000E-02 5.40099132E-02 2.55791076E-01 1.20979027E-01
 6  2-1.04595025E-01 7.86060307E-02 3.45266007E-02-3.46725794E-02-5.12877141E-04
 6  3 1.06426018E-03-5.16193343E-03-1.37789549E-03 2.02708295E-02 1.00723496E-02
 6  4-1.30105742E-03 8.05269067E-04 1.82197664E-02 4.30851897E-01 2.19740569E-01
 6  5 1.10736576E-01 7.89280701E-02 4.29010206E-02 3.51423802E-03 4.54659256E-03
 6  6 1.13164054E-03-2.64139815E-03 1.05613700E-03 1.93599998E-03 1.40539460E-03
 6  7-1.74948300E-01-1.17609469E-01-5.64152574E-03-2.86528876E-03 8.87862223E-03
 6  8 2.23714826E-01 1.58593315E-01-7.00539228E-03-3.95170022E-03-9.46164526E-03
 7  1 6.70951504E-05-2.76165744E-03 9.46025333E-03-3.11664226E-01 5.89602705E-01
 7  2 9.45278436E-04-1.38261225E-01 2.53148817E-01 5.31859130E-03 1.20986844E-03
 7  3-3.16726111E-03-4.61082968E-04-1.42539757E-03-1.34090263E-02 2.60433486E-02
 7  4-2.00143399E-03 9.60255997E-03-2.41869807E-02-1.29960713E-01 2.66672129E-01
 7  5 1.19937611E-02-1.40192503E-02 4.37670402E-02-4.41295130E-03 3.82122478E-04
 7  6 2.07282273E-03 5.38163494E-04 1.21529389E-03 1.47141054E-02-2.69787916E-02
 7  7-5.84471038E-05 1.15290632E-02-1.89418034E-03 4.17564756E-03 6.40167677E-05
 7  8 9.45700964E-03 1.24289318E-02-2.61807541E-03 3.79275537E-03-2.01249069E-04
 8  1-3.94660861E-03 1.42906774E-02 2.93210678E-03 6.30243833E-01 3.38662074E-01
 8  2 2.22237228E-02 2.89053050E-01 1.54835564E-01 1.68776559E-02-9.28618460E-04
 8  3 1.72952163E-03 2.21764467E-03-1.76914110E-03 1.26928305E-02 7.20161267E-03
 8  4 1.25359302E-03-1.92602970E-03-6.13541392E-03-1.63743422E-01-8.07778097E-02
 8  5-2.73464024E-03-2.04668136E-02-1.28137915E-02-3.27053311E-03 3.04178873E-03
 8  6 1.67279765E-03-3.67702506E-03 2.32714294E-03-3.85906430E-02-2.04176238E-02
 8  7 1.57862420E-01 1.98749576E-01 2.12840647E-03 1.09720327E-03-4.13767764E-03
 8  8-1.55988155E-01-1.93917814E-01 1.81849953E-03 1.21312679E-03 4.49447369E-03
 9  1 4.81941062E-04-3.86681396E-03 9.02190427E-03 1.90617773E-01-3.65108351E-01
 9  2-5.74224943E-03 1.34149245E-01-2.81336163E-01 2.54304949E-02-5.52798646E-04
 9  3-1.40652919E-03 2.07870120E-04 3.01127399E-04-7.99662107E-03 1.37912223E-02
 9  4 1.40600553E-05 3.32510659E-02-1.75036360E-01-3.61267003E-01 6.71456151E-01
 9  5 2.76159219E-02-1.38515811E-01 3.53962802E-01-7.97407278E-02 7.45057721E-03
 9  6 4.16330171E-03 4.94110733E-03 2.93633280E-04-1.16202053E-02 2.19270094E-02
 9  7 1.22144480E-02 1.05641695E-01-1.00251604E-02 2.24613869E-02-4.16953686E-04
 9  8 9.20344941E-03 6.11054519E-02-1.26441100E-02 2.10189751E-02 2.27659199E-04
10  1 5.11437376E-02-1.97781664E-02-7.71497058E-01 6.62086278E-03 2.78233600E-03
10  2-1.10982284E-01 5.63198824E-03 1.13849046E-02-3.59108269E-01 3.28501202E-02
10  3 4.11069556E-02 2.44252519E-02-7.07410665E-03-1.09908617E-04 1.23992011E-03
10  4-1.29362936E-01 2.58001687E-01 2.44519966E+00-1.94439444E-02 9.42430962E-03
10  5 2.38915433E-01 4.63917777E-02-1.31686719E-02 3.48604061E-03 8.25178870E-03
10  6 1.24014066E-02 3.30416478E-03-3.46358013E-03 1.33968101E-04-1.89233424E-04
10  7-6.27889747E-02-1.34780249E+00 5.10791228E-03 3.87732291E-03 1.24179116E-03
10  8-6.34022902E-02-1.38982732E+00-5.73186514E-03-1.89202506E-03 9.44253176E-04
11  1-9.73342375E-02 7.61964137E-02 1.34403982E+00 3.45570330E-03-2.05797525E-02
11  2 3.30067780E-02-8.56296698E-03 2.56403414E-02 2.58747811E-01-6.19300414E-02
11  3-5.61895146E-02-4.22365201E-02-4.86482905E-03-3.77093085E-03 3.14044603E-03
11  4-1.53840708E-02 6.55641715E-02 2.19105959E-01-5.74105741E-02 7.04319632E-02
11  5 1.86479677E-01-6.74317403E-02-1.74907828E-01 1.78094618E+00-1.86963494E-02
11  6-5.96810146E-03 4.05829666E-02-1.07946923E-02-3.32284140E-03-4.94582170E-04
11  7 4.52673386E-03-9.64902171E-01 8.67087653E-03 7.72456811E-03 1.60996611E-02
11  8-5.05881939E-04-8.68158339E-01-1.26508394E-02-3.47855348E-03 1.45009246E-02
12  1 3.09195691E-04 8.79336805E-03-2.23775499E-02-8.07833383E-02-4.10181340E-02
12  2-9.88012408E-04-2.83215028E-01-1.63615453E-01-3.00701870E-02 5.05613872E-03
12  3 4.67209410E-03-5.29132077E-04 1.38112485E-03-2.81655777E-02-1.93003916E-02
12  4 8.46135184E-04 2.32299349E-03 7.64479567E-03-5.75120512E-01-3.92023702E-01
12  5-4.21466889E-02 1.78131335E+00 1.05156319E+00 1.07957789E-01-8.05464229E-04
12  6-7.15357174E-05 3.01589020E-03-3.63742933E-04 1.15370949E-02 6.35752554E-03
12  7 9.17836632E-02 7.73862998E-01 2.71053459E-02 1.29516985E-02-2.05376671E-02
12  8-9.24353957E-02-7.73405271E-01 2.59601009E-02 1.13178792E-02 2.45391074E-02
13  1 7.61322054E-04-7.36247646E-03 2.63972891E-03 2.53089806E-01 1.35926891E-01
13  2 5.54229897E-03 4.10633936E-01 2.22573667E-01 3.26244414E-02-3.02061164E-04
13  3-1.53433218E-03-3.14931941E-03 7.67036294E-04-2.33766349E-02-9.24458711E-03
13  4-1.00498223E-03-8.49053260E-03 1.44608412E-02-5.55593514E-01-2.33322090E-01
13  5-3.23740664E-02-1.95850896E+00-1.10637134E+00-1.22838223E-01-1.27069439E-03
13  6-1.36231651E-03-2.08562062E-03-9.91977481E-04 2.38707582E-02 1.18092700E-02
13  7-4.63851606E-02-2.18424683E+00 5.56709356E-03 5.16007748E-03-2.74272633E-02
13  8 4.28866537E-02 2.18864868E+00 5.31052934E-03 2.53001519E-03 2.61861575E-02
14  1 2.56781037E-02-5.22670465E-02-3.26151427E-01-8.72344785E-02 8.82794976E-02
14  2 1.70686710E-02-1.74862843E-02 9.37893802E-03-3.33806524E-01 3.01532460E-03
14  3 3.56922619E-03-9.04934974E-04-3.81960641E-03-2.06568645E-02 3.80091316E-02
14  4-4.93523910E-03-2.13951207E-01 1.04608059E+00-3.76298177E-01 6.96101309E-01
14  5-2.35800584E-01 7.40433224E-01-8.51035747E-01 1.49377629E-01-3.64441889E-02
14  6-2.70759809E-02-3.69240405E-02-5.62477610E-03 1.08260579E-02-2.06082298E-02
14  7-7.37319992E-02-3.49610525E-02-8.81687921E-03 5.70303947E-04 2.61453302E-03
14  8-9.51812883E-02-3.70968784E-01 9.16854469E-03 1.00647460E-02 2.00404492E-03
15  1 6.34044992E-02-2.53580968E-01-4.83105931E-01 1.02555701E-01-1.14100479E-01
15  2 1.93377977E-01-7.55120016E-02 1.52972092E-01-1.30654856E+00-5.48055669E-02
15  3-3.80149156E-02-3.43366533E-02-1.35027705E-02 7.16912657E-03-1.15128196E-02
15  4-1.99792183E-02-1.85978623E-01 2.47491441E+00 1.38116351E-01-1.52884988E-01
15  5-7.09281692E-01-1.49168581E-01 1.86476776E-01 7.78528703E-01-6.62806162E-02
15  6-8.67144220E-03-2.50778875E-03-4.97204158E-02-1.88846466E-02 1.20543275E-02
15  7-2.49135114E-01-6.08289479E-01-9.80755438E-03-2.68344137E-03 2.27895524E-02
15  8-2.51870185E-01-5.85883863E-01 1.40189581E-03 3.44439703E-03 2.37419448E-02
16  1-1.59965849E-03-8.64394131E-02 2.44003472E-01 5.29324698E-02-7.86222855E-02
16  2-6.45077832E-01-6.91511775E-02 1.07941002E-01 1.02385832E+00-1.84498464E-02
16  3-9.02939970E-03 6.16530959E-02-7.43191642E-03-3.96481863E-03-8.12329309E-03
16  4-7.74751854E-02-5.98533113E-01 8.46868719E-01 3.38960200E-02-4.91904715E-02
16  5-1.37224904E-01-6.01002097E-02 9.08219304E-03 3.99846542E-01-6.30513618E-02
16  6 1.34506604E-02-2.84270210E-01-6.52904251E-02 8.21069280E-03 1.98737446E-02
16  7-2.66172464E-01-2.09449811E-01 3.24517885E-03 3.06807695E-03-3.75134673E-02
16  8-2.55875236E-01-2.02377636E-01-3.35052745E-04 1.29393080E-03-3.76946629E-02
17  1-4.50985236E-02 1.41887914E-01-3.54020098E-02 5.96874818E-02-1.13408969E-01
17  2 4.88894527E-01-1.46151787E-01 1.40160525E-01 1.98447876E-01 6.04554689E-02
17  3 7.07107925E-02-1.67766425E-01-9.23084984E-03 1.37857140E-02 5.23423517E-03
17  4 5.62218164E-02-9.57317068E-01 1.16800018E+00-1.86929618E-02-3.25914258E-02
17  5 7.70352798E-01 7.59569285E-02-2.25444643E-02-2.77405524E-01-2.23402507E-01
17  6-1.36725670E-01 9.24900310E-02-7.28597722E-02-2.75884024E-02-6.76480180E-03
17  7-1.95440991E-01-1.28799190E-01 4.32147505E-02 2.08154497E-02 4.89760039E-02
17  8-2.15038710E-01-1.51969576E-01-4.74764216E-02-2.64866423E-02 4.23858609E-02
18  1 1.71625314E-03 4.19071108E-02-7.57373759E-02 3.06369517E-01-7.71704022E-01
18  2-3.02250413E-02-4.65037578E-01 1.28721366E+00 3.12956806E-03 1.13353103E-02
18  3 4.64038487E-03 2.49166565E-02 4.53907995E-03-8.04162314E-04-1.63746559E-02
18  4 7.22856444E-03 1.38343946E-01-2.67198768E-01-7.06563880E-02 7.34113438E-02
18  5-4.33402343E-02 2.16801484E-01-6.97377292E-01-9.20671862E-02 4.97712815E-02
18  6-2.52849633E-03 9.85319698E-03 3.86373889E-02 3.16800706E-03 4.72680122E-02
18  7 1.01615332E-01-4.96412357E-02-7.57678082E-04-2.54653743E-02-9.36564048E-03
18  8 1.55715641E-01 4.71945786E-02 2.94903942E-02-9.50472513E-03-2.30438317E-03
19  1 1.75810736E-03 1.46574820E-02-7.67022025E-02-6.47675669E-01-2.42177826E-01
19  2 6.82356174E-03 1.45345526E+00 5.96777025E-01-7.52843162E-03 9.07524242E-03
19  3 1.11135962E-02-9.33691252E-03-3.13668764E-04-7.10805306E-02-3.61633398E-02
19  4 2.27275088E-03-3.00808599E-02 1.52036395E-01-1.96444695E-01-1.33729043E-01
19  5-5.01265145E-03-1.21357981E+00-5.19532999E-01-6.85128871E-02-2.73147997E-02
19  6-1.01353203E-02 3.09120694E-02-2.20276182E-02 1.83283049E-01 9.32455794E-02
19  7-3.33247616E-01-4.28654556E-01 2.97584768E-02 2.19809771E-02-2.74733263E-02
19  8 2.70333617E-01 4.09147944E-01 1.98947300E-02 1.25150606E-02 4.01905496E-02
20  1 6.46079316E-03 2.11142913E-01-8.32854423E-01-2.35160808E-02 4.62353553E-02
20  2 4.23167706E-02 6.04821734E-02-7.69947703E-02-3.29584349E-01 6.86223918E-02
20  3 8.23210222E-02 3.60586562E-02-1.10261336E-02-8.90840947E-04-9.84408065E-04
20  4 7.00935643E-02-1.09650621E+00 3.44292221E+00 3.12025099E-02-2.54569489E-02
20  5-3.83705315E-01-6.40937268E-02 7.07914643E-02 7.11534660E-01 8.36968804E-02
20  6-1.23753018E-01-6.07711539E-02 1.73304483E-01 1.42308256E-02 1.04594270E-02
20  7 6.65257278E-01-1.71426088E+00-1.13023460E-01-5.26601875E-02 3.06978379E-02
20  8 6.91871218E-01-1.75761581E+00 1.03725778E-01 6.11352263E-02 4.54001969E-02
21  1-1.23046332E-03-2.66506219E-03 2.88651969E-02 4.66984636E-01 2.37257781E-01
21  2 2.26455518E-02-8.89198897E-01-4.51896205E-01-2.24349053E-02 4.09047979E-03
21  3 5.94093801E-04-9.66930173E-03 5.52046072E-03-7.08476370E-02-3.62842064E-02
21  4-1.00496733E-03 1.75082462E-02-8.95602704E-02-2.63287725E-01-1.28127142E-01
21  5-1.51935367E-03 2.07424816E+00 1.06684302E+00 9.91803638E-02-1.62248230E-02
21  6-6.22429656E-03 2.45371504E-02-1.28112468E-02 2.51546437E-01 1.30010670E-01
21  7-7.45589676E-01 2.32499597E+00 3.66953449E-02 1.73038869E-02-6.74152663E-02
21  8 7.32303742E-01-2.25938927E+00 2.72674692E-02 1.27863895E-02 6.99582478E-02
22  1-3.16909775E-04-1.19735694E-02 2.98890672E-02 2.36821730E-03 1.86908314E-03
22  2 5.62437682E-04-1.31389943E-02-7.03987712E-03 5.55089848E-03 1.41229998E-01
22  3-1.45996205E-01-3.99862041E-03-1.13871516E-01 7.60233247E-03-9.44458142E-03
22  4-1.05225164E-04-8.21184911E-04-1.19430990E-02-2.67627954E-03-9.85054913E-04
22  5 1.77989526E-03 2.68838437E-02 1.35716540E-02 9.17304297E-03 4.87956318E-01
22  6-4.85986816E-01-1.70329841E-03-3.85889122E-01 6.32019653E-03-3.45905938E-02
22  7-2.50513870E-03 2.33885983E-02-1.53140469E-01 2.91079035E-01 6.58905656E-03
22  8 3.75449181E-03-2.51322097E-02 1.53469505E-01-2.91752103E-01-6.97121610E-03
23  1-5.21416309E-02-1.80860547E+00 4.55847983E+00-1.29868961E-02-5.72942407E-03
23  2 7.78007708E-02-1.88733044E-02-1.40463111E-02 9.24659509E-01-3.09284793E-01
23  3-3.89620918E-01-6.28338622E-01 6.67413923E-02 1.82369500E-02 9.30595155E-03
23  4-1.23317048E-02-9.74134741E-02-1.90037314E+00-1.95812796E-02-8.60865601E-03
23  5 3.05490628E-01-6.26267660E-02-5.24130442E-02 1.13345538E+00 1.85844367E-01
23  6-1.07918207E-02-1.15064629E-01 1.72375543E-01 1.85611447E-02 1.35672443E-02
23  7 8.32449661E-02-1.08529702E-01 1.08746125E-02 4.27180909E-03-2.48213837E-02
23  8 8.62175393E-02-8.49942327E-02-7.23439713E-03 4.43424046E-04-2.92714817E-02
24  1 2.56709616E-05 2.35610237E-02-4.50796356E-02-7.19381263E-02 1.40233722E-01
24  2 5.17733566E-03-9.06533545E-02 1.61112032E-01-7.59802296E-03-4.67645564E-03
24  3 1.75167525E-02 1.60994710E-03 1.68220369E-02 1.87817725E-01-3.53562732E-01
24  4-1.19075069E-03 1.69665112E-02-9.92979238E-03-3.38058390E-02 5.95434723E-02
24  5 1.01919399E-02 1.29730512E-01-2.15352858E-01-2.03475498E-02 2.65320221E-02
24  6-4.09283661E-02 6.48949100E-03 8.97480927E-04-3.13153155E-01 5.97144995E-01
24  7-1.47598382E-02 2.72116285E-02-1.09652415E-01 2.03863717E-01-6.39122023E-03
24  8-1.05031840E-02 6.50930633E-03-1.03375138E-01 2.07067017E-01-6.84197140E-03
25  1-1.31439347E-03 4.81965080E-01-9.84802091E-01-7.07439869E-03-5.41529329E-03
25  2 1.27497988E-01 2.52604482E-02 2.66825149E-03-3.78565877E-01 3.61814927E-01
25  3-2.31053301E-01 1.18620486E-01 4.94987033E-01 2.53066460E-02 2.97513984E-02
25  4-1.52534937E-02-1.55134795E-01 1.21494952E+00 3.64951289E-03-1.79344324E-02
25  5 5.73343814E-02-1.40928245E-02 1.50087452E-02 1.13873451E-01 2.36110826E-01
25  6-3.18767002E-01-7.28570210E-02 4.66063504E-01 3.57556958E-02-6.80239093E-03
25  7-3.63280962E-01-1.81890575E-01 4.08175387E-04 4.05461644E-03-2.28547653E-01
25  8-3.56919743E-01-1.86478811E-01 1.38341123E-02 1.08348484E-02-2.22655572E-01
26  1-2.43928688E-04 5.01690639E-03 2.43569061E-04-1.03485490E-01-5.38008087E-02
26  2 1.49550472E-03 1.13713169E-01 5.71149159E-02 3.38189796E-03-3.52568034E-02
26  3 2.04213031E-03 3.67319352E-02-1.49562680E-02 3.32094082E-01 1.76452456E-01
26  4 5.67329315E-04-3.56916724E-03 3.79937939E-03-2.18749340E-01-1.16961958E-01
26  5-7.31831603E-03-9.53163998E-02-4.60498846E-02 2.65517516E-04 2.31200450E-02
26  6 2.24386446E-02-4.52915067E-02 1.71093390E-02-3.79447928E-01-2.00141822E-01
26  7-5.11946442E-01 3.27081804E-01 3.38177837E-01 1.75824095E-01 1.86071820E-01
26  8 5.14253788E-01-3.33243522E-01 3.54767856E-01 1.88601535E-01-1.56486109E-01
27  1 3.25553505E-04 1.96948936E-03-9.27444562E-03-5.12696634E-04 2.96452320E-05
27  2-1.82495868E-03 5.41292014E-03-1.71930018E-03-6.39505124E-04 6.48528741E-01
27  3-6.46603334E-01 6.49241216E-04-5.12823272E-01 1.83719323E-02-4.70753171E-02
27  4-9.79667556E-05 6.59655720E-04 4.06976305E-03-1.93287714E-03 6.14948539E-04
27  5-2.18100812E-03-7.66474432E-03-2.21582539E-03-3.05559289E-03 3.25432357E-02
27  6-3.42027082E-02 1.58713347E-03-2.72953881E-02 6.04903263E-04-4.40067292E-03
27  7-2.50079687E-03-2.05796874E-03 1.48037906E-01-2.61565880E-01 4.58077372E-03
27  8 3.49061886E-03 1.38408807E-03-1.31264777E-01 2.69039794E-01-6.38483511E-04
28  1-3.23282331E-02 3.42069928E-01 1.97387381E-01-2.86748738E-02-1.84798892E-02
28  2 5.02454496E-01 9.48481316E-03 4.18597886E-03-2.55500340E-01-1.58884545E-01
28  3 2.88970817E-01-2.75758927E-02-3.84317398E-01 3.13624122E-02 2.82427550E-02
28  4 3.96470009E-02-5.58731374E-02-1.77065081E-01-2.32454999E-02-1.92246080E-02
28  5 3.76348630E-01 2.88812694E-02 1.91221213E-02 3.41735736E-01 2.44672696E-01
28  6 2.91191800E-01-5.01407762E-01-3.95066390E-02 3.02691695E-02 2.02543696E-02
28  7-1.22522313E-01 7.23650583E-02-1.65485520E-01-8.54815385E-02-4.96805777E-01
28  8-9.58396538E-02-1.82104542E-02 1.41767065E-01 7.73170121E-02-3.64147381E-01
29  1 4.18213440E-03-4.41592896E-02-1.02096454E-02-7.00609742E-02-3.64538359E-02
29  2-5.79858848E-02 2.88226316E-02 1.50309320E-02 3.73832561E-02-1.44990206E-02
29  3-5.07601882E-02 5.73069952E-02 8.09524908E-03 5.32370419E-01 2.76042055E-01
29  4-4.01732602E-03 7.27910329E-03 1.71572850E-03-1.07180278E-01-5.39064987E-02
29  5-4.54528096E-02 3.77610423E-01 1.96699260E-01-1.81618316E-02-2.31105569E-02
29  6-2.27776973E-02 4.47330959E-02 1.65182128E-03-7.43577812E-02-3.94891352E-02
29  7-1.44006607E-01 4.25302220E-01-1.84749372E-01-9.42732013E-02-4.64706411E-01
29  8 1.75308787E-01-4.26633675E-01-2.57647933E-01-1.40652861E-01 5.44143071E-01
30  1-4.24045348E-05 1.74216256E-01 7.10564658E-02-1.65082728E-02 4.72090871E-04
30  2 2.85876908E-01 1.92920750E-02-1.79926716E-02-1.23776045E-01 4.25786721E-01
30  3-1.83568080E-01-6.11334075E-02 5.16847475E-01 5.94532278E-02-3.40063255E-02
30  4 6.06377924E-02 5.08804046E-02-4.23238610E-01-3.00815530E-02 3.43421589E-02
30  5 2.24708787E-01-1.92077154E-02 1.53463939E-02 6.44275059E-02 8.93182918E-02
30  6 6.70517723E-01-3.26844870E-01-4.88166397E-01-3.52699530E-03 3.44141460E-02
30  7 1.85399969E-01-6.94598350E-02-1.67727050E-01-1.79586287E-01 5.22682505E-02
30  8 1.81407851E-01-5.62056367E-02 2.37374474E-01 3.21889345E-02 6.83118107E-02
31  1 4.31799048E-04 1.89527871E-02 7.92272113E-03 3.81543150E-02-7.36169503E-02
31  2 3.01169148E-02-1.20362822E-01 2.23075641E-01-8.54714365E-03 6.76701483E-02
31  3-3.92427847E-02-5.63617430E-03 4.33095272E-02-2.09241665E-01 4.09449349E-01
31  4 6.49656199E-03 2.54980782E-02-8.48064416E-02 1.68226862E-01-3.24576870E-01
31  5 2.49300299E-02 1.23289890E-01-2.16856610E-01-8.46743020E-03 1.04947593E-03
31  6 8.92586813E-02-4.05465320E-02-6.19033072E-02 6.83495297E-02-1.26177128E-01
31  7 2.31014023E-02 9.27897028E-03-3.48719438E-01 5.87905180E-01 1.72755081E-02
31  8 2.22164099E-02 3.88885095E-04-2.88120436E-01 6.17615791E-01 2.11850162E-02
32  1-6.29966575E-05-2.35490540E-05 1.22616544E-03-7.32783066E-04-6.99437425E-04
32  2 4.15110502E-04 7.82678776E-03 1.23277438E-03 4.33498662E-04-2.80577092E-01
32  3 2.79343752E-01 9.08376326E-04 2.22480966E-01 5.96023605E-03 1.50711229E-02
32  4 6.58846915E-05-2.49886602E-04-8.43312066E-04-1.20749183E-02-3.52322507E-03
32  5-1.84762074E-04-1.30090028E-02-6.88212937E-03-6.05045234E-04 6.04773578E-01
32  6-6.03209966E-01-1.16851666E-03-4.81293344E-01 1.95828442E-02-4.76369824E-02
32  7 4.25214738E-03-1.76163718E-02 2.84658023E-01-5.49361928E-01-1.49301525E-03
32  8-4.34687882E-03 1.78814780E-02-2.94342217E-01 5.53219062E-01 1.69339018E-03
33  1-6.07756716E-04-5.08994706E-02 1.04249052E-01-5.73407377E-02 1.10479353E-01
33  2-7.57670387E-03-1.59216263E-01 2.94720565E-01 4.78998888E-02 1.03554679E-02
33  3-6.96716454E-02 4.21538438E-02-2.17380737E-02-4.66858037E-01 8.79838516E-01
33  4-5.77813212E-03-5.70517227E-03-7.27000355E-03 1.23744445E-01-2.38561136E-01
33  5 4.59365683E-02 4.14835067E-02-7.46452535E-02 2.03389485E-02 1.47105668E-02
33  6-7.58842571E-02 3.79972843E-02-3.06953448E-02-4.65505448E-01 8.77927125E-01
33  7 1.93009877E-03-1.85482477E-02 9.72878412E-02-2.46615140E-01-1.65179581E-02
33  8 1.90509202E-03-2.31839094E-02 1.42023565E-01-2.05192448E-01-1.14308457E-02
34  1-1.95910000E-02-8.40363202E-01 2.07474347E+00 2.34081103E-03-8.02703629E-03
34  2 5.42088505E-02-2.88375806E-02-4.35444653E-02 9.21916810E-01-4.90130775E-01
34  3-5.42507751E-01 7.94529184E-01 4.97735866E-02-3.13695054E-02-9.20696860E-02
34  4-8.51195736E-02-4.39190472E-01-2.26445197E-01-5.30592226E-02-2.14541231E-02
34  5 1.02658432E+00-1.93114718E-02-9.05205626E-03 4.12678428E-01-3.40276326E-01
34  6-2.32402958E-01 1.78163663E-01-8.38447196E-02 7.57960723E-03-6.91367435E-02
34  7 9.56944098E-03-3.28053352E-01-4.01378412E-01-1.93383166E-01-2.45796112E-01
34  8 1.02027638E-02-3.26065928E-01 4.03466061E-01 2.28441983E-01-2.04520325E-01
35  1-1.06763748E-04 7.42857318E-03-1.87165827E-03 2.42428848E-02 1.31340929E-02
35  2 1.08759461E-02 4.64867382E-01 2.43515415E-01 2.55733326E-02-4.89366905E-02
35  3-2.03532154E-02 7.46812829E-02-4.01561538E-02 6.59729315E-01 3.47606916E-01
35  4 1.43869880E-03-8.21138040E-03-2.53756722E-03-8.13380046E-01-4.28075757E-01
35  5-3.84844335E-02-8.32014320E-01-4.34769547E-01-4.69856484E-02-2.55402403E-02
35  6 1.39790243E-02 1.92173459E-02-2.86375617E-03 2.82231815E-01 1.51002470E-01
35  7-3.12844175E-02-9.66300398E-01-3.31353580E-01-1.75181683E-01 5.63779488E-01
35  8 3.05095059E-02 9.67654154E-01-2.89449970E-01-1.52816187E-01-5.86270813E-01
36  1-5.58224704E-02-2.19609282E-02 1.55463838E+00-3.07246094E-02-1.94057117E-02
36  2 6.72713555E-01-4.77365637E-02-2.12993963E-02 8.33915196E-01-5.37082788E-01
36  3-5.35357830E-01 1.02998862E+00-1.99368000E-03-9.57443811E-02-4.68383474E-02
36  4 2.73956932E-02-1.07651730E+00-1.26905212E+00-3.42716727E-02-2.29603919E-02
36  5 8.97746315E-01 2.26470536E-02 5.32996153E-03-1.50868542E-01 4.53122622E-01
36  6 4.88698470E-01-1.09684070E+00-3.24125771E-02 6.07936929E-02 6.62495676E-02
36  7 7.66953010E-02 4.02783257E-01 4.09935939E-01 2.15769317E-01 1.97583491E-01
36  8 7.55983058E-02 3.77004562E-01-4.22251780E-01-2.21248635E-01 1.61804013E-01
37  1-1.01728513E-02 4.50091049E-01-5.19822590E-01-1.15300811E-02-7.45453814E-03
37  2 2.29974151E-01 8.95146932E-03 1.59118328E-03-1.69562782E-01-9.32745091E-02
37  3 8.63273123E-02 8.15002912E-02-1.50131150E-01-1.32988015E-02-1.04176826E-02
37  4-1.18239134E-01 8.29839167E-01 1.17474647E+00-1.54223262E-02-2.52901671E-02
37  5 7.27658776E-01 1.44407335E-04 3.86105168E-03 6.62255850E-03 5.65682017E-01
37  6-3.39530347E-01-5.91637181E-01 7.57963046E-01 8.58627843E-02 3.34172994E-02
37  7-5.55121879E-01-4.74363341E-01-5.68103216E-01-3.14556049E-01 6.55265183E-01
37  8-5.65253661E-01-4.79755458E-01 5.37053597E-01 2.65193003E-01 7.19660400E-01
38  1 1.36957683E-03 1.04830160E-03-7.92124169E-03 1.37385372E-01 7.21952822E-02
38  2 1.27226724E-02 2.22920733E-01 1.16533946E-01 1.15861762E-02-3.96303827E-02
38  3-8.58081255E-03 6.27845156E-02-2.75150900E-02 5.43418561E-01 2.85327395E-01
38  4 4.72239907E-03-3.04153840E-02-1.34434060E-02 8.07958505E-01 4.23911595E-01
38  5 4.09658975E-02-1.74519148E-01-9.07221384E-02-1.22307793E-02-7.24166260E-02
38  6-2.82430038E-02 1.39825019E-01-7.93812480E-02 1.36472845E+00 7.15165109E-01
38  7 7.82676338E-01 3.61887258E-02 7.58685452E-01 4.09609618E-01-2.76664489E-01
38  8-7.76214118E-01-2.57260426E-02 7.35620864E-01 3.74586912E-01 3.49342118E-01
39  1 4.85664440E-02 5.42982491E-02-1.60413021E-01-1.46226572E-02-8.96159416E-03
39  2 3.63369189E-01-4.46553063E-03-6.75210694E-03 2.01491350E-01 1.75825249E-01
39  3 1.01781607E-01 4.02885296E-01 6.22190332E-02-4.02368486E-03-4.46370354E-03
39  4-4.82869904E-01 2.53637326E+00 9.58723905E-01 6.67938089E-04 3.22466201E-03
39  5 4.49339703E-02-8.50099948E-03-1.20579021E-03 9.47383737E-02-1.86277312E+00
39  6-1.50583336E+00-2.05535973E+00-2.99693832E-01 1.29941401E-02 1.67902566E-02
39  7 4.39719263E-01-2.40499865E-01 3.27881143E-01 1.77392059E-01-1.97461136E-01
39  8 4.25735036E-01-2.37483661E-01-3.02994604E-01-1.53912725E-01-2.28007354E-01
40  1-5.43469280E-01-6.61259962E-02 4.86495790E+00 1.03566444E-02 7.47155337E-03
40  2-2.64471088E-01-2.46540686E-02-1.77543969E-02 6.85987152E-01-1.73955627E+00
40  3-1.77598614E+00-1.75644856E+00 3.03446862E-02 5.51980726E-03 2.31793593E-03
40  4-6.52027335E-02 2.68193468E-01-1.27553760E+00 9.29769875E-03 8.45634347E-03
40  5-2.12504676E-01-4.07216871E-02-2.88994202E-02 8.09568844E-01-3.64438494E-01
40  6-1.99244170E-01 1.98904825E-01-1.38075595E-01-2.69757522E-02-1.62531390E-02
40  7 2.01374134E-01-9.87846497E-02 1.70954549E-02 1.08422650E-02-1.09903618E-01
40  8 1.96728951E-01-8.90149267E-02-6.72418090E-03-1.70319851E-03-1.06865182E-01
 $END   

! TRAVIS-CI MEDIUM
! TRAVIS-CI SKIP
! DOES NOT CONVERGED FOR GCC > 4.4

