!   Difluoroethene...test case from Noriyuki...April 2011
!   spin-flip ROHF reference TD-DFT gradient   Note: no functional!!!
!
!   FINAL E= -273.7154733129, 3 iters, g.s.= -5.103 ev, its RMS= 0.322639298
!             SUMMARY OF SPIN-FLIP RESULTS
!      STATE             ENERGY     EXCITATION     S-SQUARED
!    2 NEGATIVE ROOT(S) FOUND.
!      1  A         -273.9030208012   -5.103        0.0088
!      2  A         -273.7220285937   -0.178        2.0000
!      0  A         -273.7154733129    0.000   (REFERENCE STATE)
!      3  A         -273.6469450772    1.865        1.0009
!      4  A         -273.5963282763    3.242        1.0012
!      5  A         -273.5090151228    5.618        1.0067
!    SELECTING EXCITED STATE IROOT=   1 AT E=  -273.9030208012
!
!   This run takes 1 second on 2.66 GHz Cloverton (27 April 2011)
!
 $CONTRL RUNTYP=GRADIENT SCFTYP=ROHF DFTTYP=NONE TDDFT=SPNFLP MULT=3 $end
 $SYSTEM MWORDS=1 $END 
!-----------------------------------------------------------------------
! Wave function
!-----------------------------------------------------------------------
 $GUESS GUESS=MOREAD NORB=40 $END 
 $BASIS GBASIS=N21 NGAUSS=3 $END
 $TDDFT NSTATE=5 IROOT=1 MULT=1 $END
!-----------------------------------------------------------------------
! Geometry
!-----------------------------------------------------------------------
 $DATA  
cis-DFE Gas RO-SF-CIS/3-21G S0
C1
C    6.0  -0.0000000000   0.6505243427  -0.0165521420
C    6.0   0.0000000000  -0.6505243428  -0.0165521421
F    9.0  -0.0000000000   1.2156446665  -0.9192030778
F    9.0   0.0000000000  -1.2156446664  -0.9192030780
H    1.0  -0.0000000000  -1.3965430797   1.1178852200
H    1.0   0.0000000000   1.3965430798   1.1178852199
 $END

--- OPEN SHELL ORBITALS --- GENERATED AT Thu Sep 30 21:34:17 2010
 cis-DFE Gas SF-CIS/3-21G S0                                                    
E(ROHF)=     -273.7154733129, E(NUC)=  128.6191355931,   11 ITERS
 $VEC   
 1  1-2.70002208E-04-1.47766354E-03-0.00000000E+00-1.53634566E-03 2.00089459E-03
 1  2-2.09150366E-02-0.00000000E+00 5.02379647E-04 2.04057050E-02 2.70012903E-04
 1  3 1.47769440E-03-0.00000000E+00-1.53638808E-03-2.00093653E-03 2.09152703E-02
 1  4-0.00000000E+00 5.02293288E-04-2.04058445E-02-6.94721206E-01-7.24361361E-02
 1  5-0.00000000E+00 1.49139403E-03-2.21606677E-03 3.99499722E-02-0.00000000E+00
 1  6-5.20082633E-03 6.86315705E-03 6.94737037E-01 7.24377499E-02-0.00000000E+00
 1  7 1.49143170E-03 2.21611857E-03-3.99506964E-02-0.00000000E+00-5.20092889E-03
 1  8-6.86329641E-03 9.81938530E-04 2.95080431E-03-9.81951140E-04-2.95079765E-03
 2  1 4.69252549E-04 1.35420901E-03-0.00000000E+00 1.86143627E-03-1.83984459E-03
 2  2 1.02541046E-02-0.00000000E+00 3.78818935E-03-6.11906513E-03 4.69246396E-04
 2  3 1.35417534E-03-0.00000000E+00-1.86140125E-03-1.83979899E-03 1.02536278E-02
 2  4-0.00000000E+00-3.78820084E-03-6.11860000E-03 6.94534548E-01 7.08047113E-02
 2  5-0.00000000E+00-1.65439678E-03 2.27186899E-03-3.17762879E-02-0.00000000E+00
 2  6 4.50069125E-03-6.11365722E-03 6.94518713E-01 7.08030602E-02-0.00000000E+00
 2  7 1.65436275E-03 2.27181849E-03-3.17753773E-02-0.00000000E+00-4.50057268E-03
 2  8-6.11350079E-03-5.53334810E-04 2.92777257E-04-5.53312431E-04 2.92844525E-04
 3  1-6.97600015E-01-7.29226844E-02-0.00000000E+00 4.99206186E-04 4.08114216E-03
 3  2 5.92552484E-02-0.00000000E+00-2.16951192E-02 4.51280246E-03 6.97602205E-01
 3  3 7.29228917E-02-0.00000000E+00 4.99195190E-04-4.08115463E-03-5.92553056E-02
 3  4-0.00000000E+00-2.16951197E-02-4.51280819E-03 1.39624267E-04-1.17728986E-03
 3  5-0.00000000E+00-2.48070225E-04 1.70806063E-04 4.12438741E-03-0.00000000E+00
 3  6-2.02242715E-03 5.55765440E-03-1.39624984E-04 1.17729049E-03-0.00000000E+00
 3  7-2.48071653E-04-1.70806776E-04-4.12439579E-03-0.00000000E+00-2.02243410E-03
 3  8-5.55767161E-03 1.05623832E-03 3.95900240E-03-1.05624015E-03-3.95898662E-03
 4  1 6.97234394E-01 6.59979154E-02 0.00000000E+00 3.48523847E-03-3.96472453E-03
 4  2-1.82059663E-02 0.00000000E+00 1.59190922E-04-1.79669716E-03 6.97232203E-01
 4  3 6.59976863E-02 0.00000000E+00-3.48524006E-03-3.96471176E-03-1.82057804E-02
 4  4 0.00000000E+00-1.59122926E-04-1.79668248E-03-2.29283792E-04 1.93730694E-04
 4  5 0.00000000E+00 4.67976456E-04-2.25671613E-04-2.64237127E-03 0.00000000E+00
 4  6 2.18640493E-03-5.47836112E-03-2.29283362E-04 1.93726927E-04 0.00000000E+00
 4  7-4.67975673E-04-2.25671059E-04-2.64235802E-03 0.00000000E+00-2.18639851E-03
 4  8-5.47834366E-03-5.93454216E-04 5.01323390E-03-5.93450890E-04 5.01324652E-03
 5  1-8.17681954E-02 7.99776447E-02 0.00000000E+00 3.28483913E-02-9.38475359E-02
 5  2 1.97529823E-02 0.00000000E+00-1.91629352E-02 2.12788335E-02-8.17682092E-02
 5  3 7.99776577E-02 0.00000000E+00-3.28484040E-02-9.38475533E-02 1.97529804E-02
 5  4 0.00000000E+00 1.91629362E-02 2.12788506E-02-1.62018945E-01 1.54633898E-01
 5  5 0.00000000E+00-5.46868525E-02 7.51939935E-02 4.97684587E-01 0.00000000E+00
 5  6-5.49910104E-02 6.99924333E-02-1.62018978E-01 1.54633929E-01 0.00000000E+00
 5  7 5.46868625E-02 7.51940089E-02 4.97684693E-01 0.00000000E+00 5.49910203E-02
 5  8 6.99924480E-02 5.78059107E-03-3.75602811E-03 5.78059159E-03-3.75602505E-03
 6  1-7.06324200E-02 6.64506899E-02 0.00000000E+00 6.26492791E-02-9.03531246E-02
 6  2-1.06265845E-02 0.00000000E+00-3.26456201E-03 8.83897287E-02 7.06324038E-02
 6  3-6.64506747E-02 0.00000000E+00 6.26492730E-02 9.03531067E-02 1.06265888E-02
 6  4 0.00000000E+00-3.26455776E-03-8.83897250E-02-1.68121348E-01 1.56397544E-01
 6  5 0.00000000E+00-4.94696909E-02 7.79673407E-02 5.47505485E-01 0.00000000E+00
 6  6-5.28757220E-02 7.37944337E-02 1.68121317E-01-1.56397514E-01 0.00000000E+00
 6  7-4.94696801E-02-7.79673260E-02-5.47505387E-01 0.00000000E+00-5.28757107E-02
 6  8-7.37944199E-02 1.66474374E-04 1.67950448E-02-1.66472879E-04-1.67950454E-02
 7  1 1.33350090E-01-1.71595797E-01-0.00000000E+00 1.83183310E-01 3.61705337E-02
 7  2-2.24155030E-01-0.00000000E+00 7.30540862E-02-7.31260707E-03 1.33350092E-01
 7  3-1.71595799E-01-0.00000000E+00-1.83183307E-01 3.61705360E-02-2.24155033E-01
 7  4-0.00000000E+00-7.30540881E-02-7.31261359E-03-6.93451390E-02 6.48512815E-02
 7  5-0.00000000E+00 1.59656513E-01-7.02693811E-02 2.77126227E-01-0.00000000E+00
 7  6 1.40390084E-01-6.50022371E-02-6.93451397E-02 6.48512825E-02-0.00000000E+00
 7  7-1.59656517E-01-7.02693856E-02 2.77126228E-01-0.00000000E+00-1.40390088E-01
 7  8-6.50022409E-02-2.37967273E-02-3.56033827E-03-2.37967268E-02-3.56034077E-03
 8  1 8.34310755E-02-1.02044779E-01-0.00000000E+00-1.08136254E-01 9.57830024E-02
 8  2-1.52499445E-01-0.00000000E+00 2.47865916E-02-8.99016427E-02-8.34310755E-02
 8  3 1.02044780E-01-0.00000000E+00-1.08136282E-01-9.57830106E-02 1.52499437E-01
 8  4-0.00000000E+00 2.47865845E-02 8.99016477E-02-6.83872578E-02 6.78609795E-02
 8  5-0.00000000E+00 1.25896703E-01-2.96527770E-01 2.56354112E-01-0.00000000E+00
 8  6 1.15975592E-01-2.78163195E-01 6.83872610E-02-6.78609823E-02-0.00000000E+00
 8  7 1.25896696E-01 2.96527806E-01-2.56354125E-01-0.00000000E+00 1.15975584E-01
 8  8 2.78163229E-01 2.42142540E-02-1.55832026E-03-2.42142531E-02 1.55832050E-03
 9  1-2.78324571E-02 4.28640702E-02 0.00000000E+00 1.99742679E-01-4.48897525E-02
 9  2 1.07699486E-02 0.00000000E+00 7.34974669E-02 6.00839830E-02-2.78324475E-02
 9  3 4.28640581E-02 0.00000000E+00-1.99742668E-01-4.48897394E-02 1.07699360E-02
 9  4 0.00000000E+00-7.34974661E-02 6.00839726E-02 3.70595468E-02-3.43158991E-02
 9  5 0.00000000E+00 7.08215404E-02 3.19426970E-01-1.47197038E-01 0.00000000E+00
 9  6 7.69073691E-02 3.06863954E-01 3.70595390E-02-3.43158914E-02 0.00000000E+00
 9  7-7.08215647E-02 3.19426942E-01-1.47197008E-01 0.00000000E+00-7.69073924E-02
 9  8 3.06863927E-01 2.97747089E-02 2.51924289E-03 2.97747111E-02 2.51924189E-03
10  1-0.00000000E+00-0.00000000E+00 1.47269056E-01-0.00000000E+00-0.00000000E+00
10  2-0.00000000E+00 8.49617484E-02-0.00000000E+00-0.00000000E+00-0.00000000E+00
10  3-0.00000000E+00 1.47269068E-01-0.00000000E+00-0.00000000E+00-0.00000000E+00
10  4 8.49617563E-02-0.00000000E+00-0.00000000E+00-0.00000000E+00-0.00000000E+00
10  5 3.45011000E-01-0.00000000E+00-0.00000000E+00-0.00000000E+00 3.62205914E-01
10  6-0.00000000E+00-0.00000000E+00-0.00000000E+00-0.00000000E+00 3.45011042E-01
10  7-0.00000000E+00-0.00000000E+00-0.00000000E+00 3.62205958E-01-0.00000000E+00
10  8-0.00000000E+00-0.00000000E+00-0.00000000E+00-0.00000000E+00-0.00000000E+00
11  1 6.12445069E-02-6.42266249E-02 0.00000000E+00 1.13390357E-01-2.05412672E-01
11  2-2.39776693E-01 0.00000000E+00-2.00617946E-02-8.22820249E-02 6.12445091E-02
11  3-6.42266265E-02 0.00000000E+00-1.13390346E-01-2.05412686E-01-2.39776685E-01
11  4 0.00000000E+00 2.00618215E-02-8.22820364E-02 1.71263935E-02-1.78379194E-02
11  5 0.00000000E+00-2.57631734E-01 6.00112574E-02-6.28678163E-02 0.00000000E+00
11  6-2.65154197E-01 4.99129471E-02 1.71263930E-02-1.78379185E-02 0.00000000E+00
11  7 2.57631784E-01 6.00112356E-02-6.28678135E-02 0.00000000E+00 2.65154244E-01
11  8 4.99129253E-02-6.82720440E-02-4.45584886E-02-6.82720368E-02-4.45584873E-02
12  1-0.00000000E+00-0.00000000E+00 1.19075746E-01-0.00000000E+00-0.00000000E+00
12  2-0.00000000E+00 9.70718853E-02-0.00000000E+00-0.00000000E+00-0.00000000E+00
12  3-0.00000000E+00-1.19075728E-01-0.00000000E+00-0.00000000E+00-0.00000000E+00
12  4-9.70718731E-02-0.00000000E+00-0.00000000E+00-0.00000000E+00-0.00000000E+00
12  5 3.65162014E-01-0.00000000E+00-0.00000000E+00-0.00000000E+00 3.82480819E-01
12  6-0.00000000E+00-0.00000000E+00-0.00000000E+00-0.00000000E+00-3.65161976E-01
12  7-0.00000000E+00-0.00000000E+00-0.00000000E+00-3.82480781E-01-0.00000000E+00
12  8-0.00000000E+00-0.00000000E+00-0.00000000E+00-0.00000000E+00-0.00000000E+00
13  1-3.90519469E-03 2.89412671E-03 0.00000000E+00 7.01786091E-02 1.12726998E-01
13  2-6.07981168E-02 0.00000000E+00 1.50089188E-01 3.96482094E-02 3.90518550E-03
13  3-2.89411623E-03 0.00000000E+00 7.01786158E-02-1.12726968E-01 6.07981509E-02
13  4 0.00000000E+00 1.50089183E-01-3.96481945E-02-4.42058359E-03 6.15829696E-03
13  5 0.00000000E+00 3.43826117E-01 1.19444309E-01 2.79731743E-03 0.00000000E+00
13  6 3.46190961E-01 1.21576246E-01 4.42058169E-03-6.15829453E-03 0.00000000E+00
13  7 3.43826079E-01-1.19444312E-01-2.79731096E-03 0.00000000E+00 3.46190922E-01
13  8-1.21576247E-01-4.12932353E-02-2.65646668E-02 4.12932471E-02 2.65646767E-02
14  1 6.64242698E-02-5.02571255E-02-0.00000000E+00-3.82695897E-02-1.70743635E-01
14  2-4.10054256E-01-0.00000000E+00 1.29770660E-03-1.55390755E-01-6.64242699E-02
14  3 5.02571214E-02-0.00000000E+00-3.82696007E-02 1.70743642E-01 4.10054259E-01
14  4-0.00000000E+00 1.29770294E-03 1.55390762E-01-1.11257527E-02 1.07684043E-02
14  5-0.00000000E+00 8.44455048E-02 1.51659290E-01 6.00112017E-02-0.00000000E+00
14  6 1.05675758E-01 1.83742428E-01 1.11257525E-02-1.07684044E-02-0.00000000E+00
14  7 8.44455126E-02-1.51659291E-01-6.00111985E-02-0.00000000E+00 1.05675768E-01
14  8-1.83742429E-01 1.80633863E-01 2.35169333E-01-1.80633858E-01-2.35169333E-01
15  1 1.05157346E-02-4.59333836E-02 0.00000000E+00 2.47784489E-01 1.22213203E-01
15  2 1.48491751E-02 0.00000000E+00 1.24013672E-01 8.66995627E-02 1.05157374E-02
15  3-4.59333859E-02 0.00000000E+00-2.47784488E-01 1.22213198E-01 1.48491488E-02
15  4 0.00000000E+00-1.24013676E-01 8.66995608E-02 8.51500552E-04-3.08651128E-03
15  5 0.00000000E+00-1.93107018E-01-1.04130986E-01 2.17541705E-03 0.00000000E+00
15  6-2.53897463E-01-1.42068324E-01 8.51499846E-04-3.08651062E-03 0.00000000E+00
15  7 1.93107013E-01-1.04130978E-01 2.17542300E-03 0.00000000E+00 2.53897457E-01
15  8-1.42068314E-01 1.64362687E-01 2.70074162E-01 1.64362691E-01 2.70074165E-01
16  1 0.00000000E+00 0.00000000E+00 3.73259241E-01 0.00000000E+00 0.00000000E+00
16  2 0.00000000E+00 3.32973026E-01 0.00000000E+00 0.00000000E+00 0.00000000E+00
16  3 0.00000000E+00 3.73259244E-01 0.00000000E+00 0.00000000E+00 0.00000000E+00
16  4 3.32973030E-01 0.00000000E+00 0.00000000E+00 0.00000000E+00 0.00000000E+00
16  5-2.01836320E-01 0.00000000E+00 0.00000000E+00 0.00000000E+00-2.82619462E-01
16  6 0.00000000E+00 0.00000000E+00 0.00000000E+00 0.00000000E+00-2.01836319E-01
16  7 0.00000000E+00 0.00000000E+00 0.00000000E+00-2.82619461E-01 0.00000000E+00
16  8 0.00000000E+00 0.00000000E+00 0.00000000E+00 0.00000000E+00 0.00000000E+00
17  1-0.00000000E+00-0.00000000E+00 4.41823235E-01-0.00000000E+00-0.00000000E+00
17  2-0.00000000E+00 6.58113914E-01-0.00000000E+00-0.00000000E+00-0.00000000E+00
17  3-0.00000000E+00-4.41823234E-01-0.00000000E+00-0.00000000E+00-0.00000000E+00
17  4-6.58113912E-01-0.00000000E+00-0.00000000E+00-0.00000000E+00-0.00000000E+00
17  5-1.77289710E-01-0.00000000E+00-0.00000000E+00-0.00000000E+00-2.84766858E-01
17  6-0.00000000E+00-0.00000000E+00-0.00000000E+00-0.00000000E+00 1.77289708E-01
17  7-0.00000000E+00-0.00000000E+00-0.00000000E+00 2.84766855E-01-0.00000000E+00
17  8-0.00000000E+00-0.00000000E+00-0.00000000E+00-0.00000000E+00-0.00000000E+00
18  1 5.04647477E-02-4.85077405E-03-0.00000000E+00-1.82513447E-01-2.26700975E-01
18  2-4.75087419E-01-0.00000000E+00-2.31896850E-01-4.93261425E-01 5.04647475E-02
18  3-4.85077589E-03-0.00000000E+00 1.82513448E-01-2.26700977E-01-4.75087391E-01
18  4-0.00000000E+00 2.31896880E-01-4.93261444E-01 1.51514639E-02-6.27517098E-03
18  5-0.00000000E+00 1.03786146E-01 3.95605209E-02-1.47965715E-01-0.00000000E+00
18  6 1.92647769E-01 6.61566120E-02 1.51514641E-02-6.27517067E-03-0.00000000E+00
18  7-1.03786146E-01 3.95605205E-02-1.47965719E-01-0.00000000E+00-1.92647772E-01
18  8 6.61566120E-02 7.26129387E-02 9.04499183E-01 7.26129363E-02 9.04499158E-01
19  1-1.09944442E-01 5.44439519E-02 0.00000000E+00 5.59178840E-02 1.74636341E-01
19  2 1.10811101E+00 0.00000000E+00 1.47270364E-01 5.27296389E-01 1.09944442E-01
19  3-5.44439508E-02 0.00000000E+00 5.59178841E-02-1.74636338E-01-1.10811101E+00
19  4 0.00000000E+00 1.47270365E-01-5.27296377E-01 1.89872700E-02-1.97642700E-02
19  5 0.00000000E+00 3.07190095E-04-7.75624107E-02-1.21381920E-01 0.00000000E+00
19  6-1.92421058E-02-1.49714008E-01-1.89872708E-02 1.97642703E-02 0.00000000E+00
19  7 3.07190756E-04 7.75624112E-02 1.21381929E-01 0.00000000E+00-1.92421032E-02
19  8 1.49714009E-01 7.04797225E-02 1.01588397E+00-7.04797249E-02-1.01588399E+00
20  1-4.22948001E-02-5.24900707E-02 0.00000000E+00 1.12016399E-01-1.74503666E-02
20  2 1.00189960E+00 0.00000000E+00 6.47573808E-01-5.40189083E-01-4.22948010E-02
20  3-5.24900729E-02 0.00000000E+00-1.12016397E-01-1.74503691E-02 1.00189965E+00
20  4 0.00000000E+00-6.47573769E-01-5.40189094E-01 8.15318194E-02-3.38579393E-02
20  5 0.00000000E+00 4.86665608E-02-8.61669525E-02-9.05413338E-01 0.00000000E+00
20  6 1.19619963E-01-2.85814643E-01 8.15318194E-02-3.38579396E-02 0.00000000E+00
20  7-4.86665615E-02-8.61669519E-02-9.05413339E-01 0.00000000E+00-1.19619968E-01
20  8-2.85814640E-01 1.96847752E-02-2.60431364E-01 1.96847750E-02-2.60431379E-01
21  1 3.85477896E-02-1.63294576E-02-0.00000000E+00 4.89054085E-02-7.29520115E-02
21  2-1.90992394E+00-0.00000000E+00 2.24699058E+00-9.06525796E-01-3.85477894E-02
21  3 1.63294583E-02-0.00000000E+00 4.89054046E-02 7.29520130E-02 1.90992394E+00
21  4-0.00000000E+00 2.24699059E+00 9.06525798E-01 6.54601414E-02-1.87170197E-02
21  5-0.00000000E+00-7.74235382E-02-6.15571187E-02-8.64416616E-01-0.00000000E+00
21  6-1.18372949E-01-2.41046518E-01-6.54601420E-02 1.87170208E-02-0.00000000E+00
21  7-7.74235389E-02 6.15571189E-02 8.64416622E-01-0.00000000E+00-1.18372951E-01
21  8 2.41046518E-01 9.54808113E-02 1.49624049E-02-9.54808107E-02-1.49624043E-02
22  1-1.32558691E-01-2.79586122E-02 0.00000000E+00-2.43519387E-01-1.00899188E-01
22  2 3.48876326E+00 0.00000000E+00-2.07338601E+00-1.62728439E+00 1.32558692E-01
22  3 2.79586117E-02 0.00000000E+00-2.43519380E-01 1.00899185E-01-3.48876326E+00
22  4 0.00000000E+00-2.07338603E+00 1.62728438E+00 6.31571512E-02-1.44076818E-02
22  5 0.00000000E+00 1.03724885E-01 4.21570660E-03-9.12353759E-01 0.00000000E+00
22  6 4.45285030E-01-8.69189705E-02-6.31571506E-02 1.44076819E-02 0.00000000E+00
22  7 1.03724884E-01-4.21570636E-03 9.12353750E-01 0.00000000E+00 4.45285029E-01
22  8 8.69189692E-02 1.75458129E-01-8.71631004E-01-1.75458125E-01 8.71631001E-01
23  1-0.00000000E+00-0.00000000E+00 7.23342540E-01-0.00000000E+00-0.00000000E+00
23  2-0.00000000E+00-6.34143613E-01-0.00000000E+00-0.00000000E+00-0.00000000E+00
23  3-0.00000000E+00 7.23342551E-01-0.00000000E+00-0.00000000E+00-0.00000000E+00
23  4-6.34143632E-01-0.00000000E+00-0.00000000E+00-0.00000000E+00-0.00000000E+00
23  5 2.30823195E-02-0.00000000E+00-0.00000000E+00-0.00000000E+00 7.20597698E-02
23  6-0.00000000E+00-0.00000000E+00-0.00000000E+00-0.00000000E+00 2.30823200E-02
23  7-0.00000000E+00-0.00000000E+00-0.00000000E+00 7.20597715E-02-0.00000000E+00
23  8-0.00000000E+00-0.00000000E+00-0.00000000E+00-0.00000000E+00-0.00000000E+00
24  1 2.35519947E-02 3.01070982E-01 0.00000000E+00-5.94798037E-01-7.96266350E-02
24  2 1.28982522E-01 0.00000000E+00 9.73910579E-01 3.28613135E-01 2.35519930E-02
24  3 3.01070983E-01 0.00000000E+00 5.94798043E-01-7.96266350E-02 1.28982562E-01
24  4 0.00000000E+00-9.73910551E-01 3.28613127E-01-1.88151796E-02 4.12962019E-02
24  5 0.00000000E+00-1.29056568E-01-2.18252155E-02 3.69825700E-02 0.00000000E+00
24  6-2.13605522E-01-1.10895278E-03-1.88151793E-02 4.12962019E-02 0.00000000E+00
24  7 1.29056567E-01-2.18252150E-02 3.69825668E-02 0.00000000E+00 2.13605519E-01
24  8-1.10895132E-03 2.90078489E-01-5.90069329E-01 2.90078491E-01-5.90069337E-01
25  1-0.00000000E+00-0.00000000E+00-7.19908967E-01-0.00000000E+00-0.00000000E+00
25  2-0.00000000E+00 1.17662635E+00-0.00000000E+00-0.00000000E+00-0.00000000E+00
25  3-0.00000000E+00 7.19908955E-01-0.00000000E+00-0.00000000E+00-0.00000000E+00
25  4-1.17662634E+00-0.00000000E+00-0.00000000E+00-0.00000000E+00-0.00000000E+00
25  5-3.05951222E-02-0.00000000E+00-0.00000000E+00-0.00000000E+00-1.45390960E-01
25  6-0.00000000E+00-0.00000000E+00-0.00000000E+00-0.00000000E+00 3.05951221E-02
25  7-0.00000000E+00-0.00000000E+00-0.00000000E+00 1.45390958E-01-0.00000000E+00
25  8-0.00000000E+00-0.00000000E+00-0.00000000E+00-0.00000000E+00-0.00000000E+00
26  1-1.38861804E-02-7.29402604E-02-0.00000000E+00-5.32566470E-01-5.08649105E-01
26  2-3.29677424E-02-0.00000000E+00 8.39778608E-01 8.72897924E-01 1.38861808E-02
26  3 7.29402654E-02-0.00000000E+00-5.32566456E-01 5.08649133E-01 3.29677227E-02
26  4-0.00000000E+00 8.39778598E-01-8.72897942E-01 9.63051494E-03-2.21306407E-02
26  5-0.00000000E+00 7.91998528E-02-5.30208964E-04 1.94383010E-02-0.00000000E+00
26  6-9.34086285E-03-1.04406864E-01-9.63051581E-03 2.21306412E-02-0.00000000E+00
26  7 7.91998586E-02 5.30211748E-04-1.94382963E-02-0.00000000E+00-9.34085649E-03
26  8 1.04406875E-01-4.92917241E-01 1.00312051E+00 4.92917212E-01-1.00312047E+00
27  1-7.26777135E-03-1.44067969E-02-0.00000000E+00 2.58592719E-01-2.02724392E-01
27  2 1.24527246E-01-0.00000000E+00-3.72030765E-01 9.14333738E-02-7.26777068E-03
27  3-1.44067940E-02-0.00000000E+00-2.58592745E-01-2.02724373E-01 1.24527248E-01
27  4-0.00000000E+00 3.72030797E-01 9.14333324E-02 6.70426926E-03 1.33682233E-03
27  5-0.00000000E+00 1.39886788E-01 1.19090329E-02-1.66464479E-02-0.00000000E+00
27  6 1.06006874E-01-9.95051640E-02 6.70426929E-03 1.33682281E-03-0.00000000E+00
27  7-1.39886785E-01 1.19090326E-02-1.66464536E-02-0.00000000E+00-1.06006874E-01
27  8-9.95051622E-02 8.26528444E-01-6.88970289E-01 8.26528463E-01-6.88970331E-01
28  1 1.10412106E-02 1.34187186E-01-0.00000000E+00-9.85608696E-02 8.29189069E-01
28  2-6.72569907E-01-0.00000000E+00-2.89270697E-01-6.26367383E-01 1.10412108E-02
28  3 1.34187180E-01-0.00000000E+00 9.85608831E-02 8.29189062E-01-6.72569905E-01
28  4-0.00000000E+00 2.89270677E-01-6.26367372E-01-3.18488650E-02 2.69744802E-02
28  5-0.00000000E+00-5.10111672E-03 1.64451460E-01 2.16090872E-01-0.00000000E+00
28  6-1.27891452E-01 3.34107543E-01-3.18488649E-02 2.69744804E-02-0.00000000E+00
28  7 5.10111607E-03 1.64451463E-01 2.16090870E-01-0.00000000E+00 1.27891453E-01
28  8 3.34107542E-01 2.02308020E-01 3.43814960E-01 2.02308006E-01 3.43814984E-01
29  1-4.91335390E-03-3.38129850E-02 0.00000000E+00 7.68803190E-01-3.82419480E-01
29  2 2.04764295E+00 0.00000000E+00-1.33960056E+00-7.27534340E-01 4.91335433E-03
29  3 3.38129716E-02 0.00000000E+00 7.68803191E-01 3.82419479E-01-2.04764294E+00
29  4 0.00000000E+00-1.33960056E+00 7.27534341E-01 5.63868739E-02-4.54175892E-02
29  5 0.00000000E+00 8.13812188E-02-7.71622747E-02-6.05953834E-01 0.00000000E+00
29  6 3.35733534E-01-3.38704548E-01-5.63868739E-02 4.54175893E-02 0.00000000E+00
29  7 8.13812182E-02 7.71622770E-02 6.05953833E-01 0.00000000E+00 3.35733534E-01
29  8 3.38704549E-01-4.16534881E-01 1.23700941E-02 4.16534885E-01-1.23700991E-02
30  1-1.72135072E-02 2.98447330E-01 0.00000000E+00 1.10394846E-01-6.60332234E-01
30  2-8.72328175E-01 0.00000000E+00 5.31072934E-01 1.52645396E+00 1.72135098E-02
30  3-2.98447391E-01 0.00000000E+00 1.10394860E-01 6.60332235E-01 8.72328230E-01
30  4 0.00000000E+00 5.31072920E-01-1.52645395E+00 4.21888733E-03-2.46407751E-02
30  5 0.00000000E+00 8.02759416E-02-2.28957895E-01 3.66847236E-01 0.00000000E+00
30  6 1.17561773E-02-1.79552459E-01-4.21888842E-03 2.46407760E-02 0.00000000E+00
30  7 8.02759458E-02 2.28957906E-01-3.66847235E-01 0.00000000E+00 1.17561837E-02
30  8 1.79552464E-01 6.21596126E-01 1.77968803E-02-6.21596122E-01-1.77969069E-02
31  1-5.00028453E-02 1.13607599E+00-0.00000000E+00 2.79018046E-01-1.14862069E-01
31  2-9.34054446E-01-0.00000000E+00-2.20763496E-01-1.73870800E-01-5.00028441E-02
31  3 1.13607597E+00-0.00000000E+00-2.79018032E-01-1.14862029E-01-9.34054434E-01
31  4-0.00000000E+00 2.20763501E-01-1.73870870E-01 2.55926704E-02-2.36911551E-02
31  5-0.00000000E+00 7.42896442E-02-2.06967500E-01-4.08021009E-02-0.00000000E+00
31  6 1.52479286E-01-1.51367124E-01 2.55926695E-02-2.36911534E-02-0.00000000E+00
31  7-7.42896390E-02-2.06967488E-01-4.08021129E-02-0.00000000E+00-1.52479280E-01
31  8-1.51367110E-01-8.75168282E-02 4.37903048E-01-8.75168580E-02 4.37903049E-01
32  1-1.90722187E-02 1.30314798E+00-0.00000000E+00-8.06062982E-02 1.30500303E-01
32  2-3.68173194E+00-0.00000000E+00 1.46512310E+00-4.20519741E-01 1.90722190E-02
32  3-1.30314798E+00-0.00000000E+00-8.06062991E-02-1.30500305E-01 3.68173194E+00
32  4-0.00000000E+00 1.46512310E+00 4.20519743E-01 1.22203374E-02-3.66400494E-02
32  5-0.00000000E+00 6.20752421E-02-1.76487260E-01 1.05784401E-01-0.00000000E+00
32  6-9.47288544E-02 6.79511503E-02-1.22203374E-02 3.66400500E-02-0.00000000E+00
32  7 6.20752444E-02 1.76487262E-01-1.05784402E-01-0.00000000E+00-9.47288577E-02
32  8-6.79511541E-02-2.68548776E-01-1.42188507E-01 2.68548776E-01 1.42188506E-01
33  1-0.00000000E+00-0.00000000E+00-1.24490805E-02-0.00000000E+00-0.00000000E+00
33  2-0.00000000E+00-1.80977897E-01-0.00000000E+00-0.00000000E+00-0.00000000E+00
33  3-0.00000000E+00-1.24490809E-02-0.00000000E+00-0.00000000E+00-0.00000000E+00
33  4-1.80977918E-01-0.00000000E+00-0.00000000E+00-0.00000000E+00-0.00000000E+00
33  5-7.14078845E-01-0.00000000E+00-0.00000000E+00-0.00000000E+00 7.70624448E-01
33  6-0.00000000E+00-0.00000000E+00-0.00000000E+00-0.00000000E+00-7.14078880E-01
33  7-0.00000000E+00-0.00000000E+00-0.00000000E+00 7.70624488E-01-0.00000000E+00
33  8-0.00000000E+00-0.00000000E+00-0.00000000E+00-0.00000000E+00-0.00000000E+00
34  1-4.65716716E-02-3.39635710E-01 0.00000000E+00-1.34554046E-01 1.58436035E-01
34  2-9.50538614E-02 0.00000000E+00 2.25709128E-02 7.88228642E-02-4.65716752E-02
34  3-3.39635753E-01 0.00000000E+00 1.34554049E-01 1.58436053E-01-9.50538139E-02
34  4 0.00000000E+00-2.25708821E-02 7.88228394E-02-4.01851609E-02 1.14457398E-01
34  5 0.00000000E+00 3.65073077E-01-5.77675291E-01 1.69015913E-01 0.00000000E+00
34  6-5.20333752E-01 7.96265768E-01-4.01851632E-02 1.14457404E-01 0.00000000E+00
34  7-3.65073106E-01-5.77675331E-01 1.69015914E-01 0.00000000E+00 5.20333789E-01
34  8 7.96265828E-01 1.09579509E-02-3.95926157E-02 1.09579454E-02-3.95926213E-02
35  1-0.00000000E+00-0.00000000E+00-1.76509946E-02-0.00000000E+00-0.00000000E+00
35  2-0.00000000E+00-4.14520258E-01-0.00000000E+00-0.00000000E+00-0.00000000E+00
35  3-0.00000000E+00 1.76509935E-02-0.00000000E+00-0.00000000E+00-0.00000000E+00
35  4 4.14520249E-01-0.00000000E+00-0.00000000E+00-0.00000000E+00-0.00000000E+00
35  5-7.15630143E-01-0.00000000E+00-0.00000000E+00-0.00000000E+00 8.26155486E-01
35  6-0.00000000E+00-0.00000000E+00-0.00000000E+00-0.00000000E+00 7.15630108E-01
35  7-0.00000000E+00-0.00000000E+00-0.00000000E+00-8.26155449E-01-0.00000000E+00
35  8-0.00000000E+00-0.00000000E+00-0.00000000E+00-0.00000000E+00-0.00000000E+00
36  1-4.89520091E-02-4.95279494E-01-0.00000000E+00-4.35076976E-02 2.32279135E-01
36  2 3.92958849E-01-0.00000000E+00-2.95889249E-01-3.32805760E-01 4.89520055E-02
36  3 4.95279469E-01-0.00000000E+00-4.35076879E-02-2.32279124E-01-3.92958857E-01
36  4-0.00000000E+00-2.95889249E-01 3.32805765E-01-2.93366254E-02 8.11251500E-02
36  5-0.00000000E+00 3.85315013E-01-5.46260568E-01 2.28138008E-02-0.00000000E+00
36  6-5.00295244E-01 7.97872138E-01 2.93366224E-02-8.11251411E-02-0.00000000E+00
36  7 3.85314987E-01 5.46260523E-01-2.28137889E-02-0.00000000E+00-5.00295207E-01
36  8-7.97872078E-01-7.79361392E-02-7.87713192E-02 7.79361402E-02 7.87713169E-02
37  1 7.34374845E-03 1.41305699E-01-0.00000000E+00-1.34627915E-01-9.34074814E-02
37  2 2.16333809E-01-0.00000000E+00 6.42832928E-01 3.64737103E-01 7.34375847E-03
37  3 1.41305780E-01-0.00000000E+00 1.34627899E-01-9.34074747E-02 2.16333033E-01
37  4-0.00000000E+00-6.42833517E-01 3.64737278E-01-1.91803597E-03 1.52216999E-02
37  5-0.00000000E+00 6.00393909E-01 3.67257171E-01-2.04161760E-02-0.00000000E+00
37  6-8.03635718E-01-5.10671009E-01-1.91803570E-03 1.52216945E-02-0.00000000E+00
37  7-6.00394145E-01 3.67257326E-01-2.04161355E-02-0.00000000E+00 8.03636043E-01
37  8-5.10671208E-01-1.64257026E-01-2.21069209E-01-1.64256979E-01-2.21069131E-01
38  1 2.53248054E-02 2.06036267E-01 0.00000000E+00 3.88492277E-02 1.78038802E-02
38  2-1.98228107E+00 0.00000000E+00 1.49981520E+00 4.43522113E-01-2.53248026E-02
38  3-2.06036213E-01 0.00000000E+00 3.88492810E-02-1.78039168E-02 1.98228116E+00
38  4 0.00000000E+00 1.49981495E+00-4.43521968E-01 7.26647955E-04-1.53307526E-02
38  5 0.00000000E+00 5.99974288E-01 3.91190332E-01 1.06537057E-01 0.00000000E+00
38  6-8.23844031E-01-4.99493828E-01-7.26648707E-04 1.53307587E-02 0.00000000E+00
38  7 5.99974050E-01-3.91190187E-01-1.06537064E-01 0.00000000E+00-8.23843714E-01
38  8 4.99493628E-01 1.17067838E-01 1.97772324E-01-1.17067903E-01-1.97772412E-01
39  1-2.12166478E-02-1.56246884E-01 0.00000000E+00-1.71217895E-01 1.78275522E-01
39  2-5.90443159E-01 0.00000000E+00-1.88730001E-01 3.60615760E-01-2.12166479E-02
39  3-1.56246888E-01 0.00000000E+00 1.71217897E-01 1.78275525E-01-5.90443175E-01
39  4 0.00000000E+00 1.88730004E-01 3.60615783E-01 5.29822230E-02-1.19395022E+00
39  5 0.00000000E+00 8.87398749E-02-1.10469509E-01 1.68907991E+00 0.00000000E+00
39  6-3.33334241E-01 4.43383804E-01 5.29822236E-02-1.19395024E+00 0.00000000E+00
39  7-8.87398755E-02-1.10469511E-01 1.68907995E+00 0.00000000E+00 3.33334247E-01
39  8 4.43383813E-01 4.56816912E-02-3.79194440E-02 4.56816930E-02-3.79194408E-02
40  1-4.53420711E-03-1.84226089E-01-0.00000000E+00-1.39331039E-01 1.93892768E-01
40  2-1.15522554E+00-0.00000000E+00 1.38115779E-02 1.17999944E+00 4.53420670E-03
40  3 1.84226086E-01-0.00000000E+00-1.39331036E-01-1.93892765E-01 1.15522553E+00
40  4-0.00000000E+00 1.38115818E-02-1.17999944E+00 3.96620682E-02-1.25568837E+00
40  5-0.00000000E+00 5.16015314E-02-8.78660691E-02 2.12436739E+00-0.00000000E+00
40  6-3.35340049E-01 4.66043021E-01-3.96620671E-02 1.25568834E+00-0.00000000E+00
40  7 5.16015299E-02 8.78660667E-02-2.12436736E+00-0.00000000E+00-3.35340043E-01
40  8-4.66043013E-01 7.63190840E-02 1.58114138E-01-7.63190829E-02-1.58114139E-01
 $END   
 POPULATION ANALYSIS
C            5.79695   0.20305   6.07856  -0.07856
C            5.79695   0.20305   6.07856  -0.07856
F            9.28970  -0.28970   8.94693   0.05307
F            9.28970  -0.28970   8.94693   0.05307
H            0.91335   0.08665   0.97450   0.02550
H            0.91335   0.08665   0.97450   0.02550
 MOMENTS AT POINT    1 X,Y,Z=  0.000000  0.000000 -0.976289
 DIPOLE      -0.000000 -0.000000  0.172272

! TRAVIS-CI SMALL

