!   restricted open shell reference geom.opt. with spin-flip TDDFT
!   H2CO wrapped in PCM water...test from Noriyuki...August 2012
!
!   NSERCH:   0  E=     -114.4565117043  R.M.S.=  0.0015285
!   NSERCH:   1  E=     -114.4564881351  R.M.S.=  0.0014286
!   NSERCH:   2  E=     -114.4565230966  R.M.S.=  0.0003324
!   NSERCH:   3  E=     -114.4565233257  R.M.S.=  0.0002507
!   NSERCH:   4  E=     -114.4565234407  R.M.S.=  0.0001181
!   NSERCH:   5  E=     -114.4565234589  R.M.S.=  0.0001936
!   NSERCH:   6  E=     -114.4565235665  R.M.S.=  0.0000169
!
!   This run takes 124 seconds on 2.66 GHz Cloverton (2 Sep 2012)
!
!-----------------------------------------------------------------------
! H2CO
!-----------------------------------------------------------------------
 $CONTRL RUNTYP=OPTIMIZE SCFTYP=ROHF DFTTYP=BHHLYP TDDFT=SPNFLP MULT=3
         MAXIT=100 $END
 $SYSTEM MWORDS=20 $END
!-----------------------------------------------------------------------
! Wave function
!-----------------------------------------------------------------------
 $GUESS GUESS=MOREAD NORB=40 $END
 $BASIS GBASIS=DH NDFUNC=1 NPFUNC=1 $END
 $TDDFT NSTATE=5 IROOT=1 MULT=1 NONEQ=.F. $END
!-----------------------------------------------------------------------
! PCM
!-----------------------------------------------------------------------
 $PCM SOLVNT=WATER $END
 $PCMITR MXITR1=100 MXITR2=100 $END
!-----------------------------------------------------------------------
! Geometry
!-----------------------------------------------------------------------
 $DATA  
H2CO SF-BHHLYP/PCM S0
C1
 O           8.0   2.0047174261  -1.2044159001  -1.2183049102
 C           6.0   1.7002977106  -0.9860871697  -0.0824484221
 H           1.0   0.6903569141  -1.1849733842   0.3065753520
 H           1.0   2.4104486992  -0.5721785358   0.6491298728
 $END
--- OPEN SHELL ORBITALS --- GENERATED AT Tue Aug 21 01:00:12 2012
H2CO SF-BHHLYP/PCM S0                                                           
E(RO-BHHLYP)=     -114.3412965343, E(NUC)=   31.4987736333,   16 ITERS
 $VEC   
 1  1 9.98706151E-01 3.21073637E-03 4.39632964E-03-3.67624193E-04 2.63163174E-04
 1  2 1.37126446E-03-6.45544518E-05 4.65569392E-05 2.41407763E-04-1.83386551E-03
 1  3-1.75281486E-03-1.25870064E-03-7.63236222E-05-1.81553114E-04 1.02332233E-04
 1  4-7.13987809E-05 1.49779273E-04-9.64183410E-04-1.08612122E-04 7.80117878E-05
 1  5 4.05446485E-04-1.67859884E-04 1.19840385E-04 6.24437367E-04-1.61501638E-04
 1  6-7.37856165E-05-5.77254791E-04-1.03612899E-06 1.45912536E-04-1.24120369E-04
 1  7 9.72834991E-05-6.06435571E-05 5.54695648E-05 1.45137309E-05-8.26213520E-06
 1  8 9.70869017E-05-5.97389379E-05-4.55068221E-05-2.14390297E-05-2.83136954E-05
 2  1-2.73099530E-04 5.98474104E-04-1.36912546E-03-1.23752627E-04 8.88416865E-05
 2  2 4.61758892E-04 1.87413542E-04-1.34420740E-04-6.99566960E-04 7.91458929E-05
 2  3 5.87020850E-05 5.64484213E-05 9.64452197E-06 5.44825992E-06 1.94012705E-06
 2  4 9.96649106E-01 1.78539625E-02 8.71226728E-04 4.27082154E-04-3.06145269E-04
 2  5-1.59186261E-03-2.66580123E-05 1.91578580E-05 9.95555409E-05-5.29543959E-03
 2  6-5.06516677E-03-4.56267357E-03-1.46196813E-04-2.18655839E-04 8.70857993E-05
 2  7 6.26592512E-04-1.33725211E-04 4.21885683E-04 8.27167019E-05-1.63779669E-04
 2  8 6.26346648E-04-1.33932422E-04-2.95888601E-04-1.72875371E-04-3.06467778E-04
 3  1-2.15627851E-01 4.76955128E-01 3.09801572E-01-4.44760670E-02 3.18296073E-02
 3  2 1.65832696E-01 3.23942939E-03-2.39318558E-03-1.21960020E-02-1.02116960E-03
 3  3-4.10181933E-03 1.87874287E-02-3.68507024E-04-6.83975859E-03 5.53124850E-03
 3  4-1.11321023E-01 2.05684242E-01 1.07024597E-01 5.09303212E-02-3.65401964E-02
 3  5-1.90033009E-01-4.08916580E-03 2.90521516E-03 1.51689275E-02-1.36149178E-02
 3  6-1.47949246E-02 2.63850334E-02-2.68896091E-03-1.33039868E-02 9.45837806E-03
 3  7 2.77126735E-02-6.07857858E-03 5.54583829E-03 9.72615246E-04-2.57583957E-03
 3  8 2.77308039E-02-6.02544475E-03-3.68018871E-03-2.31521119E-03-4.41526551E-03
 4  1 1.01180076E-01-2.25506455E-01-2.78214543E-01-6.53537351E-02 4.69705120E-02
 4  2 2.44137967E-01-2.43101373E-02 1.75345062E-02 9.09933677E-02-7.68387975E-04
 4  3-1.31200787E-03 2.04781153E-02-1.45838776E-03-7.05376552E-03 4.98866351E-03
 4  4-1.71539695E-01 3.59237467E-01 2.50936254E-01-3.77471772E-02 2.71019832E-02
 4  5 1.41213328E-01-1.10121507E-02 7.73171271E-03 4.05007965E-02 1.47560353E-02
 4  6-3.04344347E-03-5.10872382E-03 8.40850826E-03 4.79230591E-03 1.61044665E-03
 4  7 1.65625732E-01 6.38937857E-02 1.29347779E-02 2.76450289E-03-4.19488939E-03
 4  8 1.65694083E-01 6.42618013E-02-9.50761641E-03-5.22815762E-03-8.65534853E-03
 5  1 6.08689649E-02-1.21546426E-01-2.74939328E-01-1.45171395E-01 1.04451549E-01
 5  2 5.41957226E-01-4.40516291E-02 3.17690887E-02 1.64479104E-01-2.75937348E-03
 5  3-2.77519971E-03 3.50028580E-02-2.96188087E-03-1.24531144E-02 8.55089648E-03
 5  4 8.23804899E-03-4.86738288E-03-7.79455634E-02 1.07721641E-01-7.70191444E-02
 5  5-4.01571172E-01-2.82135366E-03 2.16481043E-03 1.10595901E-02-1.88977574E-02
 5  6-6.24467078E-03 1.10455425E-02-7.21778858E-03-8.61442208E-03 2.43448351E-03
 5  7-1.16436860E-01-1.01574978E-01-5.83184149E-03-1.97984718E-03-7.97953985E-04
 5  8-1.16293060E-01-1.01752432E-01 5.65555218E-03 2.10661255E-03 1.47117277E-03
 6  1-5.45135644E-05 1.15429025E-04 2.58161666E-04 2.51317989E-01 8.95737501E-02
 6  2 4.98755752E-02 6.85973864E-02 2.44656882E-02 1.35805387E-02-9.19485813E-03
 6  3 2.34800015E-03 6.82666385E-03 1.90371219E-03 1.87443618E-02 7.81244555E-03
 6  4 4.88940092E-05-7.55438625E-05-2.21499540E-04 4.71237153E-01 1.67954874E-01
 6  5 9.40481847E-02 8.83319544E-02 3.14919738E-02 1.77474505E-02-1.23050134E-03
 6  6 3.17316560E-04 9.29154937E-04 2.54839650E-04 2.56974829E-03 1.06045407E-03
 6  7-2.05610046E-01-1.39543754E-01-9.46275485E-03-8.93266095E-04 7.21647878E-03
 6  8 2.05709241E-01 1.39694635E-01-4.84314846E-03-4.20066096E-03-1.00526442E-02
 7  1-4.09183667E-05 1.20203294E-04 1.28228050E-04-1.83364100E-01 6.07682775E-01
 7  2-1.66166701E-01-7.53626994E-02 2.49822889E-01-6.83082390E-02 3.85018445E-03
 7  3 9.04919738E-03-1.28863657E-02-8.88980431E-03-6.22179816E-03 2.58263432E-02
 7  4-1.48367801E-05 7.48750997E-05-3.37849316E-05-8.82903987E-02 2.92143965E-01
 7  5-7.96596147E-02-1.98863371E-02 6.57851351E-02-1.78735450E-02-3.82589070E-03
 7  6-9.14440958E-03 1.30012959E-02 8.95585561E-03 6.28292500E-03-2.60258280E-02
 7  7 7.46647263E-05 8.57510443E-05-1.29617345E-03 4.29826985E-03-1.17550420E-03
 7  8 6.73148696E-06 3.32641613E-06-1.29772700E-03 4.30246533E-03-1.17169252E-03
 8  1-3.22127046E-05 1.40076004E-04-4.59654304E-05 6.75267875E-01 2.40546670E-01
 8  2 1.34672093E-01 2.94048045E-01 1.04761386E-01 5.86300379E-02-7.14866157E-03
 8  3 1.84068264E-03 5.34700121E-03 1.46892935E-03 1.45850096E-02 6.07596226E-03
 8  4-1.24659541E-05 5.60140669E-05 1.69385251E-04-1.57565984E-01-5.61735811E-02
 8  5-3.13642488E-02-1.30415852E-02-4.64094145E-03-2.57876461E-03 1.83703309E-02
 8  6-4.68176536E-03-1.36598612E-02-3.82600868E-03-3.74608641E-02-1.56149845E-02
 8  7 1.51738741E-01 1.96995869E-01 3.20061367E-03 4.60455417E-05-3.37798823E-03
 8  8-1.51753744E-01-1.97256453E-01 1.17612561E-03 1.50686257E-03 4.23596476E-03
 9  1-4.32566039E-06-5.12966043E-05 2.43463629E-04 1.19205219E-01-3.94858626E-01
 9  2 1.07876833E-01 9.84588164E-02-3.26028618E-01 8.90749236E-02 1.26454917E-03
 9  3 3.07166816E-03-4.39162963E-03-3.00861533E-03-2.10922222E-03 8.74144177E-03
 9  4-2.73124585E-05 7.15731299E-05 4.17346690E-05-1.91001183E-01 6.32767561E-01
 9  5-1.72727483E-01-1.35434077E-01 4.47914656E-01-1.22112514E-01 3.02879701E-03
 9  6 7.19118645E-03-1.02224847E-02-7.05850996E-03-4.94787481E-03 2.04979081E-02
 9  7-6.90257295E-05-1.76139332E-04-6.00835029E-03 1.98912205E-02-5.43027471E-03
 9  8-4.20173999E-05 4.19413988E-05-6.00782339E-03 1.98980535E-02-5.43069600E-03
10  1-1.08277402E-01 5.88789764E-02 1.55088812E+00-2.05884604E-02 1.42894314E-02
10  2 7.55028076E-02-8.72153305E-02 6.20717724E-02 3.23018554E-01-7.50042299E-02
10  3-7.28179220E-02-5.74614567E-02-2.22639415E-03-5.59382864E-03 3.18179803E-03
10  4 3.14557596E-02-5.19597145E-02-5.82120520E-01-1.74333083E-02 1.14708311E-02
10  5 6.35140443E-02-4.31037167E-01 3.13245516E-01 1.62199994E+00-2.26786902E-02
10  6-1.09491399E-02 2.93683945E-02-8.59835199E-03-1.59857449E-02 7.77648733E-03
10  7 1.72579964E-02-3.91691414E-01 3.88079535E-03 4.93166796E-03 1.38352603E-02
10  8 1.68169534E-02-3.95529750E-01-1.04941489E-02-1.61118108E-04 1.10369426E-02
11  1 1.27726661E-02 6.91123707E-03-2.36309739E-01 2.32164504E-02-1.68524612E-02
11  2-8.75128080E-02 6.19419489E-02-4.47227785E-02-2.32840271E-01 5.64518205E-03
11  3 1.90502142E-02 7.54653010E-03-5.30694858E-03 7.05154117E-04-4.15984604E-03
11  4-1.26266041E-01 2.51451681E-01 2.38611420E+00-7.17818454E-02 5.19022409E-02
11  5 2.69558119E-01-1.64149594E-01 1.19610587E-01 6.21694945E-01-4.28355849E-03
11  6 9.33344273E-03 1.31605772E-02-6.60880010E-03-4.39223466E-03-7.14466733E-04
11  7-6.81305271E-02-1.60730104E+00 7.33843564E-03 4.29314628E-03 7.61828743E-03
11  8-6.80343035E-02-1.61097676E+00-1.04618890E-02-2.05400499E-03 4.05087038E-03
12  1 1.70445815E-04-8.50142928E-05-2.48868649E-03-9.14286874E-02-3.26541877E-02
12  2-1.82949222E-02-3.54218275E-01-1.26271772E-01-7.12601110E-02 1.34737221E-02
12  3-3.27817006E-03-9.84376145E-03-2.78487776E-03-2.72172999E-02-1.13374127E-02
12  4-2.60637338E-05 2.76368018E-04 1.28603436E-04-6.03399194E-01-2.14649119E-01
12  5-1.20664091E-01 2.09860394E+00 7.46448853E-01 4.15649962E-01-4.10532251E-03
12  6 1.14478438E-03 3.11046023E-03 9.02319460E-04 8.61010642E-03 3.56461498E-03
12  7 9.03710606E-02 9.53812540E-01 3.17482750E-02 5.53085790E-03-1.48893533E-02
12  8-9.02999875E-02-9.51923763E-01 2.10560626E-02 1.32777876E-02 2.53383088E-02
13  1 5.08412049E-05 7.27964935E-05-1.07364212E-03-2.58232022E-01-9.20263766E-02
13  2-5.13537845E-02-4.18876253E-01-1.49151041E-01-8.34684710E-02-1.02617594E-02
13  3 2.71752959E-03 7.74204362E-03 2.16598788E-03 2.10838155E-02 8.80303006E-03
13  4 9.45247490E-05 1.20930649E-04-2.37119130E-03 5.97671209E-01 2.13230288E-01
13  5 1.19091730E-01 1.96587445E+00 6.99477639E-01 3.89640762E-01 1.10036816E-02
13  6-2.75994361E-03-8.08913786E-03-2.25078570E-03-2.23212053E-02-9.28927485E-03
13  7 4.06535984E-02 2.13651102E+00-1.44728397E-02 2.33499786E-03 2.45901591E-02
13  8-4.01285759E-02-2.13315266E+00-4.70665903E-04-7.67080333E-03-2.76184233E-02
14  1 5.25780468E-05-7.48650519E-05-5.98451795E-04 5.27913609E-03-1.79937609E-02
14  2 4.78077811E-03 3.48766539E-02-1.16142837E-01 3.15108846E-02-5.70540206E-03
14  3-1.36253053E-02 1.94031712E-02 1.33550456E-02 9.36325109E-03-3.88107430E-02
14  4-2.19091330E-05 2.39489787E-04-2.18912945E-04 2.49628243E-01-8.27275018E-01
14  5 2.25852953E-01-3.31586218E-01 1.10407247E+00-3.01995246E-01 1.26432434E-03
14  6 2.93625951E-03-4.11271569E-03-2.82306423E-03-1.96128305E-03 8.20681350E-03
14  7 6.46439038E-05 1.26076425E-03 3.64833357E-03-1.20050477E-02 3.25205455E-03
14  8-2.04262781E-05-6.53623716E-04 3.63543882E-03-1.20054462E-02 3.25295788E-03
15  1 6.85604090E-02-2.39559628E-01-6.27877693E-01-1.86510861E-02 1.35369922E-02
15  2 6.93141605E-02 2.89159418E-01-2.07833713E-01-1.07973856E+00-4.18753959E-02
15  3-1.88200901E-02-2.03860120E-02-1.05593207E-02-4.79951683E-03-3.04689420E-03
15  4-3.01223589E-02-4.52109886E-01 3.02271600E+00 1.92647239E-01-1.38066194E-01
15  5-7.17918116E-01-2.03826895E-01 1.47191776E-01 7.64580007E-01-1.10378371E-01
15  6-2.18494887E-02-7.16559942E-02-3.71357158E-02-4.06023359E-03-2.16028359E-02
15  7-3.01443229E-01-7.08131154E-01-1.64299755E-02-1.46429488E-03 1.28719464E-02
15  8-3.01542741E-01-7.09621753E-01 8.18283423E-03 7.29395208E-03 1.77203873E-02
16  1-1.59800093E-02-3.23515333E-02 3.50557058E-01 1.67292163E-01-1.20160909E-01
16  2-6.25481634E-01-3.26112055E-01 2.33985575E-01 1.21791905E+00-3.33450451E-03
16  3 1.24765467E-03 5.50312658E-02-6.34708258E-03-1.87958668E-02 1.16198381E-02
16  4-6.88681715E-02-5.82699211E-01 3.54546650E-01-5.06405289E-03 3.60671040E-03
16  5 1.89663871E-02-5.99861970E-02 4.39430119E-02 2.26935456E-01-7.69097084E-02
16  6 1.20159821E-02-2.53585875E-01-2.03420382E-02 6.70832635E-02-7.04246104E-02
16  7-1.97198584E-01-9.27346666E-02 1.11813317E-02-7.42411297E-03-3.95321320E-02
16  8-1.97023517E-01-9.45031768E-02 1.00958527E-02-7.82457755E-03-3.97797086E-02
17  1-4.63205927E-02 1.67705820E-01-7.29476085E-02-1.27503965E-01 9.31779272E-02
17  2 4.75652366E-01-5.57151861E-02 3.67725452E-02 2.06194548E-01 4.99207279E-02
17  3 7.13648227E-02-1.37890565E-01 6.52007627E-03 6.40905150E-02-4.98158966E-02
17  4 5.96552902E-02-9.64993466E-01 1.12864036E+00-2.01908510E-01 1.45024740E-01
17  5 7.54754460E-01 8.25399019E-02-5.71733662E-02-3.05038082E-01-2.19974907E-01
17  6-1.16982516E-01 7.36483969E-02-6.27517785E-02-8.68067168E-02 3.09520722E-02
17  7-1.92235923E-01-1.25662157E-01 3.34902552E-02 2.45873415E-02 5.28952634E-02
17  8-1.93158168E-01-1.25959850E-01-5.70549761E-02-7.69019393E-03 3.47793800E-02
18  1-5.11516460E-05 4.18467006E-04-8.70982392E-04 2.42561160E-01-8.04078123E-01
18  2 2.20414461E-01-3.88776819E-01 1.28801597E+00-3.51572635E-01-2.19475144E-03
18  3-5.46983766E-03 7.83563603E-03 5.52269931E-03 3.99315751E-03-1.61440521E-02
18  4 8.53345192E-05-1.91493279E-03 3.06496869E-03-1.01284526E-03 2.46563787E-03
18  5 5.93031844E-04 1.62639593E-01-5.38914647E-01 1.46475223E-01 6.06618052E-03
18  6 1.53048722E-02-2.19093423E-02-1.53184430E-02-1.07641408E-02 4.41109233E-02
18  7-5.59328707E-04-4.20420651E-04 4.54882064E-03-1.47818611E-02 4.14480100E-03
18  8-4.63311981E-04-2.86406296E-04 4.35743054E-03-1.48212104E-02 4.11597282E-03
19  1-2.91387016E-05 5.18901553E-04-1.04976688E-03-6.26318927E-01-2.22945767E-01
19  2-1.24213303E-01 1.43889258E+00 5.12513850E-01 2.86421598E-01 3.31979116E-02
19  3-8.27427148E-03-2.46398725E-02-6.91037053E-03-6.73061044E-02-2.81532284E-02
19  4 1.07130624E-04-1.10521914E-03 2.65375928E-03-2.31160587E-01-8.21783008E-02
19  5-4.55290955E-02-1.15885615E+00-4.12973576E-01-2.31116764E-01-8.75378505E-02
19  6 2.21309639E-02 6.52283369E-02 1.81350514E-02 1.78279363E-01 7.44193018E-02
19  7-3.20111594E-01-3.56996233E-01 3.76483395E-02 3.87330191E-03-2.76144717E-02
19  8 3.20154401E-01 3.55493840E-01 1.97814960E-02 1.66233337E-02 3.91866721E-02
20  1 5.56487869E-03 2.29567371E-01-8.47526819E-01-1.03380865E-02 7.79212148E-03
20  2 4.03693567E-02 7.75916565E-02-5.64509284E-02-2.93025424E-01 7.01723698E-02
20  3 8.41873975E-02 4.56488067E-02-3.48027630E-03 9.43954146E-03-1.03481830E-02
20  4 7.11264894E-02-1.04630493E+00 3.28624637E+00 9.25541806E-02-6.65253388E-02
20  5-3.46035631E-01-1.63563213E-01 1.18836768E-01 6.17236727E-01 1.31523521E-01
20  6-1.64128314E-01-5.99082668E-02 1.28844743E-01 3.39088544E-02 5.79744184E-02
20  7 7.00966283E-01-1.69230166E+00-1.21747206E-01-3.42211152E-02 9.32662235E-03
20  8 7.01560656E-01-1.69480091E+00 1.04695686E-01 4.64731855E-02 5.45116141E-02
21  1-2.94142490E-05-4.67893662E-04 1.36814079E-03 4.98948077E-01 1.77871182E-01
21  2 9.96645659E-02-9.52649580E-01-3.39358172E-01-1.89393975E-01 3.12190285E-02
21  3-8.11956097E-03-2.35492776E-02-6.49832430E-03-6.39297392E-02-2.66786841E-02
21  4-1.26042590E-05 2.69237057E-04-2.39070974E-03-2.63031002E-01-9.36075185E-02
21  5-5.19690785E-02 2.16554570E+00 7.71465425E-01 4.31012930E-01-1.13933839E-01
21  6 2.91849847E-02 8.48277574E-02 2.37285798E-02 2.32433776E-01 9.68910049E-02
21  7-7.34699112E-01 2.28457022E+00 4.71673225E-02-1.59359437E-03-5.78624417E-02
21  8 7.34039744E-01-2.28236837E+00 1.27973963E-02 2.29909137E-02 6.99239360E-02
22  1-1.56596793E-06-1.16786668E-04 2.62678760E-04-8.63735113E-05-3.73987859E-05
22  2-2.65148924E-05 4.10786859E-04 1.67694123E-04 1.46433257E-04-8.85581793E-02
22  3 1.04536176E-01-1.60582950E-02 1.51178804E-01-5.65601782E-02 1.72721054E-02
22  4-2.06426261E-06-2.68861531E-06-1.11466747E-04 8.03336058E-05 2.05605295E-06
22  5 2.49297964E-05-8.31220598E-04-2.92563510E-04-1.12398762E-04-3.07478211E-01
22  6 3.62885211E-01-5.54053941E-02 5.24697355E-01-1.95784558E-01 6.01099964E-02
22  7 1.54039703E-04-7.16222087E-04 9.19252792E-02-3.04502573E-01 8.30200596E-02
22  8-1.14092781E-04 6.99205747E-04-9.20236611E-02 3.04638464E-01-8.30478147E-02
23  1-5.24543451E-02-1.81102717E+00 4.55930666E+00-2.19588608E-02 1.54611913E-02
23  2 8.11167778E-02-2.32274324E-01 1.67397613E-01 8.69053507E-01-3.19681300E-01
23  3-4.08909595E-01-6.04838678E-01 5.67474517E-02 8.51940013E-02-3.39475391E-02
23  4-1.19637417E-02-1.08291697E-01-1.87801800E+00-7.87293810E-02 5.64665271E-02
23  5 2.93661542E-01-2.88908937E-01 2.05667845E-01 1.07282165E+00 2.13284169E-01
23  6-5.24729008E-02-1.01451132E-01 1.26932228E-01 7.74079472E-02 1.98511195E-02
23  7 8.36830939E-02-1.00277907E-01 1.56568769E-02-1.84512598E-03-2.42862635E-02
23  8 8.33603848E-02-9.78646035E-02-1.68967483E-03-8.10351452E-03-2.78802952E-02
24  1 1.70538530E-06 2.60317954E-04-5.90073398E-04-4.62862956E-02 1.53303767E-01
24  2-4.18280504E-02-4.84867623E-02 1.60775732E-01-4.41295443E-02-4.83924405E-02
24  3-1.15237135E-01 1.63790882E-01 1.12941971E-01 7.91345674E-02-3.27891881E-01
24  4 3.92969047E-06-1.00022237E-04 6.83078091E-04-1.57080903E-02 5.20448953E-02
24  5-1.41999137E-02 6.40113982E-02-2.12077519E-01 5.79596016E-02 8.40293815E-02
24  6 1.99125595E-01-2.83155161E-01-1.94934774E-01-1.36876424E-01 5.67250892E-01
24  7-8.16378801E-05-1.75883295E-04-6.55564480E-02 2.16862801E-01-5.93501297E-02
24  8-8.88691208E-05-1.76213058E-04-6.53332144E-02 2.16796640E-01-5.92588983E-02
25  1-2.05132287E-03 4.75800927E-01-9.59824519E-01-3.26188666E-02 2.33104905E-02
25  2 1.21763638E-01 9.37188543E-02-6.74000535E-02-3.50461314E-01 4.62528789E-01
25  3-3.13986488E-01 9.41388615E-02 3.27903648E-01 4.50542714E-02 1.83279242E-01
25  4-1.67079285E-02-1.35756962E-01 1.15686224E+00-1.66081922E-02 1.16387942E-02
25  5 6.13697417E-02-2.55808117E-02 1.90022707E-02 9.81761472E-02 3.43449508E-01
25  6-4.21819926E-01-8.82802233E-02 3.28492022E-01 6.65742126E-02 1.64338648E-01
25  7-3.66915925E-01-1.59101416E-01 5.24960749E-02-4.47477177E-02-2.21772782E-01
25  8-3.66221149E-01-1.60485545E-01 6.58587277E-02-4.00181478E-02-2.19290153E-01
26  1-4.65072225E-05 1.00111977E-04 9.25780813E-04-1.07639768E-01-3.82066092E-02
26  2-2.09336697E-02 1.11623669E-01 3.97443789E-02 2.21515289E-02-1.49433527E-01
26  3 3.87202263E-02 1.10634990E-01 3.09152245E-02 3.03021371E-01 1.26241292E-01
26  4 4.77126376E-05 2.16569212E-05-7.66632463E-04-2.24549297E-01-7.98717208E-02
26  5-4.43045354E-02-9.81367287E-02-3.48470954E-02-1.91181434E-02 1.78305356E-01
26  6-4.49024489E-02-1.33313334E-01-3.73207264E-02-3.64069951E-01-1.52120166E-01
26  7-5.12271296E-01 3.27069270E-01 3.17428292E-01 1.61994080E-01 2.42395433E-01
26  8 5.12410176E-01-3.26963541E-01 4.09055010E-01 9.66118157E-02-9.83523225E-02
27  1-7.19551565E-06 1.09442750E-04-3.13513573E-06-2.64115809E-06 1.14996361E-05
27  2 1.35437149E-04-4.29764327E-05 1.12472861E-05-1.03289434E-04-4.06524745E-01
27  3 4.79973173E-01-7.34035886E-02 6.93722538E-01-2.59198047E-01 7.94402014E-02
27  4 1.02282817E-05-6.85994048E-06-2.25551975E-05 2.88746577E-05 4.15118269E-05
27  5 9.66670437E-05 1.32626201E-04 8.70628387E-05 1.09657433E-04-2.39175712E-02
27  6 2.83072364E-02-4.38572403E-03 4.08465589E-02-1.51155609E-02 4.64289215E-03
27  7 1.07545669E-04-2.41151148E-05-8.46820781E-02 2.79500133E-01-7.67172106E-02
27  8-1.68119037E-04 3.70059364E-05 8.42204336E-02-2.79910542E-01 7.64177435E-02
28  1-3.22033839E-02 3.48586683E-01 1.94036747E-01-1.30255014E-01 9.31275103E-02
28  2 4.84934313E-01 6.55609520E-02-4.71870457E-02-2.45320755E-01-2.50912039E-01
28  3 3.65384786E-01-6.45413929E-03-2.55830745E-01-1.69579462E-02-1.55060017E-01
28  4 4.09518674E-02-5.03800821E-02-2.00998864E-01-9.76515745E-02 6.96775232E-02
28  5 3.62870689E-01-8.23810713E-02 6.15722938E-02 3.16506389E-01 1.83448500E-01
28  6 2.89638359E-01-4.32100693E-01 7.40999880E-03 2.13222504E-01-1.75702463E-01
28  7-1.03144642E-01 3.48079315E-02-5.91425366E-02-1.39324097E-01-4.43877771E-01
28  8-1.02312446E-01 3.09053766E-02 2.74113692E-01-1.88651053E-02-3.71775224E-01
29  1-1.83371480E-04 1.97232328E-03 8.53920117E-04 7.82780901E-02 2.86285814E-02
29  2 1.82771016E-02-2.92206896E-02-1.08387852E-02-7.35060121E-03 2.45542522E-01
29  3-6.11471183E-02-1.83888962E-01-5.26006429E-02-5.03906280E-01-2.10838570E-01
29  4 2.10535962E-04-3.05130359E-04-6.95546768E-04 1.13781985E-01 4.11220266E-02
29  5 2.47083024E-02-3.99254771E-01-1.41713217E-01-7.76523333E-02-3.61908774E-02
29  6 1.08954050E-02 2.54511095E-02 7.82993572E-03 7.67691767E-02 3.07388760E-02
29  7 1.67515070E-01-4.36606364E-01 9.59258402E-02 1.72507944E-01 5.25708726E-01
29  8-1.68622662E-01 4.36741076E-01 3.56531227E-01-1.27522755E-02-4.40483538E-01
30  1-6.47332917E-04 1.72263108E-01 8.01202012E-02-7.33833215E-02 5.28640650E-02
30  2 2.73465115E-01 3.16174907E-02-2.32524870E-02-1.16970629E-01 5.42137327E-01
30  3-3.08989292E-01-5.73940813E-02 3.75032259E-01 1.13957849E-01 1.54682501E-01
30  4 6.05717715E-02 3.78485574E-02-4.02600251E-01-5.81278345E-02 4.26164878E-02
30  5 2.15751062E-01-1.86275802E-02 1.37218235E-02 6.78306648E-02-5.77782656E-02
30  6 7.37744234E-01-2.43636321E-01-2.91813198E-01 1.39520526E-01-3.14185557E-01
30  7 1.81264305E-01-7.25709521E-02-2.26917427E-01-6.55704367E-02 1.94870337E-02
30  8 1.81204822E-01-7.22383222E-02 1.95465328E-01 8.48949505E-02 1.03596033E-01
31  1 2.59576470E-06 7.46517596E-04-9.83388761E-05 2.24726766E-02-7.51123810E-02
31  2 2.15285284E-02-6.72238920E-02 2.23029162E-01-6.14516233E-02 5.84035227E-02
31  3 1.33879482E-01-1.91590811E-01-1.30791082E-01-9.21897683E-02 3.83781405E-01
31  4 2.03647268E-04 8.29817112E-05-9.81645872E-04 1.03687808E-01-3.43904769E-01
31  5 9.46491317E-02 6.45418845E-02-2.14029649E-01 5.86807722E-02-1.91902275E-02
31  6-4.26976057E-02 6.33578548E-02 4.32404091E-02 3.15924693E-02-1.29859315E-01
31  7 5.06372432E-04-3.11212319E-04-1.92815562E-01 6.35666373E-01-1.73524149E-01
31  8 5.10798408E-04-2.99437414E-04-1.91116606E-01 6.36028677E-01-1.73206423E-01
32  1-2.55214543E-07-5.09166902E-05 8.36261624E-05 2.07938367E-05 3.66448177E-05
32  2-2.22251716E-05-2.65559476E-04 1.19978254E-04-6.38128864E-05 1.78647289E-01
32  3-2.10551668E-01 3.18805317E-02-3.04840161E-01 1.13455883E-01-3.44267810E-02
32  4-2.53766257E-06-1.29148789E-05-1.87558310E-06 3.65683873E-04-6.28923095E-06
32  5 1.03122645E-04 3.96011575E-04 1.34136580E-04 1.07302671E-04-3.78853621E-01
32  6 4.47411542E-01-6.85664708E-02 6.46541559E-01-2.41669928E-01 7.44836733E-02
32  7-1.09434118E-04 4.97690837E-04-1.73396616E-01 5.74833528E-01-1.57080766E-01
32  8 1.31440140E-04-5.31075734E-04 1.73757263E-01-5.75254269E-01 1.57227740E-01
33  1-9.64342456E-06-1.62446669E-03 3.21688782E-03-3.46060195E-02 1.14816317E-01
33  2-3.16168157E-02-9.38433853E-02 3.10022869E-01-8.32553175E-02 1.23155729E-01
33  3 2.93677304E-01-4.17301299E-01-2.88078968E-01-2.02637951E-01 8.37894963E-01
33  4-1.55046056E-04-4.48664360E-04-3.98462448E-06 7.64498569E-02-2.54335256E-01
33  5 7.08908304E-02 2.25741849E-02-7.54332982E-02 2.13300719E-02 1.21972848E-01
33  6 2.89865928E-01-4.12346397E-01-2.85239587E-01-2.00014339E-01 8.27796508E-01
33  7 4.75943872E-05-7.80476407E-04 6.98123403E-02-2.34188333E-01 6.33118122E-02
33  8 4.71265644E-05-6.85080850E-04 7.12502237E-02-2.32693657E-01 6.33687320E-02
34  1-1.83203587E-02-8.38225541E-01 2.01939569E+00-6.81633681E-03 4.64746128E-03
34  2 2.56216045E-02-2.28881014E-01 1.61761621E-01 8.47424802E-01-3.81392524E-01
34  3-4.96616067E-01 6.33123538E-01-3.57849114E-02-3.47956311E-01 2.66229121E-01
34  4-8.71677068E-02-3.98059855E-01-1.79460349E-01-2.49075795E-01 1.82570373E-01
34  5 9.42188900E-01-1.02421110E-01 7.71909751E-02 3.95568805E-01-3.36819241E-01
34  6-2.24292952E-01 1.71188547E-01-8.30412914E-02-1.56499933E-01 7.40614324E-02
34  7 8.37774680E-03-3.37588160E-01-3.77908685E-01-1.97492823E-01-3.07118661E-01
34  8 8.13420464E-03-3.45125957E-01 4.96767953E-01 1.15453872E-01-1.28214517E-01
35  1 1.02340287E-04 3.07229164E-03-8.22322797E-03-2.34487700E-02-8.45683576E-03
35  2-5.07971847E-03-4.84637015E-01-1.73631697E-01-1.00125210E-01 3.08245871E-01
35  3-7.63403248E-02-2.30907154E-01-6.35807041E-02-6.23887589E-01-2.61759336E-01
35  4 3.07169204E-04 1.72706969E-03 7.54100812E-04 8.54481543E-01 3.03278970E-01
35  5 1.66042122E-01 8.67956498E-01 3.08760844E-01 1.71174290E-01 1.27748289E-01
35  6-3.19278612E-02-9.46262973E-02-2.65172813E-02-2.57260470E-01-1.07765143E-01
35  7 3.48310717E-02 9.63000050E-01 4.77482915E-01 1.32883831E-02-4.78595034E-01
35  8-3.49084481E-02-9.60008710E-01 1.81881475E-01 2.21930841E-01 6.11243518E-01
36  1-5.67799695E-02-5.53003375E-02 1.63138036E+00-1.70649069E-01 1.22364913E-01
36  2 6.36379582E-01-2.20886407E-01 1.58263451E-01 8.23281069E-01-4.56292837E-01
36  3-5.03281374E-01 9.03165772E-01-8.89319810E-02-4.53410881E-01 3.23864931E-01
36  4 2.56801331E-02-1.10622114E+00-1.26651372E+00-2.36766491E-01 1.69801262E-01
36  5 8.83401096E-01 3.36679173E-02-2.38220813E-02-1.24658907E-01 3.30712325E-01
36  6 4.39039364E-01-9.26381024E-01 5.67566249E-02 4.24428235E-01-3.21274393E-01
36  7 7.57125353E-02 3.75527370E-01 3.80909423E-01 1.80795750E-01 2.41028270E-01
36  8 7.58428168E-02 3.75025434E-01-4.64974201E-01-1.20566116E-01 7.26200364E-02
37  1-9.76485456E-03 4.53458461E-01-5.18640711E-01-6.10144374E-02 4.36574302E-02
37  2 2.27328936E-01 4.13794698E-02-2.97602800E-02-1.54681207E-01-1.22811891E-01
37  3 1.17920262E-01 8.96965656E-02-1.09427392E-01-4.65017338E-02-3.45934966E-02
37  4-1.21326005E-01 8.28567354E-01 1.16460672E+00-1.84121529E-01 1.32713567E-01
37  5 6.90459267E-01 7.60914483E-05 2.00466636E-04 8.71333244E-04 6.81244791E-01
37  6-5.10861909E-01-5.73674333E-01 5.57514950E-01 2.96043828E-01 1.24589862E-01
37  7-5.48707366E-01-4.70387036E-01-7.44364949E-01-7.79333513E-02 5.38321545E-01
37  8-5.49395700E-01-4.70958566E-01 3.96212139E-01 3.28492388E-01 7.65870998E-01
38  1 1.78221125E-05 5.06246843E-05 1.96926080E-04 1.43259059E-01 5.11249868E-02
38  2 2.88473816E-02 2.36601750E-01 8.43280092E-02 4.72595292E-02-2.54727245E-01
38  3 6.51611052E-02 1.89873106E-01 5.31012847E-02 5.19210220E-01 2.16625966E-01
38  4 2.59716503E-04-1.59301350E-03-1.01537717E-03 8.27838308E-01 2.94955101E-01
38  5 1.64979137E-01-1.84176177E-01-6.56447045E-02-3.67886735E-02-6.27819259E-01
38  6 1.61603269E-01 4.68426172E-01 1.30928177E-01 1.28343999E+00 5.34751911E-01
38  7 7.66608510E-01 2.90165482E-02 8.56833117E-01 2.21652635E-01-1.36299668E-01
38  8-7.66477771E-01-2.83980816E-02 7.00770508E-01 3.33182180E-01 4.46219313E-01
39  1 4.53808696E-02 5.00862514E-02-1.20560139E-01-9.19721176E-02 6.60826035E-02
39  2 3.43586036E-01-5.39210958E-02 3.88631634E-02 2.01659386E-01 1.97081672E-01
39  3 8.68746426E-02 3.65353371E-01 2.93153051E-02-6.60045777E-02 7.60510225E-02
39  4-4.81709787E-01 2.53724023E+00 9.19936178E-01-1.21414498E-02 8.96984749E-03
39  5 4.57867145E-02-2.37160519E-02 1.69093564E-02 8.84870924E-02-1.95744031E+00
39  6-1.45612738E+00-2.00554262E+00-1.88953644E-01 6.61647343E-02-1.82289394E-01
39  7 4.33009420E-01-2.27422474E-01 3.89209969E-01 7.94935412E-02-1.39574179E-01
39  8 4.32362394E-01-2.27459151E-01-2.78338218E-01-1.58280535E-01-2.72351644E-01
40  1-5.43386288E-01-6.41070856E-02 4.85475090E+00 6.78736111E-02-4.87032287E-02
40  2-2.53304618E-01-1.72914742E-01 1.24241086E-01 6.45909728E-01-1.73280288E+00
40  3-1.78032370E+00-1.76172740E+00 2.05980608E-02 4.94748482E-03 9.80390670E-03
40  4-6.23607568E-02 2.57322823E-01-1.27587848E+00 5.49106525E-02-3.93251997E-02
40  5-2.04807810E-01-2.05452317E-01 1.46910169E-01 7.65055549E-01-3.52921057E-01
40  6-1.50003455E-01 1.68722584E-01-1.19031313E-01-1.51759895E-01 4.85570699E-02
40  7 1.95041085E-01-9.14582747E-02 3.84409641E-02-1.52827803E-02-9.85177616E-02
40  8 1.94895294E-01-9.07815084E-02 1.55191445E-02-2.33914775E-02-1.02875383E-01
 $END   

! TRAVIS-CI SMALL
! TRAVIS-CI SKIP
! DOES NOT CONVERGED FOR GCC > 4.4

