!   unrestricted reference geom.opt. with spin-flip TDDFT
!   H2CO wrapped inPCM...test from Noriyuki...August 2012
!
!   NSERCH:   0  E=     -114.4525052464  R.M.S.=  0.0001144
!   NSERCH:   1  E=     -114.4525023722  R.M.S.=  0.0002931
!   NSERCH:   2  E=     -114.4525048654  R.M.S.=  0.0000248
!
!   This run takes 54 seconds on 2.66 GHz Cloverton (2 Sep 2012)
!
!-----------------------------------------------------------------------
! H2CO
!-----------------------------------------------------------------------
 $CONTRL RUNTYP=OPTIMIZE SCFTYP=UHF DFTTYP=BHHLYP TDDFT=SPNFLP MULT=3
         MAXIT=100 $END
 $SYSTEM MWORDS=20 $END
!-----------------------------------------------------------------------
! Wave function
!-----------------------------------------------------------------------
 $GUESS GUESS=MOREAD $END
 $BASIS GBASIS=DH NDFUNC=1 NPFUNC=1 $END
 $SCF DIRSCF=.F. $END
 $TDDFT NSTATE=5 IROOT=1 MULT=1 NONEQ=.F. $END
!-----------------------------------------------------------------------
! PCM
!-----------------------------------------------------------------------
 $PCM SOLVNT=WATER $END
 $PCMITR MXITR1=100 MXITR2=100 $END
!-----------------------------------------------------------------------
! Geometry
!-----------------------------------------------------------------------
 $DATA  
H2CO SF-BHHLYP/PCM S0
C1
 O           8.0   2.0047174261  -1.2044159001  -1.2183049102
 C           6.0   1.7002977106  -0.9860871697  -0.0824484221
 H           1.0   0.6903569141  -1.1849733842   0.3065753520
 H           1.0   2.4104486992  -0.5721785358   0.6491298728
 $END
--- OPEN SHELL ORBITALS --- GENERATED AT Tue Aug 21 00:56:30 2012
H2CO SF-BHHLYP/PCM S0                                                           
E(U-BHHLYP)=     -114.3461822611, E(NUC)=   31.4987736333,    3 ITERS
 $VEC   
 1  1 9.98320201E-01 4.24760361E-03 5.38118375E-03-3.51656260E-04 2.51852881E-04
 1  2 1.31214682E-03-7.11894676E-05 5.14240998E-05 2.67197622E-04-2.12461042E-03
 1  3-2.24954504E-03-1.98629078E-03 3.72520293E-05-5.77939210E-05 7.40098172E-05
 1  4-6.58993133E-05 2.74217681E-04-1.20891890E-03-7.96508238E-05 5.72244225E-05
 1  5 2.96955985E-04-2.18050110E-04 1.55486649E-04 8.09915633E-04-1.92903199E-04
 1  6-8.92807939E-05-5.27467762E-04-1.34086471E-05 1.20867830E-04-1.11334636E-04
 1  7 1.17926138E-04-8.81292468E-05 5.44729471E-05 1.24823946E-05-1.46237923E-05
 1  8 1.17601693E-04-8.65473011E-05-4.13512317E-05-2.16662044E-05-3.36714900E-05
 2  1-2.57311067E-04 6.49726788E-04-1.30548995E-03-1.47575353E-04 1.05913886E-04
 2  2 5.50570564E-04 1.75904059E-04-1.26131428E-04-6.56353008E-04 9.84381164E-05
 2  3 1.87093646E-05 1.00812443E-04 3.04838134E-05-8.68756275E-06 2.79933110E-05
 2  4 9.96379772E-01 1.92265437E-02 7.66283171E-04 3.91136255E-04-2.80321640E-04
 2  5-1.45811887E-03-2.55122435E-05 1.82504121E-05 9.46666057E-05-5.90168373E-03
 2  6-5.06757945E-03-5.25467826E-03-3.71949529E-04-1.30821751E-04-1.39164791E-04
 2  7 7.26310853E-04-9.48875102E-05 4.90938266E-04 9.58322227E-05-1.91642675E-04
 2  8 7.26054047E-04-9.48968487E-05-3.43721433E-04-2.01218459E-04-3.57680841E-04
 3  1-2.21741487E-01 4.99189389E-01 3.17096156E-01-4.11491797E-02 2.94614991E-02
 3  2 1.53503173E-01 3.71296841E-03-2.72801487E-03-1.39410737E-02 6.65561953E-03
 3  3-5.26015707E-03 1.14547265E-02 4.20918596E-03-2.76363266E-03 5.16356036E-03
 3  4-1.06116530E-01 1.96983188E-01 9.74042764E-02 4.81380835E-02-3.45368850E-02
 3  5-1.79623518E-01-4.67875932E-03 3.33140736E-03 1.73713284E-02-1.52107611E-02
 3  6-1.26536851E-02 2.41977680E-02-4.08141247E-03-1.27412178E-02 8.04246622E-03
 3  7 2.60315083E-02-6.88389443E-03 5.57137875E-03 1.00605062E-03-2.48054805E-03
 3  8 2.60450026E-02-6.83743629E-03-3.75160810E-03-2.31589735E-03-4.33918731E-03
 4  1 9.76369848E-02-2.16512436E-01-2.83015557E-01-6.60448889E-02 4.74541335E-02
 4  2 2.46658281E-01-2.12424612E-02 1.53417531E-02 7.95866904E-02-3.13719014E-03
 4  3 6.13453101E-05 2.67988177E-02-3.57998899E-03-9.54848394E-03 5.67356577E-03
 4  4-1.76591232E-01 3.69507715E-01 2.79566753E-01-3.56218487E-02 2.55636292E-02
 4  5 1.33160886E-01-1.03227717E-02 7.19588010E-03 3.77660174E-02 1.14811619E-02
 4  6 3.90316886E-03-9.54431229E-03 4.56286187E-03 6.18121754E-03-2.15477808E-03
 4  7 1.67130662E-01 5.34492241E-02 1.32370806E-02 2.76140047E-03-4.53442994E-03
 4  8 1.67183972E-01 5.38704004E-02-9.60630623E-03-5.37260140E-03-9.07605050E-03
 5  1-3.57139653E-05 9.79919603E-05 1.34398778E-04 5.26357535E-01 1.87525262E-01
 5  2 1.04957320E-01 1.71127745E-01 6.09796128E-02 3.41102918E-02-1.10103183E-02
 5  3 2.80942081E-03 8.19441693E-03 2.27420711E-03 2.24356884E-02 9.35204759E-03
 5  4 3.82820655E-05-4.50527815E-05-1.71013061E-04 3.55068697E-01 1.26494114E-01
 5  5 7.07745671E-02 5.45759609E-02 1.94676343E-02 1.10187458E-02 3.75934416E-03
 5  6-9.57210850E-04-2.78421144E-03-7.86730636E-04-7.62430459E-03-3.18232590E-03
 5  7-1.31810455E-01-6.63335936E-02-6.61815691E-03-7.96959293E-04 4.41191853E-03
 5  8 1.31831692E-01 6.63270580E-02-3.70211293E-03-2.87813541E-03-6.46056076E-03
 6  1 5.74506118E-02-1.18760542E-01-2.62533652E-01-1.47582898E-01 1.06183296E-01
 6  2 5.50246186E-01-4.27780575E-02 3.08469604E-02 1.59484739E-01-6.28902728E-03
 6  3-3.99867476E-03 3.72305709E-02-4.30393060E-03-1.41311132E-02 9.06573835E-03
 6  4 6.05676964E-03-3.03937615E-03-7.53925465E-02 1.07665847E-01-7.70768011E-02
 6  5-4.02043272E-01-2.10911767E-03 1.65214913E-03 8.34004863E-03-1.86105869E-02
 6  6-8.28517138E-03 1.17282515E-02-6.34898946E-03-8.96774867E-03 3.31687514E-03
 6  7-1.18307041E-01-9.74628219E-02-5.61510482E-03-1.87053766E-03-6.46918535E-04
 6  8-1.18285516E-01-9.77479795E-02 5.38688737E-03 2.04339863E-03 1.53188352E-03
 7  1-4.97893362E-05 1.75956618E-04 6.56135677E-05-1.87765328E-01 6.22315788E-01
 7  2-1.70323255E-01-6.79135189E-02 2.25144111E-01-6.16490201E-02 3.30524885E-03
 7  3 7.73156940E-03-1.09834106E-02-7.57524066E-03-5.29585431E-03 2.20147672E-02
 7  4-1.54368295E-05 7.21303864E-05 8.73148386E-05-9.34717012E-02 3.09515465E-01
 7  5-8.42842610E-02-1.88462324E-02 6.24238493E-02-1.69922367E-02-3.08132534E-03
 7  6-7.37602734E-03 1.04872208E-02 7.22572870E-03 5.07366364E-03-2.09947782E-02
 7  7 5.65430367E-05 5.50957557E-05-1.36439544E-03 4.51855801E-03-1.23292443E-03
 7  8 6.95651844E-05 4.30224502E-05-1.36620389E-03 4.52133368E-03-1.23258628E-03
 8  1-9.89905425E-06 8.23894943E-05-1.17871988E-04 5.04593381E-01 1.79790660E-01
 8  2 1.00660796E-01 2.40329241E-01 8.56332982E-02 4.79426286E-02-2.86202672E-03
 8  3 7.45454171E-04 2.15602549E-03 5.81212361E-04 5.84380317E-03 2.43546106E-03
 8  4-2.73766973E-05 7.76142087E-05 2.22846462E-04-3.31566679E-01-1.18123178E-01
 8  5-6.60672902E-02-3.29667609E-02-1.17324537E-02-6.62169048E-03 1.84640070E-02
 8  6-4.70667791E-03-1.37362332E-02-3.84447206E-03-3.76738752E-02-1.57035849E-02
 8  7 2.27650116E-01 2.50384411E-01 6.48498651E-03 4.65013304E-04-5.48195653E-03
 8  8-2.27690009E-01-2.50651353E-01 3.05821352E-03 2.92801300E-03 7.36333368E-03
 9  1-9.62980948E-06-7.35199465E-05 3.58534569E-04 1.21314845E-01-4.01917168E-01
 9  2 1.09803109E-01 9.72656768E-02-3.22070594E-01 8.80261460E-02 1.23384223E-03
 9  3 3.01946295E-03-4.35061219E-03-2.97309546E-03-2.08558229E-03 8.63753669E-03
 9  4-2.65651638E-05 6.19579541E-05 2.96949658E-05-1.90952350E-01 6.32523276E-01
 9  5-1.72653446E-01-1.33999798E-01 4.42967496E-01-1.20712930E-01 3.11452154E-03
 9  6 7.39907298E-03-1.05256385E-02-7.26575604E-03-5.09215328E-03 2.10969282E-02
 9  7-7.58892996E-05-2.61767653E-04-6.00739728E-03 1.98811695E-02-5.42709441E-03
 9  8-4.25841675E-05 5.52397160E-05-6.00540508E-03 1.98871372E-02-5.42984214E-03
 1  1 9.99087082E-01 2.18567520E-03 3.41855848E-03-3.80830283E-04 2.72684421E-04
 1  2 1.42053774E-03-5.78695934E-05 4.18495295E-05 2.17474799E-04-1.54441275E-03
 1  3-1.26411939E-03-5.40351980E-04-1.86564129E-04-3.03125183E-04 1.31027264E-04
 1  4-7.74476956E-05 2.65743852E-05-7.18214837E-04-1.36927619E-04 9.82742736E-05
 1  5 5.10606641E-04-1.19075637E-04 8.46768486E-05 4.41218290E-04-1.28740649E-04
 1  6-5.92951947E-05-6.22481062E-04 1.22502611E-05 1.70003342E-04-1.35622640E-04
 1  7 7.44489871E-05-3.48995779E-05 5.51504232E-05 1.62591088E-05-1.52789798E-06
 1  8 7.41401604E-05-3.36273817E-05-4.85839766E-05-2.07132168E-05-2.21853961E-05
 2  1-2.87712742E-04 5.47252434E-04-1.42428627E-03-1.01479805E-04 7.28462146E-05
 2  2 3.78798195E-04 1.96884158E-04-1.41225527E-04-7.34692074E-04 6.07297259E-05
 2  3 9.86852282E-05 1.93110147E-05-1.13432733E-05 1.73924700E-05-2.23424054E-05
 2  4 9.96914560E-01 1.64891800E-02 9.75885732E-04 4.54841521E-04-3.26055452E-04
 2  5-1.69527600E-03-2.69233664E-05 1.93679174E-05 1.00233056E-04-4.68806137E-03
 2  6-5.05813533E-03-3.87821713E-03 7.87594975E-05-3.03271436E-04 3.10182434E-04
 2  7 5.20154287E-04-1.75200355E-04 3.47805509E-04 6.82722095E-05-1.34162671E-04
 2  8 5.19895051E-04-1.75342518E-04-2.44306094E-04-1.42348967E-04-2.51897462E-04
 3  1-2.09293724E-01 4.54301229E-01 3.01535545E-01-4.76988718E-02 3.41436869E-02
 3  2 1.77863629E-01 2.73680352E-03-2.03151934E-03-1.02995867E-02-8.44845151E-03
 3  3-2.93355583E-03 2.58047002E-02-4.80854826E-03-1.07524600E-02 5.85287989E-03
 3  4-1.16273820E-01 2.13789063E-01 1.16486336E-01 5.37373115E-02-3.85571839E-02
 3  5-2.00516926E-01-3.40106245E-03 2.40609286E-03 1.25742893E-02-1.17648174E-02
 3  6-1.71708297E-02 2.87468703E-02-1.10275238E-03-1.38902019E-02 1.10225724E-02
 3  7 2.92494024E-02-5.02714569E-03 5.47615689E-03 9.30207550E-04-2.65500061E-03
 3  8 2.92654258E-02-4.96923383E-03-3.57739650E-03-2.29638585E-03-4.46076692E-03
 4  1 1.03952139E-01-2.32580181E-01-2.70034565E-01-6.40634835E-02 4.60494729E-02
 4  2 2.39336634E-01-2.74676818E-02 1.98240138E-02 1.02861095E-01 1.97904778E-03
 4  3-2.82302795E-03 1.34118309E-02 9.50353072E-04-4.23861545E-03 4.22724801E-03
 4  4-1.66265554E-01 3.48196523E-01 2.19861906E-01-4.05360909E-02 2.91114458E-02
 4  5 1.51660517E-01-1.20106813E-02 8.39535867E-03 4.40070047E-02 1.78877114E-02
 4  6-9.75202169E-03-6.77879426E-04 1.20922425E-02 3.39272829E-03 5.27467336E-03
 4  7 1.64579467E-01 7.52552641E-02 1.27346407E-02 2.80115158E-03-3.84218298E-03
 4  8 1.64650699E-01 7.57196569E-02-9.50930030E-03-5.12174502E-03-8.26662568E-03
 5  1 6.44655007E-02-1.24327337E-01-2.87599448E-01-1.43179627E-01 1.02937586E-01
 5  2 5.34394896E-01-4.57337446E-02 3.29553038E-02 1.70716050E-01 1.17071116E-03
 5  3-1.58204677E-03 3.24084460E-02-1.39886734E-03-1.05784720E-02 8.00934186E-03
 5  4 9.85793322E-03-5.64612736E-03-8.00155205E-02 1.07082241E-01-7.66731396E-02
 5  5-3.99508246E-01-3.71234156E-03 2.81610053E-03 1.44472230E-02-1.91156849E-02
 5  6-4.10572791E-03 1.01158343E-02-8.06872931E-03-8.15030054E-03 1.46745436E-03
 5  7-1.13925824E-01-1.05695748E-01-6.01850733E-03-2.08844191E-03-9.86188879E-04
 5  8-1.13860766E-01-1.05978718E-01 5.92188543E-03 2.16073785E-03 1.37807054E-03
 6  1-4.90532985E-05 1.00022974E-04 2.41269865E-04 2.36539157E-01 8.43210257E-02
 6  2 4.70373821E-02 8.21678094E-02 2.93090959E-02 1.63172854E-02-9.57645564E-03
 6  3 2.44336095E-03 7.11657345E-03 1.98050828E-03 1.95116656E-02 8.13594362E-03
 6  4 5.11195247E-05-7.06899040E-05-2.33276236E-04 4.79835938E-01 1.70986106E-01
 6  5 9.56876332E-02 1.16624697E-01 4.15755933E-02 2.34156126E-02 1.93085564E-03
 6  6-4.90338897E-04-1.42531035E-03-4.09451070E-04-3.89282092E-03-1.63467368E-03
 6  7-1.96165454E-01-1.11068442E-01-1.02132475E-02-8.66367529E-04 8.14877777E-03
 6  8 1.96214466E-01 1.11129349E-01-5.04140216E-03-4.56672386E-03-1.11772343E-02
 7  1-3.41536011E-05 1.43070637E-04 1.69058135E-06-1.76683165E-01 5.85564946E-01
 7  2-1.60084570E-01-8.17336932E-02 2.70957541E-01-7.41064948E-02 4.43778328E-03
 7  3 1.04215069E-02-1.47948156E-02-1.02205059E-02-7.15193931E-03 2.96851704E-02
 7  4-1.36441452E-05 7.72119043E-05 2.21949081E-05-8.53634251E-02 2.82493455E-01
 7  5-7.70681311E-02-2.32749077E-02 7.70354104E-02-2.09662788E-02-4.50424727E-03
 7  6-1.07644702E-02 1.53013955E-02 1.05399652E-02 7.39224318E-03-3.06238152E-02
 7  7 6.07326140E-05 7.32156371E-05-1.31278170E-03 4.34518855E-03-1.18700764E-03
 7  8 3.06088567E-06-2.47033902E-06-1.31147228E-03 4.35093895E-03-1.18318944E-03
 $END   

! TRAVIS-CI SMALL
! TRAVIS-CI SKIP
! DOES NOT CONVERGED FOR GCC > 4.4

