!   unrestricted reference geom.opt. with spin-flip TDDFT
!   H2CO plus 4 EFP water...test from Noriyuki...August 2012
!
!   NSERCH:   0  E=     -114.5109488405  R.M.S.=  0.0001215
!   NSERCH:   1  E=     -114.5109217688  R.M.S.=  0.0004138
!   NSERCH:   2  E=     -114.5109342560  R.M.S.=  0.0003444
!       ...
!   NSERCH:  17  E=     -114.5109371922  R.M.S.=  0.0002765
!   NSERCH:  18  E=     -114.5109517662  R.M.S.=  0.0000809
!   NSERCH:  19  E=     -114.5109492449  R.M.S.=  0.0001377
!   NSERCH:  20  E=     -114.5109522223  R.M.S.=  0.0000279
!
!   This run takes 513 seconds on 2.66 GHz Cloverton (22 Jul 2014)
!
!-----------------------------------------------------------------------
! H2CO
!-----------------------------------------------------------------------
 $CONTRL RUNTYP=OPTIMIZE SCFTYP=UHF DFTTYP=BHHLYP TDDFT=SPNFLP MULT=3
         MAXIT=100 $END
 $SYSTEM MWORDS=20 $END
!-----------------------------------------------------------------------
! Wave function
!-----------------------------------------------------------------------
 $GUESS GUESS=MOREAD $END
 $BASIS GBASIS=DH NDFUNC=1 NPFUNC=1 $END
 $SCF DIRSCF=.T. $END
 $TDDFT NSTATE=5 IROOT=1 MULT=1 TAMMD=.T. $END
!-----------------------------------------------------------------------
! Geometry
!-----------------------------------------------------------------------
 $DATA  
H2CO+4EFP SF-BHHLYP/DZP S0
C1
 O           8.0   2.0065177031  -1.2031129862  -1.2169950460
 C           6.0   1.6980755869  -0.9875281118  -0.0808327687
 H           1.0   0.6926337598  -1.1837470950   0.3070746434
 H           1.0   2.4085937003  -0.5732667969   0.6457050638
 $END
 $EFRAG

 FRAGNAME=H2ODFT
 O1               -0.2607558609  -1.2192926828  -2.8464034949
 H2                0.5798699552  -1.4061847697  -2.4600124504
 H3               -0.1088336171  -1.0653933575  -3.7651597649
 FRAGNAME=H2ODFT
 O1               -1.2258944512   0.6375267225  -1.1452541210
 H2               -1.7100302701   0.1762400402  -0.4791418483
 H3               -1.0191509795   0.0067132591  -1.8162309949
 FRAGNAME=H2ODFT
 O1               -1.4822435061  -0.0932740441   1.5185526334
 H2               -2.0307828966   0.0350780839   2.2758562200
 H3               -0.8073112399   0.5653710870   1.5576867793
 FRAGNAME=H2ODFT
 O1                0.4945917252   1.5140297733   0.6032952713
 H2                0.7936956145   2.4091881340   0.6136309767
 H3                0.0094500242   1.3993456937  -0.1981805836
 $END
--- OPEN SHELL ORBITALS --- GENERATED AT Tue Aug 21 00:25:42 2012
H2CO+4EFP SF-BHHLYP/DZP S0                                                      
E(U-BHHLYP)=     -114.3874040942, E(NUC)=   31.5047923441,   14 ITERS
 $VEC   
 1  1 9.98320773E-01 4.23861683E-03 5.36829706E-03-3.30469990E-04 2.44388277E-04
 1  2 1.24968635E-03-8.04410382E-05 4.83674129E-05 2.72447971E-04-2.12386296E-03
 1  3-2.24860080E-03-2.00459263E-03 3.93173048E-05-6.04551853E-05 6.87852519E-05
 1  4-6.45562628E-05 2.71752930E-04-1.20738496E-03-7.05640324E-05 5.21364808E-05
 1  5 2.73287280E-04-2.19339552E-04 1.52582075E-04 8.04790753E-04-1.91321168E-04
 1  6-8.85085656E-05-4.97009169E-04-1.48438337E-05 1.14291399E-04-1.02198361E-04
 1  7 1.20015835E-04-8.87616346E-05 5.38192870E-05 1.20846267E-05-1.46333102E-05
 1  8 1.15150002E-04-8.29539193E-05-3.83593426E-05-2.01004765E-05-3.10072414E-05
 2  1-2.55471399E-04 6.51697201E-04-1.29168984E-03-1.51761948E-04 1.07862098E-04
 2  2 5.51977122E-04 1.71730023E-04-1.13979998E-04-6.63250103E-04 1.02583722E-04
 2  3 1.57908317E-05 8.75215569E-05 3.18854468E-05-1.07128675E-05 3.64954412E-05
 2  4 9.96286730E-01 1.97413928E-02 7.17441431E-04 4.42805011E-04-3.16870733E-04
 2  5-1.48042515E-03-2.77597731E-05 2.31817731E-05 9.80889276E-05-6.08801232E-03
 2  6-5.15319502E-03-5.44919405E-03-4.24223133E-04-1.19667455E-04-1.57605077E-04
 2  7 7.73216192E-04-8.04073995E-05 5.17829250E-04 1.03627898E-04-2.02996399E-04
 2  8 7.50809787E-04-8.96610651E-05-3.55581712E-04-2.01960062E-04-3.62361036E-04
 3  1-2.22188087E-01 4.98073454E-01 3.22816786E-01-4.20882020E-02 2.90453321E-02
 3  2 1.49249427E-01-8.29230146E-04-2.85370914E-03-1.60419649E-02 7.39844632E-03
 3  3-6.14587769E-03 1.10448525E-02 4.79507460E-03-2.42710795E-03 5.22947380E-03
 3  4-1.05391646E-01 1.95563764E-01 9.23907011E-02 4.80746598E-02-3.37746593E-02
 3  5-1.77086438E-01-3.99004246E-04 1.98478337E-03 1.57369259E-02-1.47618473E-02
 3  6-1.22109227E-02 2.39490825E-02-4.19788791E-03-1.27594910E-02 7.88526709E-03
 3  7 2.62003471E-02-2.76813559E-03 5.54642415E-03 1.04830442E-03-2.54608915E-03
 3  8 2.63233797E-02-6.25945225E-03-3.81601231E-03-2.28424628E-03-4.32056435E-03
 4  1 9.78934112E-02-2.14832003E-01-2.89735850E-01-6.50333251E-02 4.58495958E-02
 4  2 2.60391208E-01-1.88683456E-02 2.24994413E-02 9.03557380E-02-3.06651383E-03
 4  3 9.85533548E-04 2.73799923E-02-4.06513673E-03-1.05807147E-02 5.71899698E-03
 4  4-1.76414918E-01 3.72299732E-01 2.50582867E-01-3.34694065E-02 2.29380775E-02
 4  5 1.24863065E-01-8.83947965E-03-8.89857090E-03 2.72483822E-02 1.21425952E-02
 4  6 4.90177078E-03-8.55986783E-03 4.16347719E-03 6.22182039E-03-2.25875453E-03
 4  7 1.67183828E-01 5.71195616E-02 1.32568445E-02 2.82466763E-03-4.59746847E-03
 4  8 1.67057775E-01 6.90794411E-02-9.43413475E-03-5.44215492E-03-8.92283074E-03
 5  1-4.64474410E-04 5.81211119E-03-8.86291948E-03 5.24486186E-01 1.88763657E-01
 5  2 1.16897307E-01 1.82825503E-01 6.44745847E-02 4.25674929E-02-1.11633144E-02
 5  3 4.50639849E-03 1.00348246E-02 1.58849002E-03 2.04837539E-02 8.93064046E-03
 5  4 1.68100612E-03-2.35390041E-03-9.87758319E-03 3.51605079E-01 1.19977812E-01
 5  5 5.91222953E-02 4.33384160E-02 1.70825146E-02 8.33889894E-03 3.51206753E-03
 5  6-9.93725400E-04-2.41205506E-03-9.54990002E-04-7.74467540E-03-3.15506575E-03
 5  7-1.34108709E-01-7.08401059E-02-6.66847845E-03-5.43558804E-04 4.86008700E-03
 5  8 1.26738263E-01 7.26409994E-02-2.91793081E-03-3.06071584E-03-6.31007206E-03
 6  1 5.31744529E-02-1.07412481E-01-2.51110467E-01-1.56944590E-01 9.07448280E-02
 6  2 5.43908588E-01-3.64935728E-02 2.40824913E-02 1.65168990E-01-5.48357321E-03
 6  3-3.02950972E-03 3.50945796E-02-4.46176259E-03-1.52535496E-02 7.72943722E-03
 6  4 9.65192326E-03-1.49289463E-02-6.90544131E-02 1.00116245E-01-8.40887405E-02
 6  5-4.04303638E-01-1.64082569E-02 9.01647132E-03 1.32540014E-02-1.97666436E-02
 6  6-8.93017511E-03 1.18922668E-02-6.59681026E-03-9.20335167E-03 4.30799745E-03
 6  7-1.20037930E-01-1.06528875E-01-5.76658585E-03-1.90063690E-03-4.06352970E-04
 6  8-1.27524366E-01-1.06149860E-01 5.57585273E-03 2.33683326E-03 1.76206353E-03
 7  1 1.64878299E-03-4.50939735E-03-2.69855450E-03-1.87755847E-01 6.24641269E-01
 7  2-1.59188044E-01-7.37710375E-02 2.32936642E-01-5.83081725E-02 3.11652165E-03
 7  3 6.56930614E-03-9.96234499E-03-8.37375269E-03-4.85947543E-03 2.10975146E-02
 7  4-1.00116355E-03 6.57511879E-03-1.75828648E-02-9.34876610E-02 3.11932707E-01
 7  5-8.60644030E-02-6.81282417E-03 5.09902215E-02-1.93118522E-02-2.23464847E-03
 7  6-7.01067760E-03 1.08603426E-02 7.28368959E-03 4.92627169E-03-2.07243501E-02
 7  7 1.07156431E-03 1.01954222E-02-1.29073788E-03 4.86362631E-03-1.40253193E-03
 7  8 1.79721361E-03 1.52975839E-03-1.62245840E-03 4.78454942E-03-1.35200623E-03
 8  1-1.25811533E-03 8.42613434E-03-7.97619998E-03 4.96876721E-01 1.75298160E-01
 8  2 9.46946005E-02 2.46687743E-01 8.75897472E-02 5.05921991E-02-2.01681074E-03
 8  3 2.91061685E-03 3.12606857E-03 4.94526430E-05 3.81609929E-03 1.72884177E-03
 8  4-7.70058492E-04 3.97290807E-04 1.80927300E-02-3.37558286E-01-1.17293531E-01
 8  5-6.39780121E-02-4.14233837E-02-1.59544322E-02-6.54111826E-03 1.81618389E-02
 8  6-4.67760967E-03-1.35576190E-02-3.54045564E-03-3.67189449E-02-1.51242363E-02
 8  7 2.30187345E-01 2.32732869E-01 6.08346976E-03-1.16791407E-04-5.81305687E-03
 8  8-2.29735831E-01-2.55558624E-01 2.29954297E-03 3.52085589E-03 7.41820162E-03
 9  1 2.10978942E-03 2.23843134E-03-3.43109284E-02 1.22916634E-01-4.06606107E-01
 9  2 1.05884229E-01 7.98564423E-02-2.97910074E-01 9.34637267E-02 4.61951681E-03
 9  3 6.75349677E-03-2.73879194E-03-3.31916168E-03-3.54696694E-03 1.18369154E-02
 9  4 9.79983548E-05 2.25404466E-02-1.04662970E-01-2.13042119E-01 6.82729426E-01
 9  5-1.70626327E-01-6.03931253E-02 3.60594932E-01-1.84919445E-01 8.34006945E-03
 9  6 1.08527190E-02-7.69798591E-03-6.84135378E-03-4.64525644E-03 2.14625495E-02
 9  7 9.79589296E-03 7.53103699E-02-5.59706380E-03 2.22140759E-02-5.92076776E-03
 9  8 9.69338021E-03 4.26944627E-02-7.55868542E-03 2.16433352E-02-5.83683798E-03
 1  1 9.99062642E-01 2.24280361E-03 3.47410323E-03-3.75491169E-04 2.54910846E-04
 1  2 1.36066684E-03-5.96877718E-05 4.46209100E-05 2.27107691E-04-1.57508218E-03
 1  3-1.29397944E-03-5.92694992E-04-1.89464524E-04-2.76590323E-04 1.25730616E-04
 1  4-7.50916727E-05 3.15687856E-05-7.38460339E-04-1.32029761E-04 9.16159223E-05
 1  5 4.80481146E-04-1.28930339E-04 8.23424417E-05 4.48212223E-04-1.30129874E-04
 1  6-5.73187805E-05-5.87045846E-04 1.21674633E-05 1.68778597E-04-1.24246053E-04
 1  7 7.92982905E-05-3.97749600E-05 5.57360025E-05 1.65704847E-05-1.39851638E-06
 1  8 7.16871792E-05-2.73219094E-05-4.35290726E-05-1.87353508E-05-2.01812480E-05
 2  1-2.85549052E-04 5.50070111E-04-1.47516671E-03-9.14257669E-05 6.97087753E-05
 2  2 3.63593132E-04 2.02914291E-04-1.42342831E-04-7.60445985E-04 6.67202438E-05
 2  3 1.05612718E-04 7.28888232E-06-1.19812662E-05 2.29734462E-05-2.23882225E-05
 2  4 9.96910474E-01 1.65231946E-02 1.02462019E-03 5.13133228E-04-3.68551189E-04
 2  5-1.72074147E-03-3.09098785E-05 3.42246103E-05 9.94391011E-05-4.69600214E-03
 2  6-5.10714801E-03-3.85155963E-03 1.03984810E-04-3.03602767E-04 3.25816137E-04
 2  7 5.31634909E-04-1.82718512E-04 3.54264616E-04 7.25206749E-05-1.39005484E-04
 2  8 5.09632526E-04-1.94546334E-04-2.40208417E-04-1.35204235E-04-2.41602231E-04
 3  1-2.10629149E-01 4.55825942E-01 3.09033530E-01-5.03923975E-02 3.19073602E-02
 3  2 1.73464576E-01-2.13471757E-03-2.16615915E-03-1.23822326E-02-7.65861528E-03
 3  3-3.75704783E-03 2.52694732E-02-4.53528542E-03-9.64176439E-03 5.86822611E-03
 3  4-1.14314343E-01 2.08474662E-01 1.09671899E-01 5.32973310E-02-3.79242025E-02
 3  5-1.97235808E-01 1.09455502E-03 9.39944487E-04 1.08077569E-02-1.09366707E-02
 3  6-1.71308703E-02 2.89704860E-02-8.40546888E-04-1.39791631E-02 1.11017488E-02
 3  7 2.88487584E-02-6.07270167E-04 5.31879040E-03 8.92884982E-04-2.65769142E-03
 3  8 2.88994648E-02-4.24203386E-03-3.52567541E-03-2.23383793E-03-4.33224776E-03
 4  1 1.04593353E-01-2.30656456E-01-2.83825292E-01-5.89337412E-02 4.95376276E-02
 4  2 2.66135040E-01-2.22585224E-02 2.82540623E-02 1.17910772E-01 2.41726603E-03
 4  3-1.63266666E-03 1.50280043E-02 6.56745331E-04-5.96206361E-03 4.35781692E-03
 4  4-1.65641021E-01 3.46972317E-01 1.92607164E-01-3.11478924E-02 2.37207354E-02
 4  5 1.35167227E-01-1.15589087E-02-8.37432226E-03 3.29960381E-02 1.83288361E-02
 4  6-9.84762008E-03 1.39309977E-03 1.21946089E-02 2.78198289E-03 5.58892463E-03
 4  7 1.60758580E-01 7.57411669E-02 1.24082786E-02 2.48732155E-03-3.67215974E-03
 4  8 1.63838965E-01 9.20657405E-02-9.24113622E-03-5.35027899E-03-8.00259089E-03
 5  1 5.72938091E-02-1.06183908E-01-2.68456809E-01-1.05319241E-01 1.08328781E-01
 5  2 5.29230186E-01-2.03337906E-02 3.33702425E-02 1.76704630E-01 6.11303808E-04
 5  3 3.24495669E-05 3.14204023E-02-1.56223307E-03-1.01240019E-02 7.67305361E-03
 5  4 1.66591522E-02-2.36436914E-02-7.88743858E-02 1.47980653E-01-6.11527501E-02
 5  5-3.93394779E-01-8.45617034E-03 1.45655403E-02 1.95840230E-02-1.98162090E-02
 5  6-4.32818155E-03 9.42667757E-03-8.94320667E-03-9.58435307E-03 1.40105413E-03
 5  7-1.37632315E-01-1.27054301E-01-7.50624013E-03-1.96034185E-03 1.10054802E-04
 5  8-1.06667015E-01-1.05332018E-01 5.76875004E-03 2.15114881E-03 5.22328149E-04
 6  1-8.01889973E-03 1.81785783E-02 2.82628775E-02 2.60649048E-01 6.64272832E-02
 6  2-3.06462378E-04 1.00139751E-01 2.44430742E-02 2.73948195E-03-1.02852565E-02
 6  3 3.66987214E-03 5.59288469E-03 1.86123156E-03 2.04268425E-02 6.86983647E-03
 6  4 1.88260756E-03-3.71415626E-03-8.01590922E-03 4.61384596E-01 1.69754651E-01
 6  5 1.29517283E-01 1.09924210E-01 3.91359545E-02 1.71633899E-02 4.48575740E-03
 6  6 8.54937388E-06-2.69890195E-03-7.14043379E-04-3.82948704E-03-1.93134204E-03
 6  7-1.84955680E-01-9.73031676E-02-9.49266090E-03 7.09937511E-05 8.70605866E-03
 6  8 2.03039707E-01 1.31695669E-01-4.67664276E-03-5.41611306E-03-1.10464121E-02
 7  1 1.21538093E-03-4.24409254E-03-4.11281395E-04-1.83079940E-01 5.94654131E-01
 7  2-1.58130477E-01-9.17128282E-02 2.81892842E-01-7.46251875E-02 4.73505199E-03
 7  3 8.79049905E-03-1.43136626E-02-1.14024427E-02-6.20356099E-03 2.86975485E-02
 7  4-1.31460888E-03 6.34762468E-03-1.56338002E-02-7.20007742E-02 2.72618811E-01
 7  5-6.89418973E-02-5.47315653E-03 6.18387507E-02-2.13887047E-02-3.65764784E-03
 7  6-1.01781903E-02 1.58783858E-02 1.05841265E-02 7.49755503E-03-2.97619920E-02
 7  7-2.26658674E-03 9.74999546E-03-1.26783907E-03 4.52944435E-03-1.09511724E-03
 7  8 7.84217583E-03 5.78138365E-03-1.70292533E-03 4.30704180E-03-1.42628400E-03
 $END   

! TRAVIS-CI MEDIUM
! TRAVIS-CI SKIP
! DOES NOT CONVERGED FOR GCC > 4.4

