!   unrestricted reference geom.opt. with spin-flip TDDFT
!   H2CO plus 4 EFP water plus PCM...test from Noriyuki...August 2012
!
!   NSERCH:   0  E=     -114.5269601660  R.M.S.=  0.0000569
!   NSERCH:   1  E=     -114.5144924081  R.M.S.=  0.0144847
!   NSERCH:   2  E=     -114.5239081600  R.M.S.=  0.0068634
!   NSERCH:   3  E=     -114.5259378023  R.M.S.=  0.0053852
!   NSERCH:   4  E=     -114.5236895905  R.M.S.=  0.0061449
!       ...
!   NSERCH:  22  E=     -114.5269411939  R.M.S.=  0.0002635
!   NSERCH:  23  E=     -114.5269556137  R.M.S.=  0.0000268
!   NSERCH:  24  E=     -114.5269561893  R.M.S.=  0.0001039
!   NSERCH:  25  E=     -114.5269564408  R.M.S.=  0.0000086
!
!   This run takes 691 seconds on 2.66 GHz Cloverton (22 Jul 2014)
!
!-----------------------------------------------------------------------
! H2CO
!-----------------------------------------------------------------------
 $CONTRL RUNTYP=OPTIMIZE SCFTYP=UHF DFTTYP=BHHLYP TDDFT=SPNFLP MULT=3
         MAXIT=100 $END
 $SYSTEM MWORDS=20 $END
!-----------------------------------------------------------------------
! Wave function
!-----------------------------------------------------------------------
 $GUESS GUESS=MOREAD $END
 $BASIS GBASIS=DH NDFUNC=1 NPFUNC=1 $END
 $TDDFT NSTATE=5 IROOT=1 MULT=1 $END
!-----------------------------------------------------------------------
! PCM
!-----------------------------------------------------------------------
 $PCM SOLVNT=WATER $END
 $PCMITR MXITR1=100 MXITR2=100 $END
!-----------------------------------------------------------------------
! Geometry
!-----------------------------------------------------------------------
! NSERCH=26 check11c.dat
 $DATA  
H2CO/EFP/PCM SF-BHHLYP/DZP S0
C1
 O           8.0   1.9786430660  -0.9696485601  -1.2848449477
 C           6.0   1.9263979603  -1.0056532049  -0.0899974641
 H           1.0   1.0897798800  -1.4591633351   0.4554860658
 H           1.0   2.7265805375  -0.6000710677   0.5427509634
 $END
 $EFRAG

 FRAGNAME=H2ODFT
 O1               -0.4148817768  -1.2525528027  -2.7105993607
 H2                0.4542566303  -1.3480268040  -2.3551255946
 H3               -0.3177513997  -1.1677174859  -3.6456111858
 FRAGNAME=H2ODFT
 O1               -1.3655421898   0.7707414599  -1.2314039412
 H2               -1.9262204450   0.4359811427  -0.5498954099
 H3               -1.1661079600   0.0441862535  -1.7999300832
 FRAGNAME=H2ODFT
 O1               -2.0453835921   0.2303791907   1.3927298093
 H2               -2.6208303894   0.6893368690   1.9835743634
 H3               -1.1868910022   0.6067960862   1.5030894391
 FRAGNAME=H2ODFT
 O1                0.4189895194   1.1685073427   0.7102088328
 H2                0.9099907646   1.9693385810   0.8022173060
 H3               -0.0019263200   1.2038208747  -0.1338653729
 $END
--- OPEN SHELL ORBITALS --- GENERATED AT Tue Aug 21 01:16:44 2012
H2CO/EFP/PCM SF-BHHLYP/DZP S0                                                   
E(U-BHHLYP)=     -114.4000362746, E(NUC)=   31.5762528290,   18 ITERS
 $VEC   
 1  1 9.98322144E-01 4.23330385E-03 5.36611760E-03-4.98696038E-05-3.45574263E-05
 1  2 1.30558242E-03-1.68605940E-05-1.09940471E-05 2.88484456E-04-2.15638101E-03
 1  3-2.23984979E-03-1.97785328E-03 7.44318174E-05-1.16517616E-05-7.92214629E-06
 1  4-6.51280049E-05 2.71743634E-04-1.20035086E-03-1.07398800E-05-6.81008045E-06
 1  5 2.83652557E-04-4.00351869E-05-2.74460714E-05 8.48473403E-04-1.53299024E-04
 1  6-8.81461546E-05-5.38539382E-04-5.55357443E-05 1.92970443E-05 1.52179764E-05
 1  7 1.20318966E-04-9.34222697E-05 4.64118685E-05 2.50574089E-05-2.38092952E-05
 1  8 1.15901328E-04-8.40683463E-05-4.21737652E-05-2.13053848E-05-2.70247087E-05
 2  1-2.56296012E-04 6.50904925E-04-1.27239432E-03-2.82462937E-05-1.26657353E-05
 2  2 5.85735672E-04 2.32131649E-05 3.34039420E-05-6.87038467E-04 8.36254711E-05
 2  3 1.72314537E-05 9.85003403E-05 5.59658026E-05-5.50795234E-06 1.12980879E-05
 2  4 9.96258205E-01 1.99044961E-02 6.87710038E-04 8.51407516E-05 1.27752784E-05
 2  5-1.57171046E-03-2.92052722E-06-3.56276849E-06 1.04689295E-04-6.01685208E-03
 2  6-5.30765141E-03-5.50787280E-03-6.12854882E-04-5.53628378E-05 9.00653285E-06
 2  7 7.67600511E-04-7.73239481E-05 4.25114227E-04 2.35798202E-04-2.79927687E-04
 2  8 7.62753579E-04-7.84776657E-05-4.09861009E-04-2.00651511E-04-3.21572819E-04
 3  1-2.22315508E-01 4.97685013E-01 3.24630141E-01-7.95868572E-03-4.96544351E-03
 3  2 1.56877486E-01-3.87036728E-03-4.93704129E-04-1.59748713E-02 4.56678793E-03
 3  3-5.07095364E-03 1.23143992E-02 7.97480077E-03-4.39454150E-05-2.81087317E-04
 3  4-1.05332647E-01 1.95441356E-01 9.14647923E-02 8.17813803E-03 5.31174684E-03
 3  5-1.85980711E-01 3.39101272E-03-1.19917486E-03 1.57716910E-02-1.69922340E-02
 3  6-1.39726754E-02 2.80912824E-02-2.59039182E-03-2.42684102E-03-1.36174849E-03
 3  7 2.61228222E-02-2.41890413E-03 4.50948700E-03 2.56321055E-03-3.41173795E-03
 3  8 2.62113986E-02-6.21823737E-03-4.42524574E-03-2.12550917E-03-3.80669937E-03
 4  1 9.73623488E-02-2.15189438E-01-2.82644921E-01-6.12707206E-03-1.12882531E-02
 4  2 2.73228556E-01-1.29788661E-03 3.79199174E-03 9.73619418E-02-5.35521493E-03
 4  3-1.44038799E-03 3.00086366E-02-3.07587289E-03-2.59825715E-03-1.27297914E-03
 4  4-1.76249031E-01 3.72239288E-01 2.43661238E-01-3.67721325E-03-7.41529024E-03
 4  5 1.30481490E-01 3.24101098E-03-1.59151830E-02 2.99976536E-02 1.22617299E-02
 4  6 6.80253199E-03-9.89189181E-03 4.36463548E-03 1.21631867E-03 7.59308413E-04
 4  7 1.67306590E-01 6.22207585E-02 1.11105346E-02 6.23709597E-03-6.67999478E-03
 4  8 1.66418926E-01 6.61401020E-02-1.09150019E-02-5.30071546E-03-7.74637488E-03
 5  1 1.02812274E-04 4.56250852E-03-1.15798563E-02 5.03826264E-01 2.64650880E-01
 5  2 4.39438808E-02 1.76538413E-01 9.09698114E-02 1.53259879E-02-2.01659065E-03
 5  3 8.45087541E-04 4.72909493E-03-2.23048106E-03 2.21813298E-02 1.17088401E-02
 5  4 1.07880280E-03-1.91842142E-03-2.33869031E-04 3.31790170E-01 1.72989653E-01
 5  5 5.11649079E-03 4.23078415E-02 2.46906618E-02 5.33292871E-03 3.75581715E-04
 5  6-4.41271119E-04-3.76169754E-04-2.68186158E-05-8.11532543E-03-4.34980011E-03
 5  7-1.34154036E-01-7.60340261E-02-5.13426653E-03-2.75422316E-03 5.79564442E-03
 5  8 1.25514074E-01 6.54731551E-02-4.12510372E-03-2.25515950E-03-5.94797024E-03
 6  1 5.29459754E-02-1.05538134E-01-2.54276156E-01-4.33852544E-02-1.83877148E-02
 6  2 5.70521586E-01-3.66454095E-03-5.40262298E-03 1.71162620E-01-7.86163986E-03
 6  3-4.39055740E-03 4.00913482E-02-2.60716795E-03-4.50726742E-03-2.14952131E-03
 6  4 9.61667322E-03-1.52152355E-02-6.76104850E-02 3.22485518E-03 1.15541708E-02
 6  5-4.24080933E-01-1.52947924E-02 3.64040063E-03 1.52336927E-02-1.99876237E-02
 6  6-1.16154184E-02 1.45380286E-02-6.95719248E-03-1.49712110E-03-6.72441396E-04
 6  7-1.19672388E-01-1.09589506E-01-5.38963100E-03-2.84505625E-03 4.10055807E-04
 6  8-1.28064630E-01-1.03997088E-01 5.75586785E-03 2.99881067E-03 1.12231732E-03
 7  1-4.73510832E-05-2.31962599E-03 9.99553367E-03-3.10196851E-01 5.94161270E-01
 7  2-1.55542604E-04-1.20535959E-01 2.24068338E-01 5.52880425E-03 8.29285250E-04
 7  3-2.66416739E-03-5.08246249E-04-1.16675266E-03-1.15627623E-02 2.21565764E-02
 7  4-1.92257019E-03 1.07472104E-02-2.83804342E-02-1.58166123E-01 2.98854188E-01
 7  5 1.33582516E-02-1.72407713E-02 4.68272514E-02-6.58719905E-03 7.80416862E-04
 7  6 1.97560450E-03 4.37213116E-04 1.11112438E-03 1.14144576E-02-2.17926235E-02
 7  7 5.13494483E-03 1.72601782E-02-2.09146826E-03 4.91719944E-03-1.39956800E-04
 7  8 5.05503136E-03 9.80052258E-03-2.87054558E-03 4.50469650E-03-3.96746661E-05
 8  1-1.42324214E-03 7.36851042E-03-2.33986620E-03 4.71319098E-01 2.47352814E-01
 8  2 2.31438380E-02 2.34616611E-01 1.24046854E-01 1.70281760E-02-4.50275726E-04
 8  3 1.40751857E-03 1.64538955E-03-1.07805547E-03 4.07221967E-03 2.35261352E-03
 8  4 4.94366629E-04-2.35850490E-04-6.92682611E-03-3.20857682E-01-1.67257354E-01
 8  5-1.65970568E-02-3.53683171E-02-2.25579545E-02-4.91361451E-03 2.70360884E-03
 8  6 1.71949303E-03-3.57284741E-03 2.35038957E-03-3.88367241E-02-2.02104740E-02
 8  7 2.30197636E-01 2.51172232E-01 4.53357940E-03 2.31062431E-03-6.86831549E-03
 8  8-2.29914258E-01-2.47186045E-01 4.02632755E-03 2.32402393E-03 7.31475468E-03
 9  1 2.94089182E-04-3.38260492E-03 9.40442378E-03 2.04743818E-01-3.88256241E-01
 9  2-5.32999490E-03 1.36560323E-01-2.84138217E-01 2.51061383E-02-5.91256840E-04
 9  3-1.34861776E-03 2.13975158E-04 3.22947499E-04-7.52060915E-03 1.30722476E-02
 9  4 3.60545715E-04 3.20269892E-02-1.72731699E-01-3.54984178E-01 6.62795277E-01
 9  5 2.63012629E-02-1.36971491E-01 3.49066445E-01-7.79920350E-02 7.28828710E-03
 9  6 3.98793357E-03 4.95964372E-03 2.15695326E-04-1.23017107E-02 2.31693855E-02
 9  7 1.09752939E-02 1.02733391E-01-9.99390758E-03 2.22353270E-02-3.63676774E-04
 9  8 9.02817959E-03 6.00491200E-02-1.25178936E-02 2.08366442E-02 2.28580657E-04
 1  1 9.99058181E-01 2.25336448E-03 3.48705675E-03-6.84549018E-05-4.81499111E-05
 1  2 1.42439611E-03-7.65621895E-06-4.65296231E-06 2.41159905E-04-1.59019366E-03
 1  3-1.36815731E-03-5.21809357E-04-1.98055493E-04-4.28878623E-05-3.04053151E-05
 1  4-7.53852739E-05 3.28887995E-05-7.39668011E-04-2.40468772E-05-1.46763191E-05
 1  5 5.02138809E-04-2.90926273E-05-1.96019048E-05 4.75605004E-04-8.43792711E-05
 1  6-4.70026133E-05-6.44187336E-04-3.13428301E-05 3.39050520E-05 2.33703831E-05
 1  7 7.97653156E-05-4.26729831E-05 5.04801043E-05 2.73613778E-05-1.05097083E-05
 1  8 7.30121475E-05-2.71528039E-05-4.49885696E-05-2.29073238E-05-1.50890323E-05
 2  1-2.86137429E-04 5.48911539E-04-1.47739888E-03-1.03669108E-05-1.13134210E-05
 2  2 3.78488232E-04 3.43973307E-05 2.65340444E-05-8.00289151E-04 7.68781381E-05
 2  3 1.02538889E-04-2.04954635E-06-2.32488327E-05 3.88894450E-06 5.66195339E-06
 2  4 9.96908734E-01 1.65377321E-02 1.03055104E-03 1.00539356E-04 1.25990455E-05
 2  5-1.82969751E-03-8.00771696E-06 8.18768718E-06 1.10103553E-04-4.82436503E-03
 2  6-5.11087384E-03-3.72792957E-03 2.51800987E-04-3.47492911E-05-4.42365796E-05
 2  7 5.16258874E-04-1.89367930E-04 2.84301044E-04 1.57866590E-04-1.86845029E-04
 2  8 5.12797359E-04-1.92140378E-04-2.73063246E-04-1.35209208E-04-2.13076936E-04
 3  1-2.10994739E-01 4.56112820E-01 3.11369789E-01-1.07301071E-02-7.29648961E-03
 3  2 1.82318413E-01-4.32366465E-03-6.81288952E-04-1.20581756E-02-9.06032457E-03
 3  3-5.61976414E-03 2.80586527E-02-3.64368952E-03-1.33179337E-03-1.09990317E-03
 3  4-1.13901536E-01 2.07246154E-01 1.08209119E-01 8.90208918E-03 5.55679572E-03
 3  5-2.06973033E-01 3.77452036E-03-1.20189585E-03 1.04751664E-02-1.47285564E-02
 3  6-1.81398850E-02 3.40526696E-02 2.92427836E-03-2.40356453E-03-1.53066892E-03
 3  7 2.86030015E-02-1.74809718E-04 4.26362408E-03 2.37550919E-03-3.48041283E-03
 3  8 2.86013681E-02-4.10745148E-03-4.13854844E-03-2.00660933E-03-3.84385722E-03
 4  1 1.03966314E-01-2.30765973E-01-2.77236688E-01-1.32760724E-04-8.09156471E-03
 4  2 2.80794435E-01 9.76530688E-04 3.95936938E-03 1.26266811E-01-2.90736332E-04
 4  3-2.47486009E-03 1.66504436E-02 2.45240903E-03-1.83732942E-03-9.70751069E-04
 4  4-1.65376982E-01 3.45604272E-01 1.86742268E-01-1.93420397E-04-8.24932754E-03
 4  5 1.37632469E-01 1.79242112E-03-1.60941723E-02 3.70575131E-02 1.42880640E-02
 4  6-6.30174255E-03 2.42960744E-03 1.75122003E-02 1.07513217E-03 4.47679955E-05
 4  7 1.60775002E-01 8.10837884E-02 1.06460800E-02 5.58485341E-03-5.70430752E-03
 4  8 1.62305636E-01 8.79030165E-02-1.04287310E-02-5.30426533E-03-6.83802287E-03
 5  1 5.66975241E-02-1.03344627E-01-2.70987092E-01 5.92867163E-03 3.70058259E-03
 5  2 5.48642477E-01 1.49912228E-02 2.62117203E-03 1.80138507E-01-1.01425288E-03
 5  3-7.39201301E-04 3.52002246E-02 3.29393276E-04-1.68341010E-03-6.27326463E-04
 5  4 1.71108010E-02-2.49767986E-02-7.65186048E-02 5.18245684E-02 3.72030158E-02
 5  5-4.19103441E-01-6.32106035E-03 9.28078176E-03 2.07721545E-02-1.94842847E-02
 5  6-7.34422052E-03 1.17315625E-02-1.05426147E-02-2.99635373E-03-1.08815441E-03
 5  7-1.38259171E-01-1.31853572E-01-7.00594434E-03-3.46248530E-03 1.27710350E-03
 5  8-1.07327888E-01-1.04359099E-01 5.68890146E-03 3.03256097E-03-1.26036521E-04
 6  1-7.31607976E-03 1.67405530E-02 2.48777387E-02 2.41611499E-01 1.17085672E-01
 6  2-3.93856748E-02 9.38589283E-02 4.31369787E-02-1.46357409E-02-1.49130262E-03
 6  3 7.68541886E-04-8.77801709E-05-1.90911152E-03 2.11750539E-02 1.05981695E-02
 6  4 4.76698916E-04-2.35509034E-03 9.88804336E-03 4.46221874E-01 2.30327490E-01
 6  5 6.17219203E-02 1.06160824E-01 5.86138194E-02 6.74156994E-03 2.89632337E-03
 6  6-2.29843031E-04-1.60000592E-03 2.33068555E-04-5.19225008E-03-2.39890402E-03
 6  7-1.83789070E-01-1.05672159E-01-7.04398091E-03-3.44461323E-03 1.01952970E-02
 6  8 2.02863046E-01 1.20812078E-01-6.80885697E-03-3.94912568E-03-1.05841784E-02
 7  1 1.74286103E-04-3.30668066E-03 9.49008447E-03-3.01747306E-01 5.68605716E-01
 7  2 1.71545024E-03-1.49036101E-01 2.72346985E-01 6.45794188E-03 1.57995700E-03
 7  3-3.72000485E-03-4.61217496E-04-1.65061486E-03-1.57835550E-02 3.03310042E-02
 7  4-2.00066505E-03 9.80094639E-03-2.83758545E-02-1.26792101E-01 2.56529676E-01
 7  5 1.12880370E-02-1.84676787E-02 5.63268253E-02-6.01905239E-03 3.47239339E-04
 7  6 2.38602654E-03 8.29977645E-04 1.36238977E-03 1.68729320E-02-3.13484076E-02
 7  7 1.06678585E-03 1.61934803E-02-1.96309634E-03 4.45959326E-03 4.12347028E-05
 7  8 8.40810263E-03 1.25645878E-02-2.77085070E-03 4.03807156E-03-1.28773309E-04
 $END   

! TRAVIS-CI MEDIUM
! TRAVIS-CI SKIP
! DOES NOT CONVERGED FOR GCC > 4.4

