!   Difluoroethene...test case from Noriyuki...April 2011
!   spin-flip UHF reference TD-DFT with geometry optimization
!
!   initial geom.'s spin-flip ref. state FINAL E= -276.7940202909, 16 iters
!   where the TD-DFT states are found at these energies:
!              SUMMARY OF SPIN-FLIP RESULTS
!              ----------------------------
!       STATE             ENERGY     EXCITATION     S-SQUARED
!     1 NEGATIVE ROOT(S) FOUND.
!       1  A         -276.8741556219   -2.181        0.0164
!       0  A         -276.7940202909    0.000     (REFERENCE STATE)
!       2  A         -276.7584416648    0.968        2.0214
!       3  A         -276.6271357145    4.541        0.0370
!       4  A         -276.6149505882    4.873        1.0131
!       5  A         -276.5915489805    5.510        1.0171
!   the geometry search should proceed like this:
!        NSERCH:   0  E=     -276.8741556219  R.M.S.=  0.0504896
!        NSERCH:   1  E=     -276.9049168729  R.M.S.=  0.0087894
!        NSERCH:   2  E=     -276.9093726878  R.M.S.=  0.0146490
!        NSERCH:   3  E=     -276.9105478167  R.M.S.=  0.0042627
!        NSERCH:   4  E=     -276.9107174316  R.M.S.=  0.0005254
!        NSERCH:   5  E=     -276.9107320261  R.M.S.=  0.0003028
!        NSERCH:   6  E=     -276.9107332570  R.M.S.=  0.0000716
!        NSERCH:   7  E=     -276.9107328063  R.M.S.=  0.0001598
!        NSERCH:   8  E=     -276.9107333693  R.M.S.=  0.0000067
!        NSERCH:   9  E=     -276.9107333696  R.M.S.=  0.0000080
!        NSERCH:  10  E=     -276.9107333718  R.M.S.=  0.0000018
!
!   this run takes 482 seconds on 2.66 GHz Cloverton (27 April 2011)
!
 $CONTRL RUNTYP=OPTIMIZE SCFTYP=UHF DFTTYP=BHHLYP TDDFT=SPNFLP MULT=3 $end
 $SYSTEM MWORDS=3 $END 
 $STATPT OPTTOL=0.00001 $END
!-----------------------------------------------------------------------
! Wave function
!-----------------------------------------------------------------------
 $GUESS GUESS=MOREAD $END
 $BASIS GBASIS=N31 NGAUSS=6 NDFUNC=1 $END
 $TDDFT NSTATE=5 IROOT=1 MULT=1 $END
!-----------------------------------------------------------------------
! Geometry
!-----------------------------------------------------------------------
 $DATA  
cis-DFE Gas U-SF-BHHLYP/6-31G(d) S0 Geom. Opt.
C1
C   6.0   0.0000000000   0.7637318307   0.1764617591
C   6.0   0.0000000000  -0.7637278136   0.1764642388
F   9.0   0.0000000000   1.3252762811  -1.0217062609
F   9.0   0.0000000000  -1.3252757203  -1.0217016788
H   1.0   0.0000000000  -1.4077612268   1.0273697622
H   1.0   0.0000000000   1.4077566491   1.0273721797
 $END

--- OPTIMIZED UHF      MO-S --- GENERATED AT Mon Apr 11 16:47:04 2011
E=     -275.6230296865, E(NUC)=  111.8601867199
 $VEC   
 1  1 1.02379226E-05-2.63427715E-04 0.00000000E+00-2.01716692E-04 4.44497663E-04
 1  2-1.47914748E-04 0.00000000E+00 3.30704594E-04 1.54383544E-06 8.01707067E-05
 1  3-5.11906015E-05-1.49261367E-04 0.00000000E+00 0.00000000E+00 7.93159673E-05
 1  4-1.00073976E-05 1.67423139E-04 0.00000000E+00-1.45307239E-04-3.30911731E-04
 1  5 1.85621458E-04 0.00000000E+00 3.16858266E-04-2.63067868E-05-6.31603133E-05
 1  6 5.99903267E-05 1.16179390E-04 0.00000000E+00 0.00000000E+00 4.85682361E-05
 1  7-7.95439370E-01-1.42444159E-02 0.00000000E+00 3.16821835E-04-6.99868508E-04
 1  8-6.73224590E-03 0.00000000E+00-2.31951952E-04 4.73228731E-04 3.69325795E-03
 1  9 3.78896811E-03 4.07219105E-03 0.00000000E+00 0.00000000E+00-2.04354597E-04
 1 10 5.96697525E-01 1.06630175E-02 0.00000000E+00 2.31881292E-04 5.25336408E-04
 1 11 5.11120941E-03 0.00000000E+00-1.65554958E-04-3.52566813E-04-2.79662404E-03
 1 12-2.85690989E-03-3.07357275E-03 0.00000000E+00 0.00000000E+00-1.54564778E-04
 1 13-8.45250398E-06 8.27941293E-05 6.78031562E-06-7.49631252E-05
 2  1 6.37993517E-07 3.05501762E-04 0.00000000E+00 1.72806985E-04-3.42482604E-04
 2  2-1.55878349E-04 0.00000000E+00-2.27869002E-06 8.87185218E-05-4.93481099E-05
 2  3-3.87567884E-05 9.69198788E-05 0.00000000E+00 0.00000000E+00-9.85643294E-05
 2  4-2.25200095E-06 3.67008741E-04 0.00000000E+00-2.22348374E-04-4.53177834E-04
 2  5-1.08261090E-04 0.00000000E+00 9.47220043E-05 8.47412791E-05-6.98097957E-05
 2  6-2.28842458E-05 1.34813278E-04 0.00000000E+00 0.00000000E+00 1.16821041E-04
 2  7 5.96718867E-01 1.07658896E-02 0.00000000E+00-2.58342535E-04 5.23835583E-04
 2  8 4.83227548E-03 0.00000000E+00 2.04184125E-04-3.63667510E-04-2.67719937E-03
 2  9-2.79014036E-03-2.98757644E-03 0.00000000E+00 0.00000000E+00 1.48771130E-04
 2 10 7.95455379E-01 1.43215893E-02 0.00000000E+00 3.36675638E-04 6.98740331E-04
 2 11 6.52299959E-03 0.00000000E+00-2.60933011E-04-4.81556784E-04-3.60367099E-03
 2 12-3.73888253E-03-4.00767893E-03 0.00000000E+00 0.00000000E+00-2.00010518E-04
 2 13 4.76696356E-06-1.61652714E-05 6.94234442E-06-3.86858343E-05
 3  1 7.03899515E-01 2.12510865E-02 0.00000000E+00 4.03457323E-04-1.07282867E-03
 3  2-3.58963267E-03 0.00000000E+00-7.67713370E-05-2.95086496E-04-1.68331226E-03
 3  3-2.57712617E-03-1.95887942E-03 0.00000000E+00 0.00000000E+00-1.97607440E-04
 3  4 7.03255924E-01 2.12318076E-02 0.00000000E+00-4.03136712E-04-1.07174199E-03
 3  5-3.58307534E-03 0.00000000E+00 7.81806354E-05-2.94200337E-04-1.68202411E-03
 3  6-2.57542120E-03-1.95746266E-03 0.00000000E+00 0.00000000E+00 1.97457448E-04
 3  7-8.52465976E-05 2.50603148E-04 0.00000000E+00-6.50505499E-05 2.50576412E-04
 3  8-4.17795455E-04 0.00000000E+00 3.69434664E-04-1.02834435E-03 1.36832783E-04
 3  9 4.40069203E-05-4.86315954E-04 0.00000000E+00 0.00000000E+00 3.37271409E-04
 3 10-8.52442064E-05 2.49898587E-04 0.00000000E+00 6.49069122E-05 2.50310458E-04
 3 11-4.16051371E-04 0.00000000E+00-3.68904866E-04-1.02717780E-03 1.36290810E-04
 3 12 4.37382832E-05-4.86124521E-04 0.00000000E+00 0.00000000E+00-3.36894968E-04
 3 13-1.59190741E-04 1.17842065E-03-1.59204314E-04 1.17970573E-03
 4  1 7.03484965E-01 2.10701084E-02 0.00000000E+00 3.49781929E-04-1.18651522E-03
 4  2-7.16406530E-03 0.00000000E+00 1.54927690E-03-9.26670735E-04-1.40806160E-03
 4  3-1.85467719E-03-1.55880757E-03 0.00000000E+00 0.00000000E+00-1.64759966E-04
 4  4-7.04128346E-01-2.10895280E-02 0.00000000E+00 3.50154737E-04 1.18749439E-03
 4  5 7.16733988E-03 0.00000000E+00 1.54920492E-03 9.26915328E-04 1.40960114E-03
 4  6 1.85702875E-03 1.56060526E-03 0.00000000E+00 0.00000000E+00-1.64938217E-04
 4  7-4.50439372E-06 7.60674364E-04 0.00000000E+00-1.57400732E-04 2.91028222E-04
 4  8-1.86809746E-03 0.00000000E+00 5.74195348E-04-1.26770922E-03 5.86374641E-04
 4  9 2.86611453E-04-2.11475500E-04 0.00000000E+00 0.00000000E+00 4.09060010E-04
 4 10 4.58395755E-06-7.60895417E-04 0.00000000E+00-1.57460250E-04-2.91257065E-04
 4 11 1.86845017E-03 0.00000000E+00 5.74529337E-04 1.26864245E-03-5.86493720E-04
 4 12-2.86645254E-04 2.11921128E-04 0.00000000E+00 0.00000000E+00 4.09366514E-04
 4 13 1.85882867E-05-1.37792512E-03-1.84364243E-05 1.37685785E-03
 5  1-4.72709797E-02 8.35159693E-02 0.00000000E+00 1.93007780E-02-6.40062631E-02
 5  2 3.36606195E-02 0.00000000E+00 1.02500061E-03-9.24629288E-04-5.19292593E-03
 5  3-3.90194489E-04 1.26889926E-02 0.00000000E+00 0.00000000E+00-9.66058662E-03
 5  4-4.72702233E-02 8.35145865E-02 0.00000000E+00-1.93002737E-02-6.40050003E-02
 5  5 3.36602937E-02 0.00000000E+00-1.02462362E-03-9.25081885E-04-5.19283999E-03
 5  6-3.89968986E-04 1.26886918E-02 0.00000000E+00 0.00000000E+00 9.66040306E-03
 5  7-1.53762567E-01 3.64159510E-01 0.00000000E+00-2.32869761E-02 4.44931720E-02
 5  8 2.85970430E-01 0.00000000E+00-1.28874221E-02 2.23425087E-02 1.73976028E-02
 5  9 1.94541714E-02 2.50548290E-02 0.00000000E+00 0.00000000E+00-4.96887671E-03
 5 10-1.53759358E-01 3.64151960E-01 0.00000000E+00 2.32867681E-02 4.44922969E-02
 5 11 2.85964106E-01 0.00000000E+00 1.28872238E-02 2.23419645E-02 1.73972625E-02
 5 12 1.94538539E-02 2.50543052E-02 0.00000000E+00 0.00000000E+00 4.96878651E-03
 5 13 9.61198453E-03-2.71681321E-03 9.61205193E-03-2.71718454E-03
 6  1-3.96215640E-02 7.09958851E-02 0.00000000E+00 3.80703041E-02-6.15501543E-02
 6  2 2.09194074E-02 0.00000000E+00 1.02513903E-02 1.13007012E-02-4.91234332E-03
 6  3-7.53034056E-03 1.32626879E-02 0.00000000E+00 0.00000000E+00-1.14089220E-02
 6  4 3.96225852E-02-7.09976814E-02 0.00000000E+00 3.80709172E-02 6.15513962E-02
 6  5-2.09201578E-02 0.00000000E+00 1.02514359E-02-1.13006187E-02 4.91246065E-03
 6  6 7.53026900E-03-1.32628997E-02 0.00000000E+00 0.00000000E+00-1.14092006E-02
 6  7-1.57266969E-01 3.70318206E-01 0.00000000E+00-1.83741934E-02 4.37233329E-02
 6  8 3.02806877E-01 0.00000000E+00-1.10059510E-02 2.43439966E-02 1.72341011E-02
 6  9 1.76286517E-02 2.47221851E-02 0.00000000E+00 0.00000000E+00-5.04082767E-03
 6 10 1.57270055E-01-3.70325529E-01 0.00000000E+00-1.83748342E-02-4.37242739E-02
 6 11-3.02812464E-01 0.00000000E+00-1.10062674E-02-2.43443922E-02-1.72344688E-02
 6 12-1.76290928E-02-2.47226690E-02 0.00000000E+00 0.00000000E+00-5.04095070E-03
 6 13-8.42715701E-03 8.32001644E-03 8.42683409E-03-8.31999060E-03
 7  1-1.41688201E-01 2.89789304E-01 0.00000000E+00-8.64836931E-02 3.51461217E-02
 7  2 2.34379578E-01 0.00000000E+00-1.59984535E-02 2.52999971E-02 2.84754484E-03
 7  3 1.27397676E-02-3.12200762E-03 0.00000000E+00 0.00000000E+00 7.28569963E-03
 7  4-1.41687714E-01 2.89788318E-01 0.00000000E+00 8.64840630E-02 3.51451920E-02
 7  5 2.34378300E-01 0.00000000E+00 1.59985011E-02 2.52992440E-02 2.84755532E-03
 7  6 1.27399582E-02-3.12220699E-03 0.00000000E+00 0.00000000E+00-7.28574988E-03
 7  7 5.19411268E-02-1.09679518E-01 0.00000000E+00-7.70029654E-02 1.18088822E-01
 7  8-1.79746161E-01 0.00000000E+00-4.17510743E-02 6.49684195E-02-1.74434757E-03
 7  9 2.69599892E-03 1.11589657E-02 0.00000000E+00 0.00000000E+00-7.98478270E-03
 7 10 5.19410916E-02-1.09679358E-01 0.00000000E+00 7.70031670E-02 1.18088220E-01
 7 11-1.79746265E-01 0.00000000E+00 4.17511382E-02 6.49680630E-02-1.74432138E-03
 7 12 2.69608109E-03 1.11589205E-02 0.00000000E+00 0.00000000E+00 7.98480815E-03
 7 13 8.62879341E-02 6.50048496E-03 8.62888857E-02 6.50026703E-03
 8  1-1.14322735E-01 2.31877339E-01 0.00000000E+00 1.31595256E-01 2.01583356E-02
 8  2 2.43170069E-01 0.00000000E+00 2.52344874E-02 6.26036757E-02 8.17959797E-04
 8  3-8.95518327E-03 1.10200382E-02 0.00000000E+00 0.00000000E+00 3.18145700E-03
 8  4 1.14323170E-01-2.31878251E-01 0.00000000E+00 1.31595887E-01-2.01579621E-02
 8  5-2.43170925E-01 0.00000000E+00 2.52346983E-02-6.26034363E-02-8.17968793E-04
 8  6 8.95494339E-03-1.10198708E-02 0.00000000E+00 0.00000000E+00 3.18142737E-03
 8  7 4.63881800E-02-1.05957390E-01 0.00000000E+00-5.31026367E-02 2.48236695E-01
 8  8-1.57416675E-01 0.00000000E+00-3.72184514E-02 1.51796354E-01-6.95998238E-03
 8  9-3.97397344E-03 1.59080519E-02 0.00000000E+00 0.00000000E+00-8.14800943E-03
 8 10-4.63885695E-02 1.05958038E-01 0.00000000E+00-5.31036737E-02-2.48238066E-01
 8 11 1.57418581E-01 0.00000000E+00-3.72190239E-02-1.51797062E-01 6.95993547E-03
 8 12 3.97384493E-03-1.59081779E-02 0.00000000E+00 0.00000000E+00-8.14813713E-03
 8 13-1.23191686E-01-2.26609527E-02 1.23191260E-01 2.26607626E-02
 9  1 1.07440081E-02-2.24822410E-02 0.00000000E+00-1.77104434E-01-1.62901473E-01
 9  2-5.39881298E-02 0.00000000E+00-7.82583490E-02-6.15755227E-02-1.80620654E-03
 9  3-2.01538000E-03 2.59558478E-03 0.00000000E+00 0.00000000E+00-1.65359947E-03
 9  4 1.07436911E-02-2.24815705E-02 0.00000000E+00 1.77104000E-01-1.62900178E-01
 9  5-5.39867764E-02 0.00000000E+00 7.82585377E-02-6.15752903E-02-1.80618218E-03
 9  6-2.01560575E-03 2.59574217E-03 0.00000000E+00 0.00000000E+00 1.65354955E-03
 9  7 8.16814761E-03-2.19089932E-02 0.00000000E+00-3.25725984E-01-7.23470569E-02
 9  8-2.44302397E-02 0.00000000E+00-2.16490269E-01-4.58509308E-02-3.52751369E-03
 9  9 1.03968468E-02-8.73070599E-03 0.00000000E+00 0.00000000E+00-1.22692022E-02
 9 10 8.16805008E-03-2.19087739E-02 0.00000000E+00 3.25724198E-01-7.23486890E-02
 9 11-2.44298227E-02 0.00000000E+00 2.16489052E-01-4.58520222E-02-3.52749124E-03
 9 12 1.03968746E-02-8.73080442E-03 0.00000000E+00 0.00000000E+00 1.22690379E-02
 9 13-1.14575940E-01-5.04591999E-02-1.14576816E-01-5.04596496E-02
10  1 0.00000000E+00 0.00000000E+00 1.98955587E-01 0.00000000E+00 0.00000000E+00
10  2 0.00000000E+00 9.78480853E-02 0.00000000E+00 0.00000000E+00 0.00000000E+00
10  3 0.00000000E+00 0.00000000E+00 9.82319911E-04-1.09262235E-02 0.00000000E+00
10  4 0.00000000E+00 0.00000000E+00 1.98953903E-01 0.00000000E+00 0.00000000E+00
10  5 0.00000000E+00 9.78471167E-02 0.00000000E+00 0.00000000E+00 0.00000000E+00
10  6 0.00000000E+00 0.00000000E+00-9.82250273E-04-1.09260943E-02 0.00000000E+00
10  7 0.00000000E+00 0.00000000E+00 4.06046421E-01 0.00000000E+00 0.00000000E+00
10  8 0.00000000E+00 2.67171208E-01 0.00000000E+00 0.00000000E+00 0.00000000E+00
10  9 0.00000000E+00 0.00000000E+00-7.41315919E-03 1.42480117E-02 0.00000000E+00
10 10 0.00000000E+00 0.00000000E+00 4.06040475E-01 0.00000000E+00 0.00000000E+00
10 11 0.00000000E+00 2.67167289E-01 0.00000000E+00 0.00000000E+00 0.00000000E+00
10 12 0.00000000E+00 0.00000000E+00 7.41311930E-03 1.42477890E-02 0.00000000E+00
10 13 0.00000000E+00 0.00000000E+00 0.00000000E+00 0.00000000E+00
11  1-1.52630676E-02 2.90493588E-02 0.00000000E+00-1.64246463E-01 2.00481067E-01
11  2 7.45153205E-02 0.00000000E+00-5.01068235E-02 4.40881397E-02 5.98123830E-03
11  3 8.05218416E-03-1.71890855E-02 0.00000000E+00 0.00000000E+00 1.80520538E-02
11  4-1.52629257E-02 2.90491783E-02 0.00000000E+00 1.64247886E-01 2.00472959E-01
11  5 7.45132300E-02 0.00000000E+00 5.01071627E-02 4.40865245E-02 5.98113344E-03
11  6 8.05184130E-03-1.71888153E-02 0.00000000E+00 0.00000000E+00-1.80513891E-02
11  7-2.65576018E-02 5.12683015E-02 0.00000000E+00 3.66649252E-02-3.65827775E-01
11  8 1.20885772E-01 0.00000000E+00 2.31684902E-02-2.45383623E-01 1.69344882E-03
11  9 1.06607746E-04-2.35909701E-02 0.00000000E+00 0.00000000E+00 8.47279760E-03
11 10-2.65569459E-02 5.12668220E-02 0.00000000E+00-3.66583338E-02-3.65820685E-01
11 11 1.20883298E-01 0.00000000E+00-2.31639742E-02-2.45378689E-01 1.69331109E-03
11 12 1.06676351E-04-2.35905390E-02 0.00000000E+00 0.00000000E+00-8.47238771E-03
11 13 4.67025674E-02 2.99072616E-02 4.67070796E-02 2.99100428E-02
12  1 0.00000000E+00 0.00000000E+00-1.28956327E-01 0.00000000E+00 0.00000000E+00
12  2 0.00000000E+00-7.77293681E-02 0.00000000E+00 0.00000000E+00 0.00000000E+00
12  3 0.00000000E+00 0.00000000E+00-9.34427068E-03 1.16145606E-02 0.00000000E+00
12  4 0.00000000E+00 0.00000000E+00 1.28959254E-01 0.00000000E+00 0.00000000E+00
12  5 0.00000000E+00 7.77308573E-02 0.00000000E+00 0.00000000E+00 0.00000000E+00
12  6 0.00000000E+00 0.00000000E+00-9.34431226E-03-1.16146866E-02 0.00000000E+00
12  7 0.00000000E+00 0.00000000E+00-4.50024002E-01 0.00000000E+00 0.00000000E+00
12  8 0.00000000E+00-3.00185056E-01 0.00000000E+00 0.00000000E+00 0.00000000E+00
12  9 0.00000000E+00 0.00000000E+00 6.36758740E-03-1.47204327E-02 0.00000000E+00
12 10 0.00000000E+00 0.00000000E+00 4.50029027E-01 0.00000000E+00 0.00000000E+00
12 11 0.00000000E+00 3.00188392E-01 0.00000000E+00 0.00000000E+00 0.00000000E+00
12 12 0.00000000E+00 0.00000000E+00 6.36773031E-03 1.47205910E-02 0.00000000E+00
12 13 0.00000000E+00 0.00000000E+00 0.00000000E+00 0.00000000E+00
13  1 1.06411053E-02-1.89041664E-02 0.00000000E+00-5.15140482E-02-2.16233769E-01
13  2-6.39238252E-02 0.00000000E+00-4.54165254E-02-5.49127631E-02-4.14861740E-03
13  3-1.23048106E-02 1.33221610E-02 0.00000000E+00 0.00000000E+00-1.89053825E-02
13  4-1.06418158E-02 1.89055564E-02 0.00000000E+00-5.15100591E-02 2.16240351E-01
13  5 6.39271249E-02 0.00000000E+00-4.54155462E-02 5.49145956E-02 4.14884454E-03
13  6 1.23051559E-02-1.33228030E-02 0.00000000E+00 0.00000000E+00-1.89061065E-02
13  7 1.39867841E-02-2.94625559E-02 0.00000000E+00-3.61094265E-01 1.17813789E-01
13  8-5.65270759E-02 0.00000000E+00-2.45009009E-01 8.47249722E-02-2.61953084E-03
13  9 7.24994713E-03 5.26064683E-03 0.00000000E+00 0.00000000E+00-1.70545091E-02
13 10-1.39874419E-02 2.94637987E-02 0.00000000E+00-3.61096974E-01-1.17823028E-01
13 11 5.65301021E-02 0.00000000E+00-2.45010795E-01-8.47312727E-02 2.61958254E-03
13 12-7.25007939E-03-5.26115118E-03 0.00000000E+00 0.00000000E+00-1.70547802E-02
13 13 1.12560123E-01 6.72454933E-02-1.12558152E-01-6.72441303E-02
14  1-3.94619709E-02 7.68918363E-02 0.00000000E+00 1.00068588E-02 1.56319473E-01
14  2 1.89755572E-01 0.00000000E+00-5.10985886E-02 7.17636808E-02 4.66283396E-03
14  3-8.50967595E-03 4.70555116E-03 0.00000000E+00 0.00000000E+00 2.86836088E-02
14  4 3.94625554E-02-7.68930318E-02 0.00000000E+00 1.00032253E-02-1.56320827E-01
14  5-1.89757917E-01 0.00000000E+00-5.10997297E-02-7.17639212E-02-4.66297631E-03
14  6 8.50939496E-03-4.70506498E-03 0.00000000E+00 0.00000000E+00 2.86837494E-02
14  7-5.40901614E-03 1.10866529E-02 0.00000000E+00-2.79132756E-01-3.02289337E-01
14  8 2.96574868E-02 0.00000000E+00-1.96624248E-01-2.11674872E-01 2.52132974E-03
14  9 6.67936670E-03-1.35239840E-02 0.00000000E+00 0.00000000E+00-4.44573215E-03
14 10 5.40911539E-03-1.10867978E-02 0.00000000E+00-2.79129131E-01 3.02293405E-01
14 11-2.96579641E-02 0.00000000E+00-1.96621602E-01 2.11677688E-01-2.52133695E-03
14 12-6.67934779E-03 1.35241531E-02 0.00000000E+00 0.00000000E+00-4.44554793E-03
14 13-1.22196023E-01-8.04910355E-02 1.22196473E-01 8.04913824E-02
15  1-1.56498727E-02 3.63783697E-02 0.00000000E+00-3.11150398E-01-1.03095945E-01
15  2 6.54440820E-02 0.00000000E+00-1.02578695E-01-3.29991716E-02 2.89340034E-03
15  3 2.20616072E-02-2.60275995E-02 0.00000000E+00 0.00000000E+00-1.59824938E-02
15  4-1.56498690E-02 3.63785748E-02 0.00000000E+00 3.11150609E-01-1.03096807E-01
15  5 6.54431704E-02 0.00000000E+00 1.02578765E-01-3.30014059E-02 2.89341318E-03
15  6 2.20614666E-02-2.60274558E-02 0.00000000E+00 0.00000000E+00 1.59825835E-02
15  7 3.59248043E-04 8.55951413E-03 0.00000000E+00 2.99887513E-01 8.40726707E-02
15  8-1.98141892E-02 0.00000000E+00 2.44701284E-01 6.77032419E-02 5.56418887E-03
15  9-1.62387950E-03 6.75101591E-03 0.00000000E+00 0.00000000E+00 4.77633451E-03
15 10 3.59268117E-04 8.55982185E-03 0.00000000E+00-2.99889466E-01 8.40758445E-02
15 11-1.98152167E-02 0.00000000E+00-2.44702911E-01 6.77054812E-02 5.56432096E-03
15 12-1.62382428E-03 6.75124773E-03 0.00000000E+00 0.00000000E+00-4.77637021E-03
15 13-1.55587341E-01-1.46597730E-01-1.55586606E-01-1.46598556E-01
16  1 0.00000000E+00 0.00000000E+00 4.06037358E-01 0.00000000E+00 0.00000000E+00
16  2 0.00000000E+00 2.61565051E-01 0.00000000E+00 0.00000000E+00 0.00000000E+00
16  3 0.00000000E+00 0.00000000E+00-1.59142451E-02 1.37610332E-02 0.00000000E+00
16  4 0.00000000E+00 0.00000000E+00 4.06035952E-01 0.00000000E+00 0.00000000E+00
16  5 0.00000000E+00 2.61564109E-01 0.00000000E+00 0.00000000E+00 0.00000000E+00
16  6 0.00000000E+00 0.00000000E+00 1.59143039E-02 1.37609146E-02 0.00000000E+00
16  7 0.00000000E+00 0.00000000E+00-2.58089524E-01 0.00000000E+00 0.00000000E+00
16  8 0.00000000E+00-2.22762862E-01 0.00000000E+00 0.00000000E+00 0.00000000E+00
16  9 0.00000000E+00 0.00000000E+00 4.72053924E-04-8.15994968E-04 0.00000000E+00
16 10 0.00000000E+00 0.00000000E+00-2.58089472E-01 0.00000000E+00 0.00000000E+00
16 11 0.00000000E+00-2.22762808E-01 0.00000000E+00 0.00000000E+00 0.00000000E+00
16 12 0.00000000E+00 0.00000000E+00-4.72073643E-04-8.16031266E-04 0.00000000E+00
16 13 0.00000000E+00 0.00000000E+00 0.00000000E+00 0.00000000E+00
17  1 0.00000000E+00 0.00000000E+00-4.94851963E-01 0.00000000E+00 0.00000000E+00
17  2 0.00000000E+00-4.58214921E-01 0.00000000E+00 0.00000000E+00 0.00000000E+00
17  3 0.00000000E+00 0.00000000E+00-1.67758778E-02-1.26025744E-02 0.00000000E+00
17  4 0.00000000E+00 0.00000000E+00 4.94852795E-01 0.00000000E+00 0.00000000E+00
17  5 0.00000000E+00 4.58215757E-01 0.00000000E+00 0.00000000E+00 0.00000000E+00
17  6 0.00000000E+00 0.00000000E+00-1.67758021E-02 1.26025998E-02 0.00000000E+00
17  7 0.00000000E+00 0.00000000E+00 1.83595527E-01 0.00000000E+00 0.00000000E+00
17  8 0.00000000E+00 1.88245040E-01 0.00000000E+00 0.00000000E+00 0.00000000E+00
17  9 0.00000000E+00 0.00000000E+00 1.12532165E-03-5.40050125E-03 0.00000000E+00
17 10 0.00000000E+00 0.00000000E+00-1.83596187E-01 0.00000000E+00 0.00000000E+00
17 11 0.00000000E+00-1.88245756E-01 0.00000000E+00 0.00000000E+00 0.00000000E+00
17 12 0.00000000E+00 0.00000000E+00 1.12532636E-03 5.40047221E-03 0.00000000E+00
17 13 0.00000000E+00 0.00000000E+00 0.00000000E+00 0.00000000E+00
 1  1 1.64161875E-05-2.12899688E-04 0.00000000E+00-1.83120090E-04 3.88329470E-04
 1  2-2.86591401E-04 0.00000000E+00 3.89154860E-04 9.11206209E-05 7.01400912E-05
 1  3-3.76829814E-05-1.16751435E-04 0.00000000E+00 0.00000000E+00 6.61581162E-05
 1  4-1.54834650E-05 1.47424238E-04 0.00000000E+00-1.44418595E-04-3.10964999E-04
 1  5 3.07553959E-04 0.00000000E+00 3.80642466E-04-1.08647418E-04-6.04264013E-05
 1  6 4.61180764E-05 9.75559958E-05 0.00000000E+00 0.00000000E+00 4.51272413E-05
 1  7-7.73585022E-01-1.37198317E-02 0.00000000E+00 3.13684618E-04-6.90874060E-04
 1  8-6.35772809E-03 0.00000000E+00-2.18603665E-04 4.28595454E-04 3.60536516E-03
 1  9 3.58253701E-03 3.81184360E-03 0.00000000E+00 0.00000000E+00-1.65534161E-04
 1 10 6.24887991E-01 1.10691825E-02 0.00000000E+00 2.49154899E-04 5.58426317E-04
 1 11 5.16673775E-03 0.00000000E+00-1.72720578E-04-3.46447670E-04-2.93062440E-03
 1 12-2.90265169E-03-3.09117768E-03 0.00000000E+00 0.00000000E+00-1.35292469E-04
 1 13-1.35526399E-06 1.14385201E-04-2.25252144E-07-1.06275061E-04
 2  1-2.68989239E-06 2.88746632E-04 0.00000000E+00 1.64588010E-04-3.26630440E-04
 2  2-1.30169181E-04 0.00000000E+00 8.88746058E-07 9.30397357E-05-3.87381277E-05
 2  3-4.41218724E-05 7.88714120E-05 0.00000000E+00 0.00000000E+00-9.29809808E-05
 2  4-6.08150552E-06 3.27058493E-04 0.00000000E+00-1.99415166E-04-4.00984092E-04
 2  5-6.69931925E-05 0.00000000E+00 8.09594995E-05 7.17980886E-05-5.26209403E-05
 2  6-3.52109993E-05 1.01657926E-04 0.00000000E+00 0.00000000E+00 1.04813832E-04
 2  7 6.24905074E-01 1.11468953E-02 0.00000000E+00-2.73539510E-04 5.56416198E-04
 2  8 4.98800470E-03 0.00000000E+00 1.94967637E-04-3.45093852E-04-2.82551901E-03
 2  9-2.85241528E-03-3.02196497E-03 0.00000000E+00 0.00000000E+00 1.26223231E-04
 2 10 7.73598821E-01 1.37826094E-02 0.00000000E+00 3.33386063E-04 6.89247925E-04
 2 11 6.21334595E-03 0.00000000E+00-2.36577544E-04-4.27502709E-04-3.52046205E-03
 2 12-3.54195764E-03-3.75593254E-03 0.00000000E+00 0.00000000E+00-1.58210102E-04
 2 13 7.36866293E-06-2.64050998E-05 7.48975080E-06-4.98662461E-05
 3  1 7.04611915E-01 1.71309429E-02 0.00000000E+00 4.76168786E-04-1.21718439E-03
 3  2-3.59052413E-03 0.00000000E+00-6.02677565E-05-4.30135408E-04-1.90963428E-03
 3  3-8.88170674E-04-1.54592880E-04 0.00000000E+00 0.00000000E+00-2.87572863E-04
 3  4 7.03979526E-01 1.71158871E-02 0.00000000E+00-4.75931944E-04-1.21596094E-03
 3  5-3.58462555E-03 0.00000000E+00 6.11770996E-05-4.28615139E-04-1.90814000E-03
 3  6-8.88338394E-04-1.54885985E-04 0.00000000E+00 0.00000000E+00 2.87348247E-04
 3  7-7.31270709E-05 3.45838844E-04 0.00000000E+00-4.78588404E-05 1.99621502E-04
 3  8-8.01810566E-04 0.00000000E+00 4.70292541E-04-1.21243767E-03 2.97201804E-04
 3  9 7.56357022E-05-5.50110969E-04 0.00000000E+00 0.00000000E+00 4.07525786E-04
 3 10-7.31578907E-05 3.44923136E-04 0.00000000E+00 4.77262911E-05 1.99400704E-04
 3 11-7.99219300E-04 0.00000000E+00-4.69570169E-04-1.21102115E-03 2.96444616E-04
 3 12 7.52630801E-05-5.49918183E-04 0.00000000E+00 0.00000000E+00-4.07064935E-04
 3 13-2.41466887E-04 1.26061833E-03-2.41538170E-04 1.26224832E-03
 4  1 7.04204188E-01 1.67637823E-02 0.00000000E+00 2.63395858E-04-1.36146828E-03
 4  2-6.56898384E-03 0.00000000E+00 1.02796585E-03-1.64654257E-03-1.66322395E-03
 4  3 1.96416875E-04 3.14067696E-04 0.00000000E+00 0.00000000E+00-2.51766332E-04
 4  4-7.04836376E-01-1.67791487E-02 0.00000000E+00 2.63828548E-04 1.36255924E-03
 4  5 6.57220182E-03 0.00000000E+00 1.02790847E-03 1.64690145E-03 1.66493774E-03
 4  6-1.95623946E-04-3.13919841E-04 0.00000000E+00 0.00000000E+00-2.52021173E-04
 4  7 3.23647283E-05 1.00973782E-03 0.00000000E+00-1.47617156E-04 2.46227858E-04
 4  8-2.84551902E-03 0.00000000E+00 7.98677797E-04-1.56952582E-03 8.37158914E-04
 4  9 4.07536520E-04-2.16573409E-04 0.00000000E+00 0.00000000E+00 5.10548556E-04
 4 10-3.22970646E-05-1.01003770E-03 0.00000000E+00-1.47659829E-04-2.46406541E-04
 4 11 2.84620100E-03 0.00000000E+00 7.99095877E-04 1.57060448E-03-8.37418100E-04
 4 12-4.07595939E-04 2.17068623E-04 0.00000000E+00 0.00000000E+00 5.10912329E-04
 4 13 8.30651958E-05-1.78382182E-03-8.28420131E-05 1.78270021E-03
 5  1-4.21706668E-02 6.90327549E-02 0.00000000E+00 1.86613869E-02-6.24623758E-02
 5  2 2.31642643E-02 0.00000000E+00 2.65818230E-04-7.92403430E-04-9.78900220E-03
 5  3 1.80583984E-03 1.49561646E-02 0.00000000E+00 0.00000000E+00-9.66915547E-03
 5  4-4.21697231E-02 6.90311569E-02 0.00000000E+00-1.86606848E-02-6.24607186E-02
 5  5 2.31641790E-02 0.00000000E+00-2.65267011E-04-7.92933282E-04-9.78878785E-03
 5  6 1.80605855E-03 1.49557293E-02 0.00000000E+00 0.00000000E+00 9.66889359E-03
 5  7-1.55120947E-01 3.62373742E-01 0.00000000E+00-2.48389298E-02 4.71192847E-02
 5  8 3.00198793E-01 0.00000000E+00-1.49116476E-02 2.59439594E-02 1.39712476E-02
 5  9 1.90110955E-02 2.55173217E-02 0.00000000E+00 0.00000000E+00-5.79530465E-03
 5 10-1.55116587E-01 3.62363574E-01 0.00000000E+00 2.48385355E-02 4.71180042E-02
 5 11 3.00190033E-01 0.00000000E+00 1.49113288E-02 2.59431430E-02 1.39708584E-02
 5 12 1.90106535E-02 2.55165802E-02 0.00000000E+00 0.00000000E+00 5.79515286E-03
 5 13 8.89597267E-03-6.34674823E-04 8.89607207E-03-6.35072149E-04
 6  1 3.62634372E-02-6.02901221E-02 0.00000000E+00-3.54053273E-02 5.98612076E-02
 6  2-8.60717927E-03 0.00000000E+00-1.20210389E-02-1.11189218E-02 8.39000241E-03
 6  3 5.39989749E-03-1.48807771E-02 0.00000000E+00 0.00000000E+00 1.13986889E-02
 6  4-3.62646612E-02 6.02921199E-02 0.00000000E+00-3.54060618E-02-5.98628807E-02
 6  5 8.60787880E-03 0.00000000E+00-1.20210595E-02 1.11188554E-02-8.39028829E-03
 6  6-5.39976929E-03 1.48811495E-02 0.00000000E+00 0.00000000E+00 1.13990364E-02
 6  7 1.57867816E-01-3.67925608E-01 0.00000000E+00 2.01975375E-02-4.67446998E-02
 6  8-3.12862115E-01 0.00000000E+00 1.27145789E-02-2.77860169E-02-1.43032273E-02
 6  9-1.76010852E-02-2.58496786E-02 0.00000000E+00 0.00000000E+00 5.92159507E-03
 6 10-1.57872048E-01 3.67935491E-01 0.00000000E+00 2.01983862E-02 4.67460259E-02
 6 11 3.12870196E-01 0.00000000E+00 1.27150562E-02 2.77866736E-02 1.43036190E-02
 6 12 1.76016546E-02 2.58503443E-02 0.00000000E+00 0.00000000E+00 5.92177737E-03
 6 13 8.22202263E-03-6.83080903E-03-8.22163716E-03 6.83081963E-03
 7  1-1.32659489E-01 2.69773546E-01 0.00000000E+00-9.21665709E-02 1.69473857E-02
 7  2 1.74767743E-01 0.00000000E+00-2.68707918E-02 2.61856000E-02-2.23500013E-02
 7  3 2.67190937E-02 1.25063867E-02 0.00000000E+00 0.00000000E+00 5.36157469E-03
 7  4-1.32658997E-01 2.69772519E-01 0.00000000E+00 9.21668986E-02 1.69463926E-02
 7  5 1.74767140E-01 0.00000000E+00 2.68713508E-02 2.61849272E-02-2.23499075E-02
 7  6 2.67192494E-02 1.25061014E-02 0.00000000E+00 0.00000000E+00-5.36161767E-03
 7  7 4.70350869E-02-1.11007429E-01 0.00000000E+00-1.06193494E-01 1.54593065E-01
 7  8-1.38820745E-01 0.00000000E+00-6.69929865E-02 9.75102683E-02-6.50484027E-03
 7  9-2.41887905E-03 5.02942530E-03 0.00000000E+00 0.00000000E+00-9.13234551E-03
 7 10 4.70350460E-02-1.11007301E-01 0.00000000E+00 1.06193695E-01 1.54592170E-01
 7 11-1.38820730E-01 0.00000000E+00 6.69930451E-02 9.75097205E-02-6.50483329E-03
 7 12-2.41881145E-03 5.02935214E-03 0.00000000E+00 0.00000000E+00 9.13235934E-03
 7 13 9.90701994E-02 3.52486665E-02 9.90713553E-02 3.52486625E-02
 8  1 9.65158022E-02-1.94409531E-01 0.00000000E+00-1.24480401E-01 9.43640580E-03
 8  2-1.11997428E-01 0.00000000E+00-4.75641739E-02-6.54975332E-02 1.59042387E-02
 8  3-4.43651869E-04-2.15906353E-02 0.00000000E+00 0.00000000E+00 1.12852744E-03
 8  4-9.65162073E-02 1.94410358E-01 0.00000000E+00-1.24481541E-01-9.43669144E-03
 8  5 1.11998014E-01 0.00000000E+00-4.75643789E-02 6.54975165E-02-1.59043013E-02
 8  6 4.43913743E-04 2.15905320E-02 0.00000000E+00 0.00000000E+00 1.12856407E-03
 8  7-4.28891753E-02 1.04735960E-01 0.00000000E+00 6.75660413E-02-2.98582958E-01
 8  8 1.22853870E-01 0.00000000E+00 5.15449982E-02-1.94796656E-01 8.36793904E-03
 8  9 7.85872643E-03-1.37271589E-02 0.00000000E+00 0.00000000E+00 8.85472004E-03
 8 10 4.28895530E-02-1.04736624E-01 0.00000000E+00 6.75669193E-02 2.98584691E-01
 8 11-1.22855596E-01 0.00000000E+00 5.15455155E-02 1.94797641E-01-8.36789774E-03
 8 12-7.85864071E-03 1.37272804E-02 0.00000000E+00 0.00000000E+00 8.85483730E-03
 8 13 1.24703312E-01 3.93208702E-02-1.24702539E-01-3.93204728E-02
 9  1 1.45901383E-02-2.80640538E-02 0.00000000E+00-1.61137747E-01-1.46483589E-01
 9  2-4.04097486E-02 0.00000000E+00-6.46695758E-02-5.16212871E-02 2.17394464E-03
 9  3-4.52989012E-03 6.14055120E-04 0.00000000E+00 0.00000000E+00-7.35502991E-04
 9  4 1.45896409E-02-2.80630038E-02 0.00000000E+00 1.61137063E-01-1.46482376E-01
 9  5-4.04087776E-02 0.00000000E+00 6.46692443E-02-5.16208799E-02 2.17386999E-03
 9  6-4.53009415E-03 6.14306647E-04 0.00000000E+00 0.00000000E+00 7.35473694E-04
 9  7 6.16435374E-03-1.65662630E-02 0.00000000E+00-3.28432833E-01-8.88690978E-02
 9  8-1.85161903E-02 0.00000000E+00-2.24025508E-01-6.00910506E-02-2.87204680E-03
 9  9 1.15401177E-02-1.02494604E-02 0.00000000E+00 0.00000000E+00-1.24393596E-02
 9 10 6.16433652E-03-1.65662707E-02 0.00000000E+00 3.28430947E-01-8.88698934E-02
 9 11-1.85159595E-02 0.00000000E+00 2.24024275E-01-6.00915860E-02-2.87205352E-03
 9 12 1.15401189E-02-1.02495266E-02 0.00000000E+00 0.00000000E+00 1.24392086E-02
 9 13-1.28655741E-01-7.24385283E-02-1.28656963E-01-7.24390823E-02
10  1 2.63873063E-02-5.68749454E-02 0.00000000E+00 1.60973445E-01-1.95568500E-01
10  2-7.51528191E-02 0.00000000E+00 4.94068222E-02-4.24715061E-02 2.32702623E-03
10  3-1.42901641E-02 1.27691465E-02 0.00000000E+00 0.00000000E+00-1.85175774E-02