!  CH2NH2+...test case from Noriyuki...April 2011
!  conical intersection search, using Tamm/Dancoff TD-DFT potential surfaces
!
!  the search for intersection between G.S. and 1st E.S. goes like:
!     NSERCH:   0  E= -94.7961010950  R.M.S.=  0.0004100
!     NSERCH:   1  E= -94.7970525288  R.M.S.=  0.0000463
!     NSERCH:   2  E= -94.7969682264  R.M.S.=  0.0000094
!
!  the initial geometry has these states,
!       STATE       ENERGY     EXCITATION  TRANSITION DIPOLE, A.U.  OSCILLATOR
!                  HARTREE          EV         X       Y       Z     STRENGTH
!       0  A    -94.7969708316    0.000
!       1  A    -94.7961010950    0.024     0.0242  0.0073 -0.0984    0.000
!       2  A    -94.5473539042    6.792     0.0065  0.0083  0.0383    0.000
!       3  A    -94.5185296800    7.577     0.0048  0.0017 -0.0536    0.001
!  while the final geometry is
!       STATE       ENERGY     EXCITATION  TRANSITION DIPOLE, A.U.  OSCILLATOR
!                  HARTREE          EV         X       Y       Z     STRENGTH
!       0  A    -94.7969643377    0.000
!       1  A    -94.7969682325    0.000     0.0241  0.0061 -0.0741    0.000
!       2  A    -94.5474790844    6.789     0.0064  0.0077  0.0280    0.000
!       3  A    -94.5186688151    7.573    -0.0035 -0.0011  0.0535    0.001
!
!  this run takes 119 seconds on 2.66 GHz Cloverton (22 July 2014)
!      (results unchanged since 2011)
!
 $CONTRL RUNTYP=CONICAL SCFTYP=RHF DFTTYP=B3LYP TDDFT=EXCITE icharg=+1 $end
 $SYSTEM MWORDS=10 MEMDDI=5 $END
 $STATPT METHOD=RFO DXMAX=0.2 UPHESS=BFGS $END
 $CONICL OPTTYP=BPUPD IXROOT(1)=0,1, DEBUG=.F. $END
!-----------------------------------------------------------------------
! Wave function
!-----------------------------------------------------------------------
 $GUESS GUESS=MOREAD $END
 $BASIS GBASIS=N31 NGAUSS=6 NDFUNC=1 NPFUNC=1 $END 
 $TDDFT NSTATE=3 IROOT=1 TAMMD=.T. $END
!-----------------------------------------------------------------------
! Geometry
!-----------------------------------------------------------------------
 $DATA  
CH2NH2+ TDA-B3LYP/6-31G(d,p) S0/S1
C1
C    6.0  -0.0010881502   0.0123230620   0.6539897525
N    7.0   0.0045461786   0.0011067826  -0.6883826624
H    1.0   0.9318262038   0.1711599201   1.2240242374
H    1.0  -0.9298008600   0.1170336600   1.2185050133
H    1.0  -0.0277332367   0.8617165148  -1.2068867647
H    1.0   0.0222498644  -0.8633399395  -1.2012495760
 $END

--- CLOSED SHELL ORBITALS --- GENERATED AT Mon Jan  3 00:19:46 2011
 CH2NH2+ TDA-B3LYP/6-31G(d,p) S0/S1                                             
E(R-B3LYP)=      -94.7969708316, E(NUC)=   37.6496072039,   14 ITERS
 $VEC   
 1  1 3.84879750E-05 2.66117404E-04 9.47712660E-07-7.44508498E-07-2.61715764E-04
 1  2-3.70207360E-04-1.07701923E-05 2.06944276E-05 3.07406743E-04 3.15236452E-05
 1  3-2.88023988E-05-4.49691891E-05 2.85213065E-06-2.25879040E-06 3.72089461E-06
 1  4 9.92572453E-01 3.49617168E-02-3.45694007E-05 6.71225823E-06 3.87231345E-04
 1  5 4.67683411E-03 1.23078181E-05-9.12537919E-06-1.59546996E-04-8.48128237E-03
 1  6-8.47399001E-03-8.42228588E-03-7.46104700E-07 5.79342013E-07 1.34661886E-06
 1  7-2.04461843E-05-9.10858149E-05 1.79294128E-05 3.40261496E-06 6.30625809E-05
 1  8-2.47216167E-05-9.81100760E-05-1.87276263E-05 2.67364303E-06 6.42452793E-05
 1  9 3.46423490E-04-6.36839628E-04 1.16681682E-06-3.76984858E-05 2.61801694E-05
 1 10 3.45538030E-04-6.42057079E-04 9.27817341E-07 3.93203378E-05 2.64196531E-05
 2  1 9.92896556E-01 4.74737269E-02-8.89485889E-06-1.61823140E-04-6.06241273E-04
 2  2-9.78138443E-03 3.62198641E-05-2.34418771E-04-2.71110196E-04-9.07892917E-03
 2  3-9.53469007E-03-8.63257657E-03 1.11284466E-05-1.35743705E-05 7.49090004E-05
 2  4-1.96851059E-04-1.01137558E-04 3.42349761E-06-1.71947616E-05-3.19796298E-04
 2  5 9.92862855E-04-8.34072656E-06 1.64782495E-04 2.07601789E-04-3.97803175E-05
 2  6-2.36676284E-04-6.44322663E-04 8.72891723E-06-2.05016209E-06 3.31173962E-05
 2  7-3.56408959E-04 2.05617986E-03 9.99358563E-05 4.90576720E-05 5.24943114E-05
 2  8-3.71226857E-04 2.12386432E-03-9.30074933E-05 4.48199157E-05 4.24833574E-05
 2  9 5.57258101E-05 3.11266609E-04 4.16987763E-06-1.20006897E-04 1.80575698E-04
 2 10 8.16894582E-05 4.39631009E-04-2.08247460E-06 1.06499066E-04 1.92837934E-04
 3  1-1.22429392E-01 2.59547075E-01-9.07650686E-05-6.90178698E-05-1.51047674E-01
 3  2 1.23876957E-01-3.10017773E-04 2.41011351E-03 1.32643215E-02-1.64466907E-02
 3  3-1.47608567E-02 1.58061541E-02 1.09712378E-04-6.98657591E-05 6.21393266E-04
 3  4-1.83661135E-01 3.78274421E-01-1.95643415E-03 2.14787346E-03 8.60443317E-02
 3  5 3.61781512E-01-8.59468898E-04 1.78888173E-05 3.69121667E-02-1.86246350E-02
 3  6-3.68284195E-03 7.14112397E-03-2.40547875E-04-1.36010500E-04 2.60193984E-05
 3  7 4.56376038E-02-6.17626049E-03-5.05466906E-03-9.11062581E-04-4.85498699E-03
 3  8 4.67796295E-02-6.55039669E-03 5.12874655E-03-6.64001846E-04-4.92991672E-03
 3  9 1.03397303E-01 2.40979778E-03 4.35802825E-04-1.19565452E-02 8.91869510E-03
 3 10 1.01590161E-01 1.73885320E-03-3.05105545E-04 1.19268765E-02 8.67489919E-03
 4  1-1.65751257E-01 3.72156321E-01-4.33177306E-03 1.96332786E-02 1.17081468E-01
 4  2 3.32246157E-01-9.07949534E-04 7.96778875E-03 3.42936217E-02 2.67808615E-04
 4  3-1.47845726E-02-1.52178802E-02 5.00619429E-04-2.59685443E-04 1.23900465E-03
 4  4 9.30301525E-02-1.97930787E-01 6.34919360E-04 6.42997148E-03 2.00983370E-01
 4  5-2.51165125E-01 4.72904277E-04 9.59113856E-04 6.32239623E-02 7.43695630E-03
 4  6-5.87848913E-03 1.43985578E-02 4.05463686E-04-3.36903453E-04 6.40708989E-04
 4  7 1.46898982E-01 3.28886783E-02-1.13811182E-02-1.56686710E-03-5.13552675E-03
 4  8 1.51820170E-01 3.38130037E-02 1.15595445E-02-1.09358637E-03-5.24503890E-03
 4  9-1.22520931E-01-2.73796910E-02-4.92359585E-04 1.22358265E-02-3.41313433E-03
 4 10-1.26499837E-01-2.84554543E-02 3.25533062E-04-1.24830775E-02-3.70592688E-03
 5  1 5.01576620E-04-8.44563502E-03-1.59492063E-02 1.63874173E-01 1.60668891E-01
 5  2 1.88166952E-02-4.64363680E-03 6.25112852E-02 4.25500228E-02 7.80882431E-03
 5  3 9.18035242E-04-6.58138533E-03 8.16610106E-05 2.01644243E-04-1.88289051E-02
 5  4-3.29263892E-03 5.24526829E-03-1.64384669E-02 4.40863667E-01-1.59404143E-01
 5  5 1.85297488E-02-8.41228307E-03 2.32089400E-01-6.53762469E-02-7.71711129E-05
 5  6 4.47681783E-03-3.68364261E-03-7.79126316E-04-2.25274847E-05 1.91156264E-04
 5  7 4.31765314E-02 2.03720088E-02-2.82361463E-03 2.03505143E-03 4.40372100E-04
 5  8 5.32197443E-02 2.60196602E-02 2.98588315E-03 2.10118885E-03 1.29988813E-04
 5  9 2.61507481E-01 9.65147807E-02 5.62604904E-04-1.15454880E-02 1.07751862E-02
 5 10-1.60301278E-01-5.27234211E-02-9.92665133E-06-4.03588249E-03-1.31509825E-02
 6  1-1.22716549E-02 1.28951534E-02-3.47213337E-02-3.28634221E-02 4.16489366E-01
 6  2 7.39832557E-02-1.14570019E-02-1.39969294E-02 1.15374708E-01 1.84845246E-02
 6  3 2.93316069E-03-1.80631935E-02 1.04983408E-04-9.98073881E-04 8.82064461E-03
 6  4-5.34402222E-03 5.54305940E-03-6.58206973E-03-1.86304554E-01-3.83508696E-01
 6  5 4.11213245E-02-3.15257059E-03-9.94155897E-02-1.56223619E-01-2.76756796E-04
 6  6 9.79660616E-03-7.91241593E-03-1.56578938E-04-6.21331157E-04 8.26688374E-04
 6  7 1.02346354E-01 5.30360166E-02-6.17826078E-03-1.30227139E-03 1.86333072E-03
 6  8 1.33133468E-01 6.81250203E-02 7.05113108E-03-1.31381685E-03 9.03693255E-04
 6  9 3.02804416E-02 2.07206498E-02-1.17677919E-04-5.97208573E-03-8.30208187E-03
 6 10 2.08216628E-01 8.57381043E-02-6.69810769E-04 1.21656052E-02 1.55654293E-03
 7  1-1.63371599E-03 2.38291497E-03 4.99335488E-01 1.53638054E-02 3.35979195E-02
 7  2 9.79806991E-03 1.84627240E-01 5.98963668E-03 1.04773463E-02 1.22551384E-03
 7  3 4.44123586E-04-1.32404339E-03 4.39996245E-03 1.08650378E-02 3.47217962E-04
 7  4-3.54798071E-04 4.07947083E-04 1.79871276E-01 1.82380604E-03-2.82846197E-02
 7  5 2.41512714E-03 8.72042528E-02 1.31619533E-03-1.21716927E-02-2.77444911E-04
 7  6 8.76895037E-04-4.08766126E-04 3.88286596E-04 1.41785239E-02 5.61876872E-04
 7  7 2.27576098E-01 1.18043236E-01-6.49388974E-03-1.61735538E-03-7.45617769E-03
 7  8-2.07315276E-01-1.06834980E-01-5.29542726E-03 1.45955809E-03 7.61784422E-03
 7  9 6.53811436E-03 3.03116026E-03 5.20456254E-03-3.71176000E-04-4.01400952E-04
 7 10 1.01994242E-02 5.07847128E-03 5.12383240E-03 7.73704311E-04-2.11525982E-04
 8  1 1.12152498E-03-2.40595446E-03-1.20769436E-01 3.49091349E-02-1.92047002E-03
 8  2-5.82841334E-03-2.47121604E-02 2.77180742E-02-2.68753751E-03 5.63702574E-04
 8  3-2.30275081E-04 5.50907268E-05-3.73934733E-03-4.86303690E-02-1.38365120E-03
 8  4-1.56547238E-03 3.87286858E-03 5.98084519E-01 9.39754651E-03 9.81131227E-04
 8  5 5.46159272E-03 4.83758553E-01 9.50194527E-03-8.54081925E-05-6.48163953E-04
 8  6 3.50959464E-04 2.42017006E-04-4.86872033E-05 4.82500287E-03 2.61831692E-03
 8  7-1.41987720E-01-1.69040420E-01 1.51056679E-03 1.31322391E-03-6.05980697E-05
 8  8 1.42753113E-01 1.68955814E-01 1.26530137E-03 4.54477937E-04-4.03479556E-05
 8  9-9.82385544E-03-9.50646722E-03 1.95430689E-02 7.59919558E-04-6.76776089E-05
 8 10 6.93250595E-03 6.95345347E-03 1.94138537E-02 4.01929150E-04-8.69279227E-05
 $END   

! TRAVIS-CI SMALL

