!  formaldehyde: Time-dependent DFT calculation on triplet excited states
!  B3LYP functional, recomputing AO integrals in direct mode.
!
!  ground state FINAL energy= -114.4767137391 after 20 iterations
!  the TD-DFT takes 9 iterations to converge:
!
!  STATE             ENERGY     EXCITATION      TRANSITION DIPOLE    OSCILLATOR
!                   HARTREE          EV         X       Y       Z     STRENGTH
!  0  A1        -114.4767537391    0.000
!  1  A2        -114.3595410757    3.190     0.0000  0.0000  0.0000    0.000
!  2  A1        -114.2760702705    5.461     0.0000  0.0000  0.0000    0.000
!  3  B1        -114.2459908265    6.279     0.0000  0.0000  0.0000    0.000
!
!  this run takes 47 seconds on a 2.66 GHz Cloverton ( 3 Apr 2015)
!       results havn't changed much since at least 2009
!
 $contrl scftyp=rhf dfttyp=b3lyp tddft=excite $end
 $system mwords=7 $end
 $dft    nrad=96 nleb=302 $end
 $tddft  nrad=24 nleb=194 nstate=3  mult=3  $end
 $scf    dirscf=.true. $end
 $guess  guess=Huckel $end
 $data
H2CO/TDDFT/B3LYP/augmented Sadlej basis set
CNV 2

H    1.0      .935567   0.0       -.582339
 S   4
  1          33.86501400         0.00606800
  2           5.09478800         0.04531600
  3           1.15878600         0.20284600
  4           0.32584000         0.50370900
 S   1
  1           0.10274100         1.00000000
 S   1
  1           0.03240000         1.00000000
 P   2
  1           1.15880000         0.18844000
  2           0.32580000         0.88242000
 P   2
  1           0.10270000         0.11780000
  2           0.03240000         0.00420000

C    6.0
 S   5
  1        5240.63530000         0.00093700
  2         782.20480000         0.00722800
  3         178.35083000         0.03634400
  4          50.81594200         0.13060000
  5          16.82356200         0.31893100
 S   2
  1           6.17577600         0.43874200
  2           2.41804900         0.21497400
 S   1
  1           0.51190000         1.00000000
 S   1
  1           0.15659000         1.00000000
 S   1
  1           0.04790000         1.00000000
 P   4
  1          18.84180000         0.01388700
  2           4.15924000         0.08627900
  3           1.20671000         0.28874400
  4           0.38554000         0.49941100
 P   1
  1           0.12194000         1.00000000
 P   1
  1           0.03856800         1.00000000
 D   2
  1           1.20670000         0.26285000
  2           0.38550000         0.80430000
 D   2
  1           0.12190000         0.65350000
  2           0.03860000         0.86360000
 S   1
  1           0.014700           1.0000000
 S   1
  1           0.004480           1.0000000
 P   1
  1           0.012000           1.0000000
 D   1
  1           0.012000           1.0000000

O    8.0     0.0    0.0      1.203000
 S   5
  1       10662.28500000         0.00079900
  2        1599.70970000         0.00615300
  3         364.72526000         0.03115700
  4         103.65179000         0.11559600
  5          33.90580500         0.30155200
 S   2
  1          12.28746900         0.44487000
  2           4.75680500         0.24317200
 S   1
  1           1.00427100         1.00000000
 S   1
  1           0.30068600         1.00000000
 S   1
  1           0.09003000         1.00000000
 P   4
  1          34.85646300         0.01564800
  2           7.84313100         0.09819700
  3           2.30624900         0.30776800
  4           0.72316400         0.49247000
 P   1
  1           0.21488200         1.00000000
 P   1
  1           0.06385000         1.00000000
 D   2
  1           2.30620000         0.20270000
  2           0.72320000         0.57910000
 D   2
  1           0.21490000         0.78545000
  2           0.06390000         0.53387000

 $end

! TRAVIS-CI SMALL

