!  2nd order perturbation test on CH2...3-B-1...69 AOs
!
!  This example reproduces the ZAPT energy of Table II in
!  T.J.Lee, A.P.Rendell, K.G.Dyall, D.Jayatilaka
!  J.Chem.Phys. 100, 7400-7409(1994)
!
!  GAMESS: FINAL E= -38.9332646536, ZAPT E(MP2)= -39.0563134733
!  Literature: ZAPT E(MP2)= -39.056313
!      E1 =         -.0564862712 closed shell-like term
!      E2 =         -.0062018793 singly unoccupied term
!      E3 =          .0000000000 two singly occupied
!      E4 =         -.0083701755 singly unoccupied/occupied
!      E5 =         -.0029404811 "fock matrix contribution"
!      E6 =         -.0427048949 singly unoccupied
!      E7 =         -.0063451177 two singly unoccupied
!
!  This run takes 0 seconds on 2.66 GHz Cloverton ( 8 Nov 2005)
!
 $contrl scftyp=rohf mplevl=2 runtyp=energy mult=3 nzvar=3 $end
 $system mwords=1 memddi=1  $end
 $mp2    code=ddi ospt=rmp $end
 $guess  guess=huckel $end
 $zmat   izmat(1)=1,1,2,  1,1,3,  2,2,1,3 $end
 $data
CH2...3-B-1 state...TZ2Pf basis used by Lee, et al.
Cnv  2

Carbon   6.0
  S 6
   1  9471.0    0.000776
   2  1398.0    0.006218
   3   307.5    0.033575
   4    84.54   0.134278
   5    26.91   0.393668
   6     9.409  0.544169
  S 2
   1     9.409  0.248075
   2     3.500  0.782844
  S 1 ; 1 1.068  1.0
  S 1 ; 1 0.4002 1.0
  S 1 ; 1 0.1351 1.0
  P 3
   1 25.37  0.038802
   2  5.776 0.243118
   3  1.787 0.810162
  P 1 ; 1 0.6577  1.0
  P 1 ; 1 0.2480  1.0
  P 1 ; 1 0.09106 1.0
  D 1 ; 1 1.097 1.0
  D 1 ; 1 0.318 1.0
  F 1 ; 1 0.761 1.0

Hydrogen   1.0  0.00   0.984059821  -0.427983503
  S 3   ! note that this is unscaled
   1 33.64  0.025374
   2  5.058 0.189684
   3  1.147 0.852933
  S 1 ; 1 0.3211 1.0
  S 1 ; 1 0.1013 1.0
  P 1 ; 1 1.407 1.0
  P 1 ; 1 0.388 1.0
  D 1 ; 1 1.057 1.0

 $end

! TRAVIS-CI SMALL

! TRAVIS-CI SKIP
