!    This test is from Tom Waters...CrO3(OH)...116 AOs...back in 2001
!
!    the serial code does not converge the response equation,
!    but the IMS and DDI solvers do it in 25 and 22 iterations.
!    There are a few occ.nos. bigger than two or less than zero, but
!    only by a little bit.
!    Note there is no trouble doing RHF frequencies with this file.
!
!    FINAL E= -385.7321729962, E(MP2)= -387.0356653507, RMS grad=0.059500687
!
!    This test takes 33 seconds on 2.66 GHz Cloverton (31 March 2015)
!
 $CONTRL SCFTYP=rhf MPLEVL=2 RUNTYP=gradient ICHARG=-1 ECP=READ $END
 $SYSTEM parall=.t. MWORDS=2 memddi=20 $END
 $GUESS  GUESS=moread norb=116 $end
 $SCF    DIIS=.t. SOSCF=.f. ETHRSH=10.0 $END
 $mp2    code=ddi $end
 $ECP 
CR-ECP GEN 10    2
 1      ----- d potential     -----
     -3.64362000  1       13.93307000
 3      ----- s-d potential   -----
      3.59679000  0        1.72136000
    184.07663000  2        4.75681000
   -161.41996000  2        4.25348000
 2      ----- p-d potential   -----
      3.68862000  0       32.28223000
     65.48046000  2        9.28137000
O-ECP NONE
O-ECP NONE
O-ECP NONE
O-ECP NONE
H-ECP NONE
 $END
 $DATA
Tom's molecule...CrO3(OH)
Cs

CR             24.0     0.000000    0.000000    0.000000
L   4
  1        23.12000000        -0.5918000000E-02    -0.1801800000E-01
  2        5.036000000        -0.5907500000        -0.1449960000    
  3        2.867000000         0.2961200000         0.4974160000    
  4        1.144000000          1.107646000         0.6728840000    
 L   2
  1        1.571000000        -0.9032900000E-01    -0.3728100000E-01
  2       0.9654000000E-01      1.025164000          1.004879000    
 L   1
  1       0.3492000000E-01      1.000000000          1.000000000    
 L   1
  1       0.4529000000          1.000000000          1.000000000    
 D   4
  1        37.89000000         0.2591000000E-01
  2        10.58000000         0.1441300000    
  3        3.603000000         0.4035970000    
  4        1.270000000         0.6208460000    
 D   1
  1       0.4118000000          1.000000000    
 D   1
  1       0.1126000000          1.000000000    

O                8.0     -0.737427   -0.491913    1.281036
 S   6
  1        5484.671700         0.1831100000E-02
  2        825.2349500         0.1395010000E-01
  3        188.0469600         0.6844510000E-01
  4        52.96450000         0.2327143000    
  5        16.89757000         0.4701930000    
  6        5.799635300         0.3585209000    
 L   3
  1        15.53961600        -0.1107775000         0.7087430000E-01
  2        3.599933600        -0.1480263000         0.3397528000    
  3        1.013761800          1.130767000         0.7271586000    
 L   1
  1       0.2700058000          1.000000000          1.000000000                                       
 L   1
  1       0.845000000E-01      1.00000000          1.00000000    
 D   1
  1       0.800000000          1.00000000   

O                  8.0     -0.035233    1.814850    0.000
 S   6
  1        5484.671700         0.1831100000E-02
  2        825.2349500         0.1395010000E-01
  3        188.0469600         0.6844510000E-01
  4        52.96450000         0.2327143000    
  5        16.89757000         0.4701930000    
  6        5.799635300         0.3585209000    
 L   3
  1        15.53961600        -0.1107775000         0.7087430000E-01
  2        3.599933600        -0.1480263000         0.3397528000    
  3        1.013761800          1.130767000         0.7271586000    
 L   1
  1       0.2700058000          1.000000000          1.000000000                                       
 L   1
  1       0.845000000E-01      1.00000000          1.00000000    
 D   1
  1       0.800000000          1.00000000    

O                   8.0      1.499374   -0.407120    0.000000      
 S   6
  1        5484.671700         0.1831100000E-02
  2        825.2349500         0.1395010000E-01
  3        188.0469600         0.6844510000E-01
  4        52.96450000         0.2327143000    
  5        16.89757000         0.4701930000    
  6        5.799635300         0.3585209000    
 L   3
  1        15.53961600        -0.1107775000         0.7087430000E-01
  2        3.599933600        -0.1480263000         0.3397528000    
  3        1.013761800          1.130767000         0.7271586000    
 L   1
  1       0.2700058000          1.000000000          1.000000000                                       
 L   1
  1       0.845000000E-01      1.00000000          1.00000000    
 D   1
  1       0.800000000          1.00000000    
 
H  			          1.0     -0.916702    2.151215    0.000000 
 S   3
  1        18.73113700         0.3349460000E-01
  2        2.825393700         0.2347269500    
  3       0.6401217000         0.8137573300    
 S   1
  1       0.1612778000          1.000000000                                        
 S   1
  1       0.360000000E-01      1.00000000  
 P   1
  1       1.10000000000         1.00000000
 
 $END

--- CLOSED SHELL ORBITALS --- GENERATED AT Thu Oct 25 16:44:26 2001
E(RHF)=     -385.7321730379, E(NUC)=  235.4551000536,   19 ITERS
 $VEC
 1  1-5.84732307E-05 9.12104504E-05-2.34059937E-05 0.00000000E+00 1.69677154E-03
 1  2 1.68163782E-03-5.28812222E-04 0.00000000E+00 4.14031190E-04 3.53650571E-04
 1  3-1.21454734E-04 0.00000000E+00 3.40399567E-06 1.83236518E-04-6.48477128E-05
 1  4 0.00000000E+00 1.67733285E-04-8.93349770E-05-1.01717163E-04-8.88619590E-05
 1  5 0.00000000E+00 0.00000000E+00-6.09191170E-05-1.87139499E-04-2.06763554E-04
 1  6-6.02548840E-05 0.00000000E+00 0.00000000E+00 8.94618080E-05-5.27281334E-04
 1  7-5.43878163E-04-2.17399890E-04 0.00000000E+00 0.00000000E+00 4.21144944E-04
 1  8 4.88147215E-05 1.97081472E-05 3.43174158E-06 1.99019388E-05-1.19816912E-04
 1  9-6.80386691E-05-3.83510774E-06-4.36628831E-05 5.84808749E-04 3.94982391E-05
 1 10 9.49128479E-05 1.98860792E-04-1.06695348E-05 3.60983413E-05 3.22291100E-05
 1 11 7.13341167E-06-1.60624564E-05 2.76454791E-07 4.21144944E-04 4.88147215E-05
 1 12 1.97081472E-05 3.43174158E-06-1.99019388E-05-1.19816912E-04-6.80386691E-05
 1 13-3.83510774E-06 4.36628831E-05 5.84808749E-04 3.94982391E-05 9.49128479E-05
 1 14-1.98860792E-04-1.06695348E-05 3.60983413E-05 3.22291100E-05 7.13341167E-06
 1 15 1.60624564E-05-2.76454791E-07-2.69689009E-05 1.82014127E-05 8.64609022E-06
 1 16-1.72341622E-05 0.00000000E+00-5.26824911E-05-5.46156376E-05 5.19589495E-05
 1 17 0.00000000E+00 5.13131534E-04-2.39593363E-05-2.73516957E-04 0.00000000E+00
 1 18 1.54568130E-05 8.66502645E-06 2.39209357E-05 1.72932387E-05 0.00000000E+00
 1 19 0.00000000E+00 9.94673068E-01 2.07289225E-02-8.68583128E-04 2.08661645E-04
 1 20 0.00000000E+00 4.51976187E-03 7.71028135E-04-1.80063010E-04 0.00000000E+00
 1 21-3.27701279E-03 4.95315348E-04-1.36673529E-04 0.00000000E+00-4.21930822E-03
 1 22-4.17220093E-03-4.08315538E-03-3.95337520E-05 0.00000000E+00 0.00000000E+00
 1 23-1.52961456E-05-5.98544412E-06 8.17939486E-05-1.75199384E-06 3.23937918E-06
 1 24 0.00000000E+00
 2  1-1.03995942E-04-5.86815086E-05-2.34128967E-05 0.00000000E+00 2.59560795E-03
 2  2-1.18784021E-03-6.61386880E-04 0.00000000E+00 1.10110448E-03-3.24057528E-04
 2  3 4.59733003E-05 0.00000000E+00 2.17794425E-05-1.35058643E-04-1.26296944E-04
 2  4 0.00000000E+00-4.23942328E-05-1.00072437E-04 1.42110992E-04 7.31197927E-05
 2  5 0.00000000E+00 0.00000000E+00-2.53464334E-04-2.77917584E-04-1.46212636E-04
 2  6 4.72694502E-05 0.00000000E+00 0.00000000E+00-5.41549111E-04-6.32100861E-04
 2  7-1.37919371E-04 2.03596227E-04 0.00000000E+00 0.00000000E+00 7.03340383E-01
 2  8 1.46752077E-02 3.03203529E-04 1.92165118E-04 5.43967897E-04 3.19007302E-03
 2  9-2.69274816E-04-1.55790175E-04-5.34833598E-04-2.03868367E-03-4.38790933E-05
 2 10-8.67109012E-05-2.04394210E-04-2.89977693E-03-2.93411774E-03-2.97970549E-03
 2 11 7.94582941E-06-3.91454132E-05 1.68093076E-05 7.03340383E-01 1.46752077E-02
 2 12 3.03203529E-04 1.92165118E-04-5.43967897E-04 3.19007302E-03-2.69274816E-04
 2 13-1.55790175E-04 5.34833598E-04-2.03868367E-03-4.38790933E-05-8.67109012E-05
 2 14 2.04394210E-04-2.89977693E-03-2.93411774E-03-2.97970549E-03 7.94582941E-06
 2 15 3.91454132E-05-1.68093076E-05-1.32415118E-04 3.36292092E-05-1.04423995E-05
 2 16-1.88404565E-05 0.00000000E+00-1.18113272E-04 4.28380271E-05 5.13619140E-05
 2 17 0.00000000E+00 4.41725022E-04-6.13850966E-05-1.41266972E-04 0.00000000E+00
 2 18 3.17414844E-05 3.00329813E-05 2.88981310E-05-1.26291005E-05 0.00000000E+00
 2 19 0.00000000E+00-5.77035367E-04 4.07914013E-05-3.73918208E-05 5.83040618E-07
 2 20 0.00000000E+00-1.52835119E-04 9.16014690E-05 7.79418418E-06 0.00000000E+00
 2 21 8.26552199E-04-2.94700234E-04 7.67787528E-05 0.00000000E+00 1.80507930E-05
 2 22 5.06754411E-05 2.04551892E-05-8.36808937E-06 0.00000000E+00 0.00000000E+00
 2 23 2.54235094E-05-6.84786069E-05-2.87774962E-04-1.16316371E-05-1.10658324E-05
 2 24 0.00000000E+00
 3  1 0.00000000E+00 0.00000000E+00 0.00000000E+00-1.04752865E-04 0.00000000E+00
 3  2 0.00000000E+00 0.00000000E+00-1.97424485E-03 0.00000000E+00 0.00000000E+00
 3  3 0.00000000E+00-3.90885129E-04 0.00000000E+00 0.00000000E+00 0.00000000E+00
 3  4-2.19943834E-04 0.00000000E+00 0.00000000E+00 0.00000000E+00 0.00000000E+00
 3  5 1.82438344E-04 1.24579501E-04 0.00000000E+00 0.00000000E+00 0.00000000E+00
 3  6 0.00000000E+00 9.76275943E-05 8.63881954E-05 0.00000000E+00 0.00000000E+00
 3  7 0.00000000E+00 0.00000000E+00 4.19475947E-04 2.93570410E-04 7.03334581E-01
 3  8 1.46301632E-02 2.91930593E-04 1.89061952E-04 5.04993134E-04 3.29089903E-03
 3  9-2.63188634E-04-1.61826634E-04-4.01246949E-04-2.65973253E-03-2.70386724E-04
 3 10-1.80514171E-04-3.88176870E-04-2.94031111E-03-2.97351272E-03-2.94876593E-03
 3 11 1.30405998E-05-5.66414556E-05 6.42788188E-06-7.03334581E-01-1.46301632E-02
 3 12-2.91930593E-04-1.89061952E-04 5.04993134E-04-3.29089903E-03 2.63188634E-04
 3 13 1.61826634E-04-4.01246949E-04 2.65973253E-03 2.70386724E-04 1.80514171E-04
 3 14-3.88176870E-04 2.94031111E-03 2.97351272E-03 2.94876593E-03-1.30405998E-05
 3 15-5.66414556E-05 6.42788188E-06 0.00000000E+00 0.00000000E+00 0.00000000E+00
 3 16 0.00000000E+00-8.21705111E-06 0.00000000E+00 0.00000000E+00 0.00000000E+00
 3 17 4.29896974E-05 0.00000000E+00 0.00000000E+00 0.00000000E+00 5.95066884E-05
 3 18 0.00000000E+00 0.00000000E+00 0.00000000E+00 0.00000000E+00-1.50622878E-05
 3 19-2.14963717E-05 0.00000000E+00 0.00000000E+00 0.00000000E+00 0.00000000E+00
 3 20-1.00637674E-05 0.00000000E+00 0.00000000E+00 0.00000000E+00 5.27610041E-05
 3 21 0.00000000E+00 0.00000000E+00 0.00000000E+00 8.36735202E-05 0.00000000E+00
 3 22 0.00000000E+00 0.00000000E+00 0.00000000E+00-4.06160062E-05-1.17495817E-05
 3 23 0.00000000E+00 0.00000000E+00 0.00000000E+00 0.00000000E+00 0.00000000E+00
 3 24-8.84438185E-06
 4  1-6.05196589E-05-3.59587759E-05-1.09972992E-04 0.00000000E+00-3.98702978E-06
 4  2-1.38960796E-03 4.95525507E-04 0.00000000E+00 2.99559709E-04 1.12006869E-04
 4  3 1.89085414E-04 0.00000000E+00 7.81112599E-05-4.05802794E-05 1.96001081E-04
 4  4 0.00000000E+00 7.32496423E-07 2.84894742E-05-4.40037431E-06 3.40576438E-06
 4  5 0.00000000E+00 0.00000000E+00-5.50490076E-05 3.24467182E-04 4.81051815E-06
 4  6-2.86716121E-05 0.00000000E+00 0.00000000E+00-2.03966962E-04 3.07792114E-04
 4  7 5.55978653E-04-1.65751132E-05 0.00000000E+00 0.00000000E+00 1.10598631E-04
 4  8 4.40266672E-05 6.71305675E-06 1.92595284E-05 1.57435687E-05-1.85045711E-04
 4  9-2.46774443E-06-6.73606360E-05-9.29998087E-06-7.67448127E-04-1.62696619E-04
 4 10-1.74985142E-04-1.59308833E-04 4.83750270E-05 6.33312863E-06 5.13084843E-05
 4 11 3.91568404E-07 7.84887578E-07-4.70062906E-06 1.10598631E-04 4.40266672E-05
 4 12 6.71305675E-06 1.92595284E-05-1.57435687E-05-1.85045711E-04-2.46774443E-06
 4 13-6.73606360E-05 9.29998087E-06-7.67448127E-04-1.62696619E-04-1.74985142E-04
 4 14 1.59308833E-04 4.83750270E-05 6.33312863E-06 5.13084843E-05 3.91568404E-07
 4 15-7.84887578E-07 4.70062906E-06 9.94612266E-01 2.09161839E-02-1.21416245E-03
 4 16-2.32585673E-04 0.00000000E+00 5.13435340E-03 5.10077305E-04 3.69512636E-04
 4 17 0.00000000E+00-1.64843846E-03-2.81606385E-04 2.39747993E-04 0.00000000E+00
 4 18-4.00446220E-03-4.28533686E-03-4.14541664E-03-8.97867554E-05 0.00000000E+00
 4 19 0.00000000E+00 1.88587612E-05-7.03256578E-05-8.80998199E-06 5.70568362E-06
 4 20 0.00000000E+00 4.89757778E-04-1.49840579E-04 9.58780826E-05 0.00000000E+00
 4 21 1.31876604E-03-4.92029789E-04 1.98521373E-04 0.00000000E+00-6.61039757E-06
 4 22-3.12637673E-05-3.08271264E-05-2.02606983E-05 0.00000000E+00 0.00000000E+00
 4 23 7.14167369E-05-3.31497781E-04 8.48672774E-05-3.74901555E-04 1.31503441E-04
 4 24 0.00000000E+00
 5  1 7.69169895E-01 2.71434508E-04-8.38370300E-03 0.00000000E+00-2.12371762E-01
 5  2-2.21651899E-03 3.93592606E-02 0.00000000E+00-3.70774537E-02 2.77757227E-03
 5  3-4.14900063E-03 0.00000000E+00 1.98894861E-01 6.26680433E-05 1.54200405E-03
 5  4 0.00000000E+00 8.58998550E-03 1.18359086E-02 8.74661028E-03 2.73862034E-05
 5  5 0.00000000E+00 0.00000000E+00-3.50936980E-03-1.88607178E-03-3.85300066E-03
 5  6-1.90369800E-04 0.00000000E+00 0.00000000E+00-4.28845549E-02-2.07363658E-02
 5  7-4.06266070E-02-1.83218723E-03 0.00000000E+00 0.00000000E+00-4.30276885E-03
 5  8 5.06604985E-03 3.50770840E-03 2.52642221E-03 6.09842697E-03 1.29714097E-02
 5  9 5.52461958E-03 2.51163223E-03 9.73540146E-03 1.05569980E-01 1.57507748E-02
 5 10 1.24025065E-02 2.87719340E-02-4.44135408E-04-1.51234597E-03 2.17617950E-03
 5 11 9.51289226E-04 2.59213645E-03 1.62905017E-03-4.30276885E-03 5.06604985E-03
 5 12 3.50770840E-03 2.52642221E-03-6.09842697E-03 1.29714097E-02 5.52461958E-03
 5 13 2.51163223E-03-9.73540146E-03 1.05569980E-01 1.57507748E-02 1.24025065E-02
 5 14-2.87719340E-02-4.44135408E-04-1.51234597E-03 2.17617950E-03 9.51289226E-04
 5 15-2.59213645E-03-1.62905017E-03-1.23459784E-03 2.10966279E-03 6.61445554E-05
 5 16-2.45443967E-03 0.00000000E+00-5.17823836E-04 5.46285923E-05-2.31759680E-03
 5 17 0.00000000E+00 2.26049593E-02 1.75762868E-03-9.34425601E-03 0.00000000E+00
 5 18-5.70235762E-04 1.26076603E-03-3.00729590E-04 8.98980380E-05 0.00000000E+00
 5 19 0.00000000E+00-4.46280981E-03 4.89004602E-03-7.35040266E-03 2.14282807E-03
 5 20 0.00000000E+00 1.48448661E-02-1.10089611E-02 2.11913747E-03 0.00000000E+00
 5 21 1.05644115E-01-3.47219490E-02 1.11667116E-02 0.00000000E+00 3.38138350E-03
 5 22-1.88397335E-03-1.96954830E-03-1.56666960E-03 0.00000000E+00 0.00000000E+00
 5 23 4.00448787E-04 3.34848658E-04 7.69625523E-03 1.71542772E-04-1.74387820E-04
 5 24 0.00000000E+00
 6  1-2.54617723E-04 8.35376531E-01 1.75467878E-02 0.00000000E+00 5.98366074E-04
 6  2-3.59561533E-02-7.88829849E-04 0.00000000E+00 1.38036454E-03-3.07582389E-03
 6  3 5.31247078E-04 0.00000000E+00 1.37862648E-04 1.86921667E-01 3.75409221E-03
 6  4 0.00000000E+00-6.06113639E-03 3.30652891E-04 5.69393198E-03 7.04220296E-04
 6  5 0.00000000E+00 0.00000000E+00 1.86431904E-03-6.98793094E-05-2.00978512E-03
 6  6-6.90218995E-04 0.00000000E+00 0.00000000E+00-8.20446878E-03 9.99859020E-04
 6  7 8.34583826E-03 6.35334218E-03 0.00000000E+00 0.00000000E+00 9.51015542E-03
 6  8-1.82484774E-02-2.64754911E-03-6.71177789E-03-1.75919445E-02-1.57155402E-02
 6  9-1.35989038E-03-3.23872008E-03-9.28142100E-03-2.06219406E-02-2.09956969E-03
 6 10-1.68742911E-03-4.60485106E-03 1.46399237E-03 4.99641623E-04-5.02848616E-03
 6 11-7.67020024E-04-2.28059845E-03-2.65912149E-03 9.51015542E-03-1.82484774E-02
 6 12-2.64754911E-03-6.71177789E-03 1.75919445E-02-1.57155402E-02-1.35989038E-03
 6 13-3.23872008E-03 9.28142100E-03-2.06219406E-02-2.09956969E-03-1.68742911E-03
 6 14 4.60485106E-03 1.46399237E-03 4.99641623E-04-5.02848616E-03-7.67020024E-04
 6 15 2.28059845E-03 2.65912149E-03 7.33354000E-05 1.12781923E-04 2.04043496E-03
 6 16 3.37774249E-04 0.00000000E+00-3.94935817E-04 1.87076730E-03 2.80474410E-04
 6 17 0.00000000E+00-1.62101417E-03 3.83656593E-04 7.76978024E-04 0.00000000E+00
 6 18 5.76113252E-05 1.51892300E-05 1.23681003E-04-8.83220316E-04 0.00000000E+00
 6 19 0.00000000E+00-1.93600017E-02 3.70090114E-02-3.43855501E-02 1.17990463E-02
 6 20 0.00000000E+00 3.26484922E-02-1.82140266E-02 5.68680785E-03 0.00000000E+00
 6 21 3.96700012E-02-9.88664830E-03 2.48989840E-03 0.00000000E+00 1.08735700E-02
 6 22-1.62156590E-03-3.24920070E-03-4.68153671E-03 0.00000000E+00 0.00000000E+00
 6 23-3.47927040E-04 3.23833774E-04-9.69143965E-04-1.73730837E-04 7.74457909E-05
 6 24 0.00000000E+00
 7  1 0.00000000E+00 0.00000000E+00 0.00000000E+00 8.36568031E-01 0.00000000E+00
 7  2 0.00000000E+00 0.00000000E+00-3.44086316E-02 0.00000000E+00 0.00000000E+00
 7  3 0.00000000E+00-2.52356890E-03 0.00000000E+00 0.00000000E+00 0.00000000E+00
 7  4 1.86751550E-01 0.00000000E+00 0.00000000E+00 0.00000000E+00 0.00000000E+00
 7  5 6.87449065E-03 9.15365662E-04 0.00000000E+00 0.00000000E+00 0.00000000E+00
 7  6 0.00000000E+00-2.34966195E-03-9.99694964E-04 0.00000000E+00 0.00000000E+00
 7  7 0.00000000E+00 0.00000000E+00 8.61944772E-03 6.62860692E-03 1.63435077E-02
 7  8-3.12784936E-02-1.73705267E-02-1.18559071E-02-2.27106652E-02-2.71706532E-02
 7  9-9.24544653E-03-5.87661341E-03-1.20114270E-02-3.35397255E-02-4.41494163E-03
 7 10-2.74065143E-03-7.12246081E-03-1.06167767E-03 8.65335381E-04-4.98008580E-03
 7 11-2.68608425E-03-6.32773211E-03-3.94491119E-03-1.63435077E-02 3.12784936E-02
 7 12 1.73705267E-02 1.18559071E-02-2.27106652E-02 2.71706532E-02 9.24544653E-03
 7 13 5.87661341E-03-1.20114270E-02 3.35397255E-02 4.41494163E-03 2.74065143E-03
 7 14-7.12246081E-03 1.06167767E-03-8.65335381E-04 4.98008580E-03 2.68608425E-03
 7 15-6.32773211E-03-3.94491119E-03 0.00000000E+00 0.00000000E+00 0.00000000E+00
 7 16 0.00000000E+00 2.60761207E-03 0.00000000E+00 0.00000000E+00 0.00000000E+00
 7 17 1.96569151E-03 0.00000000E+00 0.00000000E+00 0.00000000E+00 3.24787914E-04
 7 18 0.00000000E+00 0.00000000E+00 0.00000000E+00 0.00000000E+00-9.75045810E-05
 7 19-9.51669606E-04 0.00000000E+00 0.00000000E+00 0.00000000E+00 0.00000000E+00
 7 20 7.59190110E-03 0.00000000E+00 0.00000000E+00 0.00000000E+00 4.15395653E-03
 7 21 0.00000000E+00 0.00000000E+00 0.00000000E+00 4.77650805E-04 0.00000000E+00
 7 22 0.00000000E+00 0.00000000E+00 0.00000000E+00-2.55823783E-03 6.33807224E-04
 7 23 0.00000000E+00 0.00000000E+00 0.00000000E+00 0.00000000E+00 0.00000000E+00
 7 24 8.71065672E-05
 8  1 1.22915213E-02-1.79178189E-02 8.49753974E-01 0.00000000E+00-4.19582262E-05
 8  2-2.57879747E-03-1.43446497E-02 0.00000000E+00-1.98181340E-04-1.23316844E-04
 8  3-6.27404005E-04 0.00000000E+00 3.35170763E-03-4.10815277E-03 1.88040935E-01
 8  4 0.00000000E+00 5.62251689E-03-1.08310202E-02 5.65043492E-03 9.77249836E-04
 8  5 0.00000000E+00 0.00000000E+00-4.69434827E-04 1.22685387E-03-7.97972447E-04
 8  6-4.08191103E-04 0.00000000E+00 0.00000000E+00-5.35489502E-03-1.43416039E-02
 8  7-4.10696022E-03 3.26778747E-04 0.00000000E+00 0.00000000E+00 6.08400221E-03
 8  8-1.11223360E-02-6.82639762E-03 4.33923352E-03-1.15075816E-02-1.25506530E-02
 8  9-4.34885813E-03 1.91253069E-03-7.44837396E-03 1.13201857E-03 9.61796148E-04
 8 10 4.14066832E-04 1.67485747E-03-4.07550576E-04 2.01028916E-03-3.47704938E-03
 8 11 1.53302521E-04-3.12761877E-03 2.71284234E-04 6.08400221E-03-1.11223360E-02
 8 12-6.82639762E-03 4.33923352E-03 1.15075816E-02-1.25506530E-02-4.34885813E-03
 8 13 1.91253069E-03 7.44837396E-03 1.13201857E-03 9.61796148E-04 4.14066832E-04
 8 14-1.67485747E-03-4.07550576E-04 2.01028916E-03-3.47704938E-03 1.53302521E-04
 8 15 3.12761877E-03-2.71284234E-04-8.18411731E-03 1.59203999E-02-4.72272606E-04
 8 16-1.57285577E-02 0.00000000E+00 1.52352548E-02 8.65109856E-05-9.87361092E-03
 8 17 0.00000000E+00 2.11033132E-02-3.13834837E-04-6.68371273E-03 0.00000000E+00
 8 18-1.60376953E-03 4.42070802E-03-1.09517194E-03 5.87365166E-04 0.00000000E+00
 8 19 0.00000000E+00 5.67217932E-03-1.04998581E-02 1.25492611E-02 5.40498644E-03
 8 20 0.00000000E+00-1.11540533E-02 8.12248906E-03 2.93926037E-03 0.00000000E+00
 8 21 5.61982223E-03-3.32161150E-03 8.15217471E-04 0.00000000E+00-5.02049533E-03
 8 22 1.99842244E-03 1.05822318E-03-9.96072501E-04 0.00000000E+00 0.00000000E+00
 8 23 2.19011377E-03-9.90845431E-04-4.12004631E-04 5.68232197E-04-6.36181056E-04
 8 24 0.00000000E+00
 9  1-5.31427860E-02 4.25453874E-03-7.84619539E-02 0.00000000E+00 6.23845449E-02
 9  2-1.27991182E-02-5.06623599E-02 0.00000000E+00 3.83314842E-02-2.83566136E-03
 9  3 7.26354774E-03 0.00000000E+00 1.08275985E-02-1.86742170E-04 1.84507691E-03
 9  4 0.00000000E+00-1.77960448E-02 2.95543698E-02-1.92252997E-02-3.98385315E-03
 9  5 0.00000000E+00 0.00000000E+00 1.17143254E-02 4.91758401E-02 1.16406668E-02
 9  6-4.00807578E-03 0.00000000E+00 0.00000000E+00 8.04192203E-02 4.32006008E-02
 9  7 8.10181799E-02 1.85110230E-03 0.00000000E+00 0.00000000E+00-1.66005996E-02
 9  8 3.52695576E-02 2.66717087E-03 2.03468112E-03 5.14661346E-03 4.77614519E-02
 9  9 5.18896097E-03 5.70441028E-03 7.86812617E-03-1.14099078E-01-1.72465653E-02
 9 10-1.49387215E-02-3.16513023E-02-5.05751863E-05 5.54002129E-04 1.37517270E-03
 9 11 6.48540947E-04 1.46891245E-03 1.05853696E-03-1.66005996E-02 3.52695576E-02
 9 12 2.66717087E-03 2.03468112E-03-5.14661346E-03 4.77614519E-02 5.18896097E-03
 9 13 5.70441028E-03-7.86812617E-03-1.14099078E-01-1.72465653E-02-1.49387215E-02
 9 14 3.16513023E-02-5.05751863E-05 5.54002129E-04 1.37517270E-03 6.48540947E-04
 9 15-1.46891245E-03-1.05853696E-03-2.14015926E-01 4.65916476E-01-7.34944925E-02
 9 16-3.42637639E-03 0.00000000E+00 5.01663655E-01-2.81088935E-02-4.40721179E-02
 9 17 0.00000000E+00-3.74938344E-03-1.20614130E-02 2.27311183E-02 0.00000000E+00
 9 18 3.39712084E-03 1.24591984E-02-4.90006608E-03-1.27435641E-03 0.00000000E+00
 9 19 0.00000000E+00-1.72798414E-02 3.66660072E-02-6.19367766E-03 1.07791137E-03
 9 20 0.00000000E+00 4.92264247E-02-1.16869569E-02 6.54659271E-03 0.00000000E+00
 9 21-8.58313089E-02 2.83153409E-02-7.50270009E-03 0.00000000E+00 2.35744441E-03
 9 22 5.91166395E-04-9.45589712E-04-1.57715676E-03 0.00000000E+00 0.00000000E+00
 9 23 1.62221074E-01 5.91250480E-04-1.15702795E-02 2.42647338E-02-9.19942870E-03
 9 24 0.00000000E+00
10  1-1.27981178E-01-1.48671984E-02 1.04011272E-01 0.00000000E+00 2.11871626E-01
10  2-4.46705083E-03 1.61918622E-02 0.00000000E+00 9.06217509E-02-1.02669618E-02
10  3 1.99819673E-02 0.00000000E+00 2.32771048E-02-1.37740902E-03 9.52378036E-03
10  4 0.00000000E+00 3.74774037E-02-7.94403943E-02 2.41847155E-02 1.64068234E-03
10  5 0.00000000E+00 0.00000000E+00 7.01246412E-02 1.07085949E-02 6.31595824E-02
10  6 5.63042497E-04 0.00000000E+00 0.00000000E+00 1.63602828E-01 1.84351124E-01
10  7 1.65025215E-01 1.31330478E-03 0.00000000E+00 0.00000000E+00-1.23158031E-01
10  8 2.69114571E-01 1.55732956E-02 1.45862471E-02 2.88179399E-02 3.25007725E-01
10  9 2.26157166E-02 1.74567188E-02 4.07015994E-02-2.31491701E-01-3.97100937E-02
10 10-3.22067860E-02-7.24554688E-02 1.47622070E-03-8.76915877E-04 8.70262674E-03
10 11 2.92830003E-03 7.27854689E-03 5.35268515E-03-1.23158031E-01 2.69114571E-01
10 12 1.55732956E-02 1.45862471E-02-2.88179399E-02 3.25007725E-01 2.26157166E-02
10 13 1.74567188E-02-4.07015994E-02-2.31491701E-01-3.97100937E-02-3.22067860E-02
10 14 7.24554688E-02 1.47622070E-03-8.76915877E-04 8.70262674E-03 2.92830003E-03
10 15-7.27854689E-03-5.35268515E-03 2.90419418E-02-6.95721265E-02 1.15744201E-02
10 16-4.92495407E-03 0.00000000E+00-5.05350312E-02 6.27388254E-03-1.05221293E-02
10 17 0.00000000E+00-1.87683747E-01-1.56133242E-04 7.26935468E-02 0.00000000E+00
10 18-2.84564653E-03-3.76486419E-04-1.76602716E-03 4.03350322E-04 0.00000000E+00
10 19 0.00000000E+00-1.37662375E-01 3.02509877E-01-3.71958110E-02 1.39948628E-02
10 20 0.00000000E+00 3.58032975E-01-5.21058416E-02 1.59478009E-02 0.00000000E+00
10 21-2.22991222E-01 8.71498791E-02-2.96857530E-02 0.00000000E+00 1.46441524E-02
10 22-1.16647243E-03-2.02206525E-03-5.76611796E-03 0.00000000E+00 0.00000000E+00
10 23-2.55175776E-02 5.49706471E-03-2.60144660E-02-3.09260418E-03 1.60898607E-03
10 24 0.00000000E+00
11  1 6.38030833E-03-2.20133926E-01-1.30406353E-02 0.00000000E+00-1.03458326E-02
11  2-1.45476215E-01-3.89559457E-04 0.00000000E+00-1.06244938E-02-2.37438352E-03
11  3-4.31095856E-03 0.00000000E+00-2.27925678E-03-1.41035698E-02-7.56892786E-04
11  4 0.00000000E+00 9.75367815E-02-2.34077242E-04-9.64542381E-02-6.73623102E-02
11  5 0.00000000E+00 0.00000000E+00 5.12737755E-02-3.30750925E-03-5.63400016E-02
11  6-3.62684774E-02 0.00000000E+00 0.00000000E+00-5.57493970E-02-7.55226523E-03
11  7 3.27110329E-02 2.48055954E-02 0.00000000E+00 0.00000000E+00 9.86269707E-02
11  8-2.17242531E-01-1.59570512E-02-7.46762790E-03-1.66821872E-02-2.52803188E-01
11  9-1.32486011E-02-1.06821335E-02-2.34572727E-02-5.55791944E-02-6.84934331E-03
11 10-1.34006119E-03-8.35674984E-03-1.99396938E-04 4.65639591E-04-5.55333245E-03
11 11-2.31562575E-03-4.50971588E-03-2.93181685E-03 9.86269707E-02-2.17242531E-01
11 12-1.59570512E-02-7.46762790E-03 1.66821872E-02-2.52803188E-01-1.32486011E-02
11 13-1.06821335E-02 2.34572727E-02-5.55791944E-02-6.84934331E-03-1.34006119E-03
11 14 8.35674984E-03-1.99396938E-04 4.65639591E-04-5.55333245E-03-2.31562575E-03
11 15 4.50971588E-03 2.93181685E-03-8.87257851E-04 3.13064215E-03-1.55194099E-03
11 16 1.58783394E-04 0.00000000E+00-2.24002362E-03 6.96921387E-03-1.78373545E-04
11 17 0.00000000E+00-1.14672897E-02 1.21939314E-02-2.04724081E-03 0.00000000E+00
11 18 3.81154798E-04 4.30568973E-04 3.22573827E-05-9.07017903E-04 0.00000000E+00
11 19 0.00000000E+00-1.76748769E-01 3.90530842E-01-4.07494720E-02 1.02667189E-02
11 20 0.00000000E+00 4.49330815E-01-4.74948225E-02 1.50546344E-02 0.00000000E+00
11 21 1.61959401E-01-3.88099350E-02 9.89508101E-03 0.00000000E+00 1.41067126E-02
11 22-1.32059481E-03-3.15100231E-03-5.62692346E-03 0.00000000E+00 0.00000000E+00
11 23 2.35845222E-03 1.71893676E-02 8.00037179E-03 4.02183922E-04-6.99569921E-04
11 24 0.00000000E+00
12  1 0.00000000E+00 0.00000000E+00 0.00000000E+00 2.16909350E-01 0.00000000E+00
12  2 0.00000000E+00 0.00000000E+00 1.27557157E-01 0.00000000E+00 0.00000000E+00
12  3 0.00000000E+00 2.25461455E-03 0.00000000E+00 0.00000000E+00 0.00000000E+00
12  4 1.34742601E-02 0.00000000E+00 0.00000000E+00 0.00000000E+00 0.00000000E+00
12  5 1.08747677E-01 7.35643606E-02 0.00000000E+00 0.00000000E+00 0.00000000E+00
12  6 0.00000000E+00 6.06510757E-02 3.99188408E-02 0.00000000E+00 0.00000000E+00
12  7 0.00000000E+00 0.00000000E+00-4.20383615E-02-2.74433991E-02-1.58955247E-01
12  8 3.51823072E-01 1.52960860E-02 1.18441987E-02 3.32519715E-02 3.98841224E-01
12  9 2.07753283E-02 1.56693562E-02 3.62581814E-02 1.16990882E-01 1.24744354E-02
12 10 8.24963967E-03 2.30991701E-02 1.51168611E-03-3.77918556E-04 8.81086549E-03
12 11 2.52962284E-03 7.70698502E-03 5.36772357E-03 1.58955247E-01-3.51823072E-01
12 12-1.52960860E-02-1.18441987E-02 3.32519715E-02-3.98841224E-01-2.07753283E-02
12 13-1.56693562E-02 3.62581814E-02-1.16990882E-01-1.24744354E-02-8.24963967E-03
12 14 2.30991701E-02-1.51168611E-03 3.77918556E-04-8.81086549E-03-2.52962284E-03
12 15 7.70698502E-03 5.36772357E-03 0.00000000E+00 0.00000000E+00 0.00000000E+00
12 16 0.00000000E+00 1.30320198E-03 0.00000000E+00 0.00000000E+00 0.00000000E+00
12 17-2.83794552E-03 0.00000000E+00 0.00000000E+00 0.00000000E+00 5.98113040E-05
12 18 0.00000000E+00 0.00000000E+00 0.00000000E+00 0.00000000E+00 7.94701736E-04
12 19 1.15006267E-03 0.00000000E+00 0.00000000E+00 0.00000000E+00 0.00000000E+00
12 20 6.99619177E-03 0.00000000E+00 0.00000000E+00 0.00000000E+00-6.10993774E-04
12 21 0.00000000E+00 0.00000000E+00 0.00000000E+00 1.62444623E-03 0.00000000E+00
12 22 0.00000000E+00 0.00000000E+00 0.00000000E+00 4.53032148E-04 6.66710348E-04
12 23 0.00000000E+00 0.00000000E+00 0.00000000E+00 0.00000000E+00 0.00000000E+00
12 24-8.48596464E-05
13  1-3.84301724E-02-1.42006222E-02-8.44773624E-02 0.00000000E+00 6.91132172E-02
13  2 9.32037371E-03-2.49092265E-02 0.00000000E+00 4.22402946E-02 8.94043538E-04
13  3 8.00541919E-03 0.00000000E+00-5.71644120E-04-2.00555213E-03 1.28065676E-02
13  4 0.00000000E+00-1.01320287E-01 1.39834526E-01-4.33904763E-02 8.44064858E-02
13  5 0.00000000E+00 0.00000000E+00-4.33173666E-02 1.08058689E-01-1.18802018E-02
13  6 5.80019720E-02 0.00000000E+00 0.00000000E+00 3.32874918E-02 2.72406720E-02
13  7 5.35437975E-02 8.72385485E-03 0.00000000E+00 0.00000000E+00 1.75554156E-03
13  8-4.84910624E-03 1.47917602E-02-4.49059928E-02 1.11919394E-02-4.13478474E-03
13  9 9.82639411E-03-2.69998874E-02 8.96250535E-03-6.86910635E-02-1.39374180E-02
13 10-1.02011158E-02-1.48030155E-02 3.59388453E-04-1.27700241E-03 1.25600121E-03
13 11-6.37645714E-04 1.86714676E-03-2.65442616E-03 1.75554156E-03-4.84910624E-03
13 12 1.47917602E-02-4.49059928E-02-1.11919394E-02-4.13478474E-03 9.82639411E-03
13 13-2.69998874E-02-8.96250535E-03-6.86910635E-02-1.39374180E-02-1.02011158E-02
13 14 1.48030155E-02 3.59388453E-04-1.27700241E-03 1.25600121E-03-6.37645714E-04
13 15-1.86714676E-03 2.65442616E-03-4.63234601E-02 1.00227344E-01 4.12643066E-01
13 16-2.66291393E-01 0.00000000E+00 2.24911402E-01 2.49710808E-01-1.89285334E-01
13 17 0.00000000E+00 3.66455520E-02 5.40461363E-04 1.74688654E-02 0.00000000E+00
13 18-2.81352299E-02 2.20114335E-02 3.75817815E-03 2.40860062E-03 0.00000000E+00
13 19 0.00000000E+00-4.77558534E-03 8.98928263E-03 7.01446581E-02 1.88889660E-02
13 20 0.00000000E+00 3.39973455E-02 3.47166547E-02 1.91966561E-02 0.00000000E+00
13 21-5.61772523E-02 2.11348483E-02-5.05794131E-03 0.00000000E+00-6.91118698E-03
13 22 3.74837591E-03 2.95336960E-04 2.72710484E-04 0.00000000E+00 0.00000000E+00
13 23-2.56981924E-01-1.55761842E-01-3.63067887E-02-1.97871991E-02 5.08597747E-03
13 24 0.00000000E+00
14  1 0.00000000E+00 0.00000000E+00 0.00000000E+00 4.81221076E-02 0.00000000E+00
14  2 0.00000000E+00 0.00000000E+00 1.16480525E-01 0.00000000E+00 0.00000000E+00
14  3 0.00000000E+00 2.61636415E-02 0.00000000E+00 0.00000000E+00 0.00000000E+00
14  4-1.11581283E-02 0.00000000E+00 0.00000000E+00 0.00000000E+00 0.00000000E+00