!   This calculation taken from unpublished work, related to the paper
!   J.Kobayashi, K.Goto, T.Kawashima, M.W.Schmidt, S.Nagase
!   J.Am.Chem.Soc. 124, 3703-3712(2002)
!   The carbaphosphatrane basis set used is 6-311+G(3df) on P atoms,
!   and the smaller 6-311+G(d,p) on C, O, H atoms, totalling 374 AOs.
!   When spherical harmonics are used there are only 358 MOs in the run.
!
!     Spherical harmonics:
!   ispher=1: FINAL E= -838.1540021538,  7 iters, E(MP2)= -839.9478325859
!     Cartesian Gaussians:
!   ispher=0: F.NAL E= -838.1563126957, 10 iters, E(.P2)= -839.9719486410
!
!   This test takes 1212 seconds on 2.66 GHz Cloverton (31 Mar 2015)
!
!   This job took 6496 CPU s.conds on six 400 MHz Pentium2's (FE network),
!   wall time on fast ether is 8960 s.conds, 1st data server uses 377 s.conds.
!   This run took 615 CPU s.conds on four 2.6 GHz Opteron 852's, in an
!   SMP box, so the wall clock time is just 616 s.conds (no data servers).
!
 $contrl scftyp=rhf runtyp=energy mplevl=2 ispher=1 icut=10 $end
 $system parall=.true. mwords=10 memddi=80 $end
 $scf    dirscf=.true. fdiff=.false. $end
 $mp2    code=ddi $end
 $guess  guess=moread norb=47 $end
 $data
HP[-O-(CH2)2-]3C...RHF/6-31G(d) geometry
Cn 3

CARBON      6.0    .0000000000    .0000000000  -2.0004201671
   n311 6
   l 1 ; 1 0.0438 1.0 1.0
   d 1 ; 1 0.626 1.0

CARBON      6.0    .8915649636  -1.1779078284  -2.3954514846
   n311 6
   l 1 ; 1 0.0438 1.0 1.0
   d 1 ; 1 0.626 1.0

CARBON      6.0    .6946087358  -2.2300476896  -1.3043324088
   n311 6
   l 1 ; 1 0.0438 1.0 1.0
   d 1 ; 1 0.626 1.0

OXYGEN      8.0    .5145180540  -1.5531053542   -.0804540856
   n311 6
   l 1 ; 1 0.0845 1.0 1.0
   d 1 ; 1 1.292 1.0

PHOSPHORUS 15.0    .0000000000    .0000000000   -.0982895040
   mc
   l 1 ; 1 0.0348 1.0 1.0
   d 1 ; 1 2.2000 1.0
   d 1 ; 1 0.5500 1.0
   d 1 ; 1 0.1375 1.0
   f 1 ; 1 0.45 1.0

HYDROGEN    1.0    .6588430058  -1.5739282336  -3.3797141929
   n311 6
   s 1 ; 1 0.036 1.0
   p 1 ; 1 0.75 1.0

HYDROGEN    1.0   1.9342544539   -.8742110854  -2.4104847040
   n311 6
   s 1 ; 1 0.036 1.0
   p 1 ; 1 0.75 1.0

HYDROGEN    1.0   -.1777277657  -2.8460804380  -1.4927638630
   n311 6
   s 1 ; 1 0.036 1.0
   p 1 ; 1 0.75 1.0

HYDROGEN    1.0   1.5496894627  -2.8836521407  -1.1987053132
   n311 6
   s 1 ; 1 0.036 1.0
   p 1 ; 1 0.75 1.0

HYDROGEN    1.0    .0000000000    .0000000000   1.2832527712
   n311 6
   s 1 ; 1 0.036 1.0
   p 1 ; 1 0.75 1.0

 $end

--- CLOSED SHELL ORBITALS --- GENERATED AT Mon Apr 29 13:44:48 2002
HP[-O-(CH2)2-]3C...RHF/6-31G(d) geometry
E(RHF)=     -838.1540023915, E(NUC)=  865.2251155809,   29 ITERS
 $VEC
 1  1 1.40154056E-06-2.96513501E-06 0.00000000E+00 0.00000000E+00-1.06723485E-06
 1  2 4.07866761E-06 0.00000000E+00 0.00000000E+00 3.41367923E-05 2.20664683E-04
 1  3 0.00000000E+00 0.00000000E+00 5.49552186E-05 1.25314809E-03 0.00000000E+00
 1  4 0.00000000E+00-5.66626761E-04-2.15288014E-06-2.15288014E-06 4.30576027E-06
 1  5 0.00000000E+00 0.00000000E+00 0.00000000E+00-3.38692307E-07 8.98725928E-07
 1  6 2.62547622E-07-1.70712958E-06-1.03964499E-06-1.13954266E-05-2.78768905E-06
 1  7 1.18727591E-05-2.95749288E-06 1.90673391E-05-6.15148975E-05 9.04412180E-06
 1  8 3.36021507E-05-6.78266420E-04 9.94097794E-05 1.07292766E-04 1.05337693E-05
 1  9-1.81263125E-06-1.08279535E-10 1.81273953E-06-1.00904431E-06-2.16559412E-06
 1 10-1.67197048E-06-3.38692307E-07 8.98725928E-07 1.34714378E-06 1.08093770E-06
 1 11-1.03964499E-06-1.13954266E-05-8.88826651E-06-8.35058910E-06-2.95749288E-06
 1 12 1.90673391E-05 2.29250095E-05-5.77955249E-05 3.36021507E-05-6.78266420E-04
 1 13-1.42623151E-04 3.24450113E-05 1.05337693E-05-1.21002225E-06-6.02717281E-07
 1 14 1.81273953E-06 1.41078364E-06 2.53076597E-06-1.03947428E-06-3.38692307E-07
 1 15 8.98725928E-07-1.60969140E-06 6.26191881E-07-1.03964499E-06-1.13954266E-05
 1 16 1.16759556E-05-3.52217004E-06-2.95749288E-06 1.90673391E-05 3.85898880E-05
 1 17 4.87514031E-05 3.36021507E-05-6.78266420E-04 4.32133714E-05-1.39737777E-04
 1 18 1.05337693E-05 3.03544206E-07-2.11628374E-06 1.81273953E-06-4.01739334E-07
 1 19-3.65171854E-07 2.71144476E-06-3.15386920E-07 7.18484726E-07 1.73674552E-06
 1 20 2.52784394E-06 4.78417731E-08-1.17973615E-05-6.64211562E-07-7.67927640E-06
 1 21-1.01532691E-06 2.60916713E-05 2.03182571E-05-5.40275056E-05-1.34567430E-05
 1 22 1.04497624E-03-1.84903107E-04-2.66398429E-04 9.51832373E-05 2.09651840E-06
 1 23-1.27588358E-06-8.20634828E-07 5.19791335E-06-3.60316968E-06-3.32793027E-06
 1 24-3.15386920E-07 7.18484726E-07-3.05754983E-06 2.40143766E-07 4.78417731E-08
 1 25-1.17973615E-05 6.98255422E-06 3.26441411E-06-1.01532691E-06 2.60916713E-05
 1 26 3.66300638E-05 4.46098796E-05-1.34567430E-05 1.04497624E-03 3.23159361E-04
 1 27-2.69315738E-05 9.51832373E-05 3.46565193E-06-2.64501710E-06-8.20634828E-07
 1 28-4.28515766E-06 4.68365700E-06-1.45647134E-06-3.15386920E-07 7.18484726E-07
 1 29 1.32080431E-06-2.76798771E-06 4.78417731E-08-1.17973615E-05-6.31834266E-06
 1 30 4.41486228E-06-1.01532691E-06 2.60916713E-05-5.69483209E-05 9.41762603E-06
 1 31-1.34567430E-05 1.04497624E-03-1.38256253E-04 2.93330003E-04 9.51832373E-05
 1 32-4.33121809E-06 5.15185292E-06-8.20634828E-07-9.12755684E-07-1.08048732E-06
 1 33 4.78440161E-06 5.21771496E-07-3.17776532E-08-5.23736501E-06-6.18972442E-06
 1 34-1.10140788E-06 1.74886560E-05 1.39676558E-05 1.63846362E-05 4.30941745E-06
 1 35-6.71116869E-05 1.20504696E-05 1.85198468E-05-4.61695559E-06 4.39807025E-04
 1 36-1.73636101E-04-1.64303243E-04-4.84260842E-05-3.36477354E-06-6.74857417E-06
 1 37 1.01133477E-05-2.06164938E-05-1.26927305E-07-1.43117166E-06 5.21771496E-07
 1 38-3.17776532E-08 7.97914109E-06-1.44082894E-06-1.10140788E-06 1.74886560E-05
 1 39-2.11733391E-05 3.90402663E-06 4.30941745E-06-6.71116869E-05-2.20638926E-05
 1 40 1.17608938E-06-4.61695559E-06 4.39807025E-04 2.29108832E-04-6.82216529E-05
 1 41-4.84260842E-05-2.13649944E-05 1.12516467E-05 1.01133477E-05 8.61634659E-06
 1 42 1.30289466E-06 6.05663558E-07 5.21771496E-07-3.17776532E-08-2.74177608E-06
 1 43 7.63055336E-06-1.10140788E-06 1.74886560E-05 7.20568329E-06-2.02886628E-05
 1 44 4.30941745E-06-6.71116869E-05 1.00134230E-05-1.96959362E-05-4.61695559E-06
 1 45 4.39807025E-04-5.54727317E-05 2.32524896E-04-4.84260842E-05 9.55974635E-06
 1 46-1.96730941E-05 1.01133477E-05 1.20001472E-05-1.17596736E-06 8.25508099E-07
 1 47 4.16478184E-01 6.49091156E-01 1.11928965E-02-1.50477287E-03 8.98702564E-04
 1 48-1.15385572E-03 0.00000000E+00 0.00000000E+00-1.19320841E-05 0.00000000E+00
 1 49 0.00000000E+00-6.36326686E-06 0.00000000E+00 0.00000000E+00-2.92919346E-05
 1 50 0.00000000E+00 0.00000000E+00 1.43994573E-04 0.00000000E+00 0.00000000E+00
 1 51 1.70160253E-04-2.28261074E-03 0.00000000E+00 0.00000000E+00 1.18693756E-03
 1 52 1.97210666E-06 1.97210666E-06-3.94421331E-06 0.00000000E+00 0.00000000E+00
 1 53 0.00000000E+00-1.06188377E-05-1.06188377E-05 2.12376753E-05 0.00000000E+00
 1 54 0.00000000E+00 0.00000000E+00 1.84005212E-05 1.84005212E-05-3.68010424E-05
 1 55 0.00000000E+00 0.00000000E+00 0.00000000E+00-1.24194551E-05-9.88129075E-06
 1 56 5.28963327E-05 1.32571427E-05-3.54839387E-05 1.66624475E-05-3.54839387E-05
 1 57 0.00000000E+00 0.00000000E+00 0.00000000E+00-2.36152684E-06 1.57215192E-05
 1 58 2.37583686E-05-6.68635160E-06 2.31023969E-06-2.60392569E-06 1.37336528E-06
 1 59-2.36152684E-06 1.57215192E-05 2.37583686E-05-6.68635160E-06 1.09994595E-06
 1 60 3.30268910E-06 1.37336528E-06-2.36152684E-06 1.57215192E-05 2.37583686E-05
 1 61-6.68635160E-06-3.41018564E-06-6.98763412E-07 1.37336528E-06 7.34327882E-06
 1 62-4.80788327E-05 4.45548401E-05 1.04193874E-04-3.58204308E-06 7.18732378E-06
 1 63-5.07143679E-06 7.34327882E-06-4.80788327E-05 4.45548401E-05 1.04193874E-04
 1 64-4.43338344E-06-6.69580220E-06-5.07143679E-06 7.34327882E-06-4.80788327E-05
 1 65 4.45548401E-05 1.04193874E-04 8.01542652E-06-4.91521583E-07-5.07143679E-06
 1 66 4.10509210E-06-2.61567752E-05-6.21008758E-05-1.06100688E-05 6.03439314E-06
 1 67 2.36589630E-06-2.23951383E-06 4.10509210E-06-2.61567752E-05-6.21008758E-05
 1 68-1.06100688E-05-5.06612286E-06 4.04298960E-06-2.23951383E-06 4.10509210E-06
 1 69-2.61567752E-05-6.21008758E-05-1.06100688E-05-9.68270273E-07-6.40888590E-06
 1 70-2.23951383E-06-6.91231173E-07 1.73657354E-05-8.26003903E-06 4.62600386E-05
 1 71-9.94469308E-07-2.48239940E-06 1.98091493E-06-6.91231173E-07 1.73657354E-05
 1 72-8.26003903E-06 4.62600386E-05 2.64705560E-06 3.79964017E-07 1.98091493E-06
 1 73-6.91231173E-07 1.73657354E-05-8.26003903E-06 4.62600386E-05-1.65258629E-06
 1 74 2.10243539E-06 1.98091493E-06-5.25390672E-06-1.12704873E-04 6.42855871E-05
 1 75-5.16061175E-04 0.00000000E+00 0.00000000E+00 8.45771802E-05
 2  1 0.00000000E+00 0.00000000E+00-2.00061374E-06 3.06110864E-06 0.00000000E+00
 2  2 0.00000000E+00 2.04559720E-05-9.14026484E-06 0.00000000E+00 0.00000000E+00
 2  3-4.72305684E-04-1.49750407E-04 0.00000000E+00 0.00000000E+00-1.97883705E-03
 2  4-2.45832264E-03 0.00000000E+00-1.47973422E-07 1.47973422E-07 0.00000000E+00
 2  5-1.19231565E-05-8.48651812E-06-1.63149058E-05 1.34401543E-06-8.03550268E-07
 2  6-5.30644258E-06-1.34749627E-06-2.54918183E-06 1.64282141E-05 1.47375762E-05
 2  7-1.08260792E-06 7.97851223E-06 1.42355342E-04 1.25421311E-04-1.30142584E-04
 2  8-1.49048825E-04 4.79332019E-03 3.06800848E-04-8.77440090E-04 1.28891168E-04
 2  9 9.19677113E-06 7.25097291E-06-1.64477440E-05 3.59556430E-06 9.04588023E-06
 2 10 5.95879618E-06-6.17719766E-07 9.59663618E-07-4.45142845E-08 6.16739516E-07
 2 11 3.15962548E-06-4.18226679E-06-3.73472302E-06-1.78226054E-06-1.27335426E-05
 2 12-3.31928103E-04-1.28730508E-04 3.12262079E-05-3.19454414E-05-3.56680388E-03
 2 13-6.99328472E-04 6.97417212E-05-4.74554240E-04-1.40531907E-06-4.62312099E-06
 2 14 6.02844006E-06 2.92273099E-06 1.29619113E-06-9.10402757E-08-7.26295666E-07
 2 15-1.56113350E-07-9.74400342E-07-4.92234195E-06-6.10443650E-07-1.22459474E-05
 2 16 4.89550965E-06 1.45650462E-05 4.75503034E-06 1.89572761E-04 1.38094875E-04
 2 17 1.70643743E-04 1.80994266E-04-1.22651631E-03 6.24019698E-04 4.67484367E-04
 2 18 3.45663072E-04-3.41412697E-06-7.00517701E-06 1.04193040E-05 3.89514950E-06
 2 19-6.82763750E-08 9.64530558E-06-1.00898354E-06-2.77453216E-05-4.49491338E-06
 2 20-4.97304160E-07 1.90748863E-05 1.36300475E-04-8.30009689E-05-1.05858797E-04
 2 21 1.65898157E-04-5.00822166E-04 2.43195831E-05 1.41144048E-04-1.32832253E-04
 2 22-1.97199581E-03 1.65345177E-04 4.97690595E-04 1.60932322E-04-1.70512036E-05
 2 23-3.67353264E-05 5.37865300E-05 2.24930205E-05-5.39818955E-05-6.55003071E-05
 2 24 2.10832039E-07 1.07056206E-05 1.16547962E-06 1.47786936E-06-8.22077715E-06
 2 25-5.68101827E-05-5.58271069E-05 4.32200308E-06-5.31958906E-05 2.35019631E-04
 2 26 1.33385985E-04-3.34587840E-05 6.64212782E-05 8.47815385E-04 3.40241292E-04
 2 27 2.27310983E-05 6.61806361E-06 6.04785352E-06 1.30643933E-05-1.91122468E-05
 2 28 8.63952566E-06-2.91887646E-05 4.10564670E-06 7.98151501E-07 1.70397009E-05
 2 29 4.58335633E-08-4.41176153E-06-1.08541092E-05-7.94902928E-05 2.60053341E-05
 2 30-7.43016519E-05-1.12702266E-04 2.65802535E-04-7.23577041E-05-4.06116425E-05
 2 31 6.64109744E-05 1.12418042E-03-1.58533756E-04 1.08746368E-04-1.67550385E-04
 2 32 3.08941585E-05 3.78012465E-06-3.46742832E-05 2.21594181E-06 1.86951942E-05
 2 33-5.21688114E-05 4.44448744E-01 3.80120437E-01-2.27171910E-04-3.01206441E-04
 2 34-1.09181042E-03 4.68441418E-03 5.36307562E-05 8.08234181E-05 4.62294901E-04
 2 35-1.45041757E-03 1.54984967E-04 1.56547282E-04-1.93573600E-04 1.48799184E-03
 2 36 2.38796346E-05-7.27255686E-05-4.12963383E-04 1.34442206E-05 9.95184808E-06
 2 37-2.33960686E-05-5.54959973E-05 4.89930070E-05 4.54330006E-05-1.59767607E-01
 2 38-1.36643787E-01-1.34901499E-04 1.68169912E-05 3.93475667E-04-1.67909001E-03
 2 39 3.34069059E-05-1.61767826E-05-1.70749264E-04 5.12320836E-04 1.01238256E-04
 2 40 4.13793037E-05 1.03433983E-04-6.45799866E-04-2.75987359E-05 3.74725436E-05
 2 41 1.48630033E-04 1.11280935E-05-1.82655877E-05 7.13749414E-06-1.11035358E-05
 2 42 2.31532784E-05-7.48458432E-06-2.84681137E-01-2.43476650E-01 9.43796675E-05
 2 43-2.22103245E-04 6.98334754E-04-3.00532418E-03-4.04858070E-05 4.98376859E-05
 2 44-2.91545637E-04 9.38096734E-04 2.83732169E-05 1.45509310E-04 9.01396166E-05
 2 45-8.42191970E-04 9.35748139E-05 2.69550641E-05 2.64333350E-04-3.32021199E-05
 2 46 1.69435454E-05 1.62585745E-05-2.03491122E-05-9.75483014E-06 4.13520696E-05
 2 47 0.00000000E+00 0.00000000E+00 0.00000000E+00 0.00000000E+00 0.00000000E+00
 2 48 0.00000000E+00-1.93175836E-05-4.25301795E-05 0.00000000E+00-2.47713936E-07
 2 49-1.03552222E-05 0.00000000E+00-1.86968664E-05 1.18802459E-05 0.00000000E+00
 2 50 3.21841752E-04 3.80541407E-04 0.00000000E+00 2.32338510E-04 6.59383030E-04
 2 51 0.00000000E+00 0.00000000E+00 5.84760863E-05-1.94364039E-05 0.00000000E+00
 2 52-1.14280199E-06 1.14280199E-06 0.00000000E+00-9.25521621E-06 3.20876011E-06
 2 53 1.55634706E-06 8.49729968E-06-8.49729968E-06 0.00000000E+00 1.17008090E-04
 2 54-7.84324854E-06 1.86561169E-06-1.68384031E-05 1.68384031E-05 0.00000000E+00
 2 55 6.32850002E-04-4.55810259E-05-8.55012426E-05 1.98803791E-05 3.67606129E-05
 2 56 0.00000000E+00 1.64398459E-05-2.94151540E-06 8.89077580E-06 2.94151540E-06
 2 57-3.55631032E-05-6.57593835E-05-3.70863223E-05 5.87940643E-06-3.11256249E-05
 2 58-1.98080754E-04-4.82537445E-04-6.64341805E-06 2.45555507E-07-3.07957123E-06
 2 59-1.07827542E-06 1.31757371E-06 6.19694309E-05-1.03560061E-04 1.64396755E-06
 2 60 4.42267080E-07-1.54878322E-06-4.80113101E-06 2.98080512E-05 1.36111323E-04
 2 61 5.86097506E-04-2.32936803E-06-6.83317516E-06 4.62835445E-06-5.69185952E-06
 2 62 5.24824544E-05 1.56037164E-04 4.03694323E-04 6.49413342E-07-4.64150495E-06
 2 63 5.87802642E-06 8.68811473E-08 2.43659170E-05-6.11271513E-05-4.34593602E-05
 2 64-2.90582699E-06 4.89912635E-06-7.95140453E-07 5.60497837E-06-7.68483714E-05
 2 65-9.49100126E-05-3.60234963E-04 7.13422225E-06 3.20773914E-06-5.08288597E-06
 2 66 4.80876309E-06 1.98647041E-05 1.36641513E-04 3.54655636E-04-1.07723287E-05
 2 67 1.58937233E-05-8.59185965E-06-2.35385917E-06-2.25564334E-06 7.21592852E-05
 2 68-1.24640052E-04 2.87373976E-06 3.32809727E-06 2.47584953E-06-2.45490392E-06
 2 69-1.76090608E-05-2.08800798E-04-2.30015584E-04-1.48314458E-05-2.20693164E-06
 2 70 6.11601012E-06 4.74161950E-06 4.88256693E-05-4.38916452E-05-1.03332212E-04
 2 71 1.19701729E-06-3.33410228E-05-8.48442665E-06-3.53795741E-06-1.80959328E-05
 2 72 1.12101700E-04 1.20736608E-04-1.07356554E-05-3.40832063E-06 2.28539719E-06
 2 73-1.20366209E-06-3.07297365E-05-6.82100544E-05-1.74043956E-05 2.11531614E-05
 2 74-8.04067403E-06 6.19902945E-06 0.00000000E+00 0.00000000E+00 0.00000000E+00
 2 75 0.00000000E+00-1.05893363E-05-1.04140872E-05 0.00000000E+00
 3  1 0.00000000E+00 0.00000000E+00-3.06110864E-06-2.00061374E-06 0.00000000E+00
 3  2 0.00000000E+00 9.14026484E-06 2.04559720E-05 0.00000000E+00 0.00000000E+00
 3  3 1.49750407E-04-4.72305684E-04 0.00000000E+00 0.00000000E+00 2.45832264E-03
 3  4-1.97883705E-03 0.00000000E+00-1.03257564E-05 1.03257564E-05 0.00000000E+00
 3  5 1.70864989E-07 1.63149058E-05-8.48651812E-06-6.26863249E-08-6.44194133E-07
 3  6 2.42123620E-06 1.08953778E-06-2.17665043E-06-4.65556815E-06-8.88272640E-06
 3  7-4.13866765E-06 1.00970323E-05 3.01088664E-04-1.77960829E-04-3.55641919E-05
 3  8 1.22940797E-04 1.35116566E-03-6.50630755E-04-1.52472799E-04 4.73552686E-04
 3  9 1.63082189E-06-4.16588836E-06 2.53506646E-06-2.24625930E-06-4.38324481E-06
 3 10-2.19668357E-06 1.19529467E-06-3.73797879E-07 4.38547199E-06-4.17239052E-06
 3 11-1.11933101E-06 1.65550349E-05-9.58237902E-06 1.43336316E-05 1.86107814E-06
 3 12-2.72609898E-05-1.65920368E-05 2.18587627E-04-1.90550467E-04 3.47555422E-03
 3 13 2.96551056E-04 8.53656521E-04-1.25153317E-04 1.12368946E-05 4.27480284E-06
 3 14-1.55116974E-05-1.51186762E-06-1.04330813E-05 5.55300553E-06-1.13260834E-06
 3 15 1.01799201E-06-1.15360948E-06-3.24250446E-06 3.29598144E-06-1.18994667E-05
 3 16 6.76492770E-06 5.70339891E-06-1.19581104E-05-2.73827674E-04 1.22825499E-04
 3 17-4.82377559E-05 6.76096699E-05-4.82671988E-03 6.94293701E-04-4.69691649E-04
 3 18-3.48399369E-04-3.84940874E-06-9.12722221E-06 1.29766309E-05-1.29637272E-06
 3 19-6.96735408E-07 6.91747304E-06 3.39089050E-07 3.65698294E-06 1.79016006E-06
 3 20 2.30584658E-06-1.52035497E-06-1.30943677E-05 1.13668335E-05 7.78580776E-06
 3 21-3.43560219E-05 1.77725177E-05 9.64283003E-05 3.25789926E-05-5.94887019E-09
 3 22 1.59559428E-04 7.82452208E-05 6.60232983E-05-1.00556201E-04 4.26660428E-06
 3 23 4.71814162E-06-8.98474590E-06-3.94731789E-06 1.02086741E-05 1.09982516E-05
 3 24-1.04334990E-06-2.58566448E-05 3.76533358E-06-3.35454642E-06 1.72795136E-05
 3 25 1.24586858E-04 1.21547634E-04-1.93880542E-05 1.60850029E-04-4.42610977E-04
 3 26-7.81745315E-05-7.64874088E-05-1.15033131E-04-1.78757818E-03-3.96714276E-04
 3 27-1.08872817E-04 1.89649579E-04-1.37647273E-05-3.73081470E-05 5.10728743E-05
 3 28-1.93629526E-05 7.98146279E-05-1.37948793E-05 7.04260853E-07 2.21996618E-05
 3 29-2.12429731E-06-2.23490036E-06-1.57591587E-05-1.11492490E-04 4.29239788E-05
 3 30-1.01220495E-04-1.26494007E-04 4.24838460E-04-8.53273900E-05 1.29256280E-04
 3 31 1.15039080E-04 1.62801875E-03-3.10699006E-04 3.89902231E-04-8.90933783E-05
 3 32 3.83787608E-05 3.70936756E-06-4.20881284E-05 3.42343249E-07 2.35401698E-05
 3 33-6.16788381E-05-7.21188604E-02-6.16799820E-02 3.64553555E-05 4.87094157E-05
 3 34 1.76010476E-04-7.65701656E-04 4.50053722E-06-2.25961862E-05-6.97418185E-05
 3 35 2.45821829E-04-7.24099816E-05 3.47459931E-05-7.67550628E-06-1.13387034E-04
 3 36-6.71935946E-05 3.60241738E-05 6.68013414E-05-4.77190942E-06-4.94148775E-07
 3 37 5.26605820E-06 8.65954979E-06-7.43398997E-06-7.39870352E-06 4.20963334E-01
 3 38 3.60033946E-01 3.54478788E-04-4.35609952E-05-1.03354080E-03 4.43967251E-03
 3 39-9.24996635E-05-2.37233587E-06 4.35230037E-04-1.37900938E-03-1.87577960E-04
 3 40 8.84927038E-05-1.63801902E-04 1.34533225E-03 4.30045175E-05 8.75025443E-05
 3 41-3.91037452E-04-2.91365702E-05 5.20311891E-05-2.28946189E-05 2.36136774E-05
 3 42-6.03515749E-05 1.84410251E-05-3.48844473E-01-2.98353964E-01 1.15558552E-04
 3 43-2.72842161E-04 8.57530323E-04-3.67397086E-03-2.64851950E-05 7.15203770E-05
 3 44-3.65488219E-04 1.13318755E-03-8.34479538E-05 1.61357743E-04 1.71477408E-04
 3 45-1.23194521E-03 3.24870380E-05-3.36710055E-05 3.24236110E-04-4.13912560E-05
 3 46 2.37626953E-05 1.76285607E-05-2.23083857E-05-1.15149210E-05 5.13491336E-05
 3 47 0.00000000E+00 0.00000000E+00 0.00000000E+00 0.00000000E+00 0.00000000E+00
 3 48 0.00000000E+00 4.25301795E-05-1.93175836E-05 0.00000000E+00 1.03552222E-05
 3 49-2.47713937E-07 0.00000000E+00-1.18802459E-05-1.86968664E-05 0.00000000E+00
 3 50-3.80541407E-04 3.21841752E-04 0.00000000E+00-6.59383030E-04 2.32338510E-04
 3 51 0.00000000E+00 0.00000000E+00 1.94364039E-05 5.84760863E-05 0.00000000E+00
 3 52-8.01525236E-06 8.01525236E-06 0.00000000E+00 1.31959407E-06-1.55634706E-06
 3 53 3.20876012E-06 1.01331978E-04-1.01331978E-04 0.00000000E+00-9.81183652E-06
 3 54-1.86561169E-06-7.84324854E-06 5.48064178E-04-5.48064178E-04 0.00000000E+00
 3 55 1.94433131E-05 8.55012426E-05-4.55810259E-05-3.67606129E-05 1.98803791E-05
 3 56 0.00000000E+00 8.89077580E-06-3.21176973E-05-1.64398459E-05 3.21176973E-05
 3 57 6.57593835E-05-3.55631032E-05 3.39656941E-06-2.14939168E-06 1.64489849E-05
 3 58 4.28058415E-05 3.98173981E-04 4.34245723E-06 1.75753903E-06 3.56637210E-06
 3 59 6.16641116E-06-3.51800743E-05-1.92945886E-04-6.16976676E-04 4.53916880E-06
 3 60-6.52984657E-06-4.45017297E-06-4.01701949E-06 1.87310895E-05 1.50140044E-04
 3 61 2.18802695E-04-2.73627345E-06-2.55651099E-06 8.83800871E-07 3.18587492E-06
 3 62-5.84360966E-05-1.95045440E-05-1.82890480E-04-6.95174531E-06 2.60245906E-06
 3 63-2.47553103E-06-6.52223240E-06 7.46691871E-05 1.44884420E-04 4.41054779E-04
 3 64 2.58888599E-06 6.15769939E-06 6.32828571E-06 3.33635748E-06-1.62330905E-05
 3 65-1.25379876E-04-2.58164299E-04 8.97498785E-07-3.88234985E-06-3.85275469E-06
 3 66-5.83382115E-08-8.86429968E-06-1.62212380E-04-6.08385915E-05 4.55046402E-06
 3 67-4.38102782E-06 2.10164770E-06 4.19368010E-06 2.16354882E-05 1.99441211E-04
 3 68 3.37560086E-04-8.01516202E-06-1.80270963E-05-8.49159257E-06-4.13534189E-06
 3 69-1.27711886E-05-3.72288316E-05-2.76721495E-04-1.35501909E-05-3.21910680E-07
 3 70 6.38994487E-06 1.34770603E-06-7.29413001E-06-1.04103040E-04-7.97557454E-05
 3 71-3.48101116E-06 6.54599825E-06 2.25953664E-06 3.43250993E-06 4.59313350E-05
 3 72 1.40402401E-05-4.96104480E-05 2.64516910E-05 1.84786709E-05-8.47749733E-06
 3 73-4.78021596E-06-3.86372050E-05 9.00627996E-05 1.29366193E-04 2.18193376E-05
 3 74-1.34101459E-05 6.21796069E-06 0.00000000E+00 0.00000000E+00 0.00000000E+00
 3 75 0.00000000E+00 1.04140872E-05-1.05893363E-05 0.00000000E+00
 4  1 2.59590661E-06-3.13070126E-06 0.00000000E+00 0.00000000E+00-1.01327197E-05
 4  2 8.88776581E-05 0.00000000E+00 0.00000000E+00 1.34740896E-05-2.89742128E-04
 4  3 0.00000000E+00 0.00000000E+00-2.46563320E-04-1.18575409E-02 0.00000000E+00
 4  4 0.00000000E+00-3.31382471E-03 2.49334475E-06 2.49334475E-06-4.98668951E-06
 4  5 0.00000000E+00 0.00000000E+00 0.00000000E+00 3.33003596E-07 1.50329491E-06
 4  6 4.84796999E-07 1.68421446E-08-4.10520600E-07-2.11930113E-05-8.32187196E-06
 4  7-4.61121444E-06-5.84498334E-06 2.01294759E-04-4.24682196E-05-1.61855154E-04
 4  8-9.26268912E-06 4.04321566E-03 2.72264155E-04-1.23476486E-04 1.38393446E-03
 4  9 5.75264051E-06 6.17064840E-06-1.19232889E-05 9.38003548E-06-1.17660142E-06
 4 10-2.48723693E-06 3.33003596E-07 1.50329491E-06-2.56984224E-07 4.11425444E-07
 4 11-4.10520600E-07-2.11930113E-05 8.15436483E-06-4.90134530E-06-5.84498334E-06
 4 12 2.01294759E-04 1.61404785E-04 4.41490199E-05-9.26268912E-06 4.04321566E-03
 4 13-2.91983033E-05 2.97525918E-04 1.38393446E-03 1.31011730E-05-1.17788413E-06
 4 14-1.19232889E-05-4.48101380E-06 2.74231107E-06 2.24651747E-07 3.33003596E-07
 4 15 1.50329491E-06-2.27812774E-07-4.28267589E-07-4.10520600E-07-2.11930113E-05
 4 16 1.67507131E-07 9.51255974E-06-5.84498334E-06 2.01294759E-04-1.18936565E-04
 4 17 1.17706134E-04-9.26268912E-06 4.04321566E-03-2.43065851E-04-1.74049431E-04
 4 18 1.38393446E-03-9.68880185E-07 1.28921691E-05-1.19232889E-05-4.89902168E-06
 4 19-1.56570966E-06 2.26258518E-06-1.81930900E-06-1.52704490E-05-1.31218011E-06
 4 20-1.71373461E-06 9.87035547E-06 2.49683010E-05-5.90824666E-05-6.26090885E-05
 4 21 1.38012363E-04 1.58552335E-04-1.01536605E-04-1.40584749E-04-6.75017101E-05
 4 22-3.01066980E-03 5.60485078E-04 1.29755588E-04 2.13836465E-04-1.13791218E-05
 4 23-2.83534468E-05 3.97325686E-05 2.34092062E-05-4.35922170E-05-5.22854156E-05
 4 24-1.81930900E-06-1.52704490E-05 2.14022776E-06-2.79514004E-07 9.87035547E-06
 4 25 2.49683010E-05 8.37622945E-05-1.98623727E-05 1.38012363E-04 1.58552335E-04
 4 26 1.72518266E-04-1.76409052E-05-6.75017101E-05-3.01066980E-03-3.92614175E-04
 4 27 4.20516522E-04 2.13836465E-04-6.55296093E-06-3.31796077E-05 3.97325686E-05
 4 28-2.01917656E-05 6.70766066E-05-1.16092595E-05-1.81930900E-06-1.52704490E-05
 4 29-8.28047654E-07 1.99324862E-06 9.87035547E-06 2.49683010E-05-2.46798278E-05
 4 30 8.24714613E-05 1.38012363E-04 1.58552335E-04-7.09816611E-05 1.58225654E-04
 4 31-6.75017101E-05-3.01066980E-03-1.67870904E-04-5.50272110E-04 2.13836465E-04
 4 32-4.16667702E-05 1.93420155E-06 3.97325686E-05-3.21744059E-06-2.34843896E-05
 4 33 6.38946751E-05 3.18383609E-01 2.72301184E-01-1.58533786E-04-2.10259074E-04
 4 34-7.80317803E-04 3.35503253E-03 2.93485432E-05 4.58735936E-05 3.23681215E-04
 4 35-8.79571047E-04 3.93959191E-05 4.79066998E-05-5.48470467E-05 1.57110529E-03
 4 36-1.22000031E-04-1.13122044E-04-1.05223185E-04 1.19867077E-05 9.25545985E-06
 4 37-2.12421676E-05-3.44507892E-05 3.75715515E-05 3.28521024E-05 3.18383609E-01
 4 38 2.72301184E-01 2.61356593E-04-3.21647487E-05-7.80317803E-04 3.35503253E-03
 4 39-5.44019691E-05 2.47978718E-06 3.23681215E-04-8.79571047E-04-6.11863786E-05
 4 40 1.01645168E-05-5.48470467E-05 1.57110529E-03 1.58966580E-04-4.90941042E-05
 4 41-1.05223185E-04-1.58998201E-05 3.71419877E-05-2.12421676E-05 1.58597707E-05
 4 42-4.72365310E-05 1.61118669E-05 3.18383609E-01 2.72301184E-01-1.02822807E-04
 4 43 2.42423823E-04-7.80317803E-04 3.35503253E-03 2.50534258E-05-4.83533808E-05
 4 44 3.23681215E-04-8.79571047E-04 2.17904595E-05-5.80712166E-05-5.48470467E-05
 4 45 1.57110529E-03-3.69665484E-05 1.62216148E-04-1.05223185E-04 3.57763637E-05
 4 46-1.45341961E-05-2.12421676E-05 1.85910186E-05 9.66497945E-06-4.89639693E-05
 4 47 4.09577206E-06 8.72830782E-06-5.37213306E-07-1.09872035E-04-1.17705890E-05
 4 48 9.39654368E-04 0.00000000E+00 0.00000000E+00-4.14382433E-06 0.00000000E+00
 4 49 0.00000000E+00-3.55903533E-06 0.00000000E+00 0.00000000E+00 3.33891142E-05
 4 50 0.00000000E+00 0.00000000E+00-1.28833694E-04 0.00000000E+00 0.00000000E+00
 4 51-7.22205929E-04 2.90456535E-03 0.00000000E+00 0.00000000E+00-1.55703449E-03
 4 52-1.44468309E-06-1.44468309E-06 2.88936618E-06 0.00000000E+00 0.00000000E+00
 4 53 0.00000000E+00 5.25506607E-05 5.25506607E-05-1.05101321E-04 0.00000000E+00
 4 54 0.00000000E+00 0.00000000E+00 2.97104113E-05 2.97104113E-05-5.94208226E-05
 4 55 0.00000000E+00 0.00000000E+00 0.00000000E+00-2.55310615E-05-2.14211904E-05
 4 56 5.23337987E-05 2.87395427E-05-3.51065794E-05 3.42535134E-05-3.51065794E-05
 4 57 0.00000000E+00 0.00000000E+00 0.00000000E+00 4.57782994E-06-1.74304966E-05
 4 58 9.37268425E-05 2.86497621E-04-1.60419351E-06 2.03449982E-06-1.39859377E-06
 4 59 4.57782994E-06-1.74304966E-05 9.37268425E-05 2.86497621E-04-9.59831775E-07
 4 60-2.40652225E-06-1.39859377E-06 4.57782994E-06-1.74304966E-05 9.37268425E-05
 4 61 2.86497621E-04 2.56402529E-06 3.72022423E-07-1.39859377E-06-8.27087214E-06
 4 62 5.36954039E-05 1.52561450E-04-1.64921301E-04-4.35895153E-06-5.44613965E-06
 4 63 6.90770672E-06-8.27087214E-06 5.36954039E-05 1.52561450E-04-1.64921301E-04
 4 64 6.89597106E-06-1.05189293E-06 6.90770672E-06-8.27087214E-06 5.36954039E-05
 4 65 1.52561450E-04-1.64921301E-04-2.53701953E-06 6.49803259E-06 6.90770672E-06
 4 66 7.33484163E-06-4.42600613E-05 1.76135122E-04-1.25370248E-04-3.68288349E-06
 4 67 8.50192714E-06-4.86103852E-06 7.33484163E-06-4.42600613E-05 1.76135122E-04
 4 68-1.25370248E-04-5.52144313E-06-7.44043423E-06-4.86103852E-06 7.33484163E-06
 4 69-4.42600613E-05 1.76135122E-04-1.25370248E-04 9.20432663E-06-1.06149290E-06
 4 70-4.86103852E-06 3.60241199E-06 2.40323480E-05 1.21295541E-04 1.35511790E-04
 4 71 4.21749531E-06-1.92427114E-05-6.25277128E-06 3.60241199E-06 2.40323480E-05
 4 72 1.21295541E-04 1.35511790E-04 1.45559293E-05 1.32738138E-05-6.25277128E-06
 4 73 3.60241199E-06 2.40323480E-05 1.21295541E-04 1.35511790E-04-1.87734246E-05
 4 74 5.96889762E-06-6.25277128E-06-2.04501440E-05-6.44207155E-05 2.88021989E-04
 4 75 7.68815742E-04 0.00000000E+00 0.00000000E+00 9.20309242E-06
 5  1-4.25398228E-05-2.73084938E-05 0.00000000E+00 0.00000000E+00 5.36786129E-06
 5  2-1.16947340E-04 0.00000000E+00 0.00000000E+00-6.31189140E-05-7.99507879E-04
 5  3 0.00000000E+00 0.00000000E+00 3.01418032E-05 3.74597070E-03 0.00000000E+00
 5  4 0.00000000E+00 6.31084754E-05-3.51397342E-06-3.51397342E-06 7.02794684E-06
 5  5 0.00000000E+00 0.00000000E+00 0.00000000E+00 2.02155184E-03 1.64301531E-03
 5  6 4.30324920E-05 1.84305991E-05 4.77632507E-05 1.47818838E-04 1.51382074E-04
 5  7 3.16651815E-05 1.40300415E-04 6.16213827E-04 3.94815973E-04 8.80192783E-05
 5  8 2.09707771E-04 2.81782867E-03 6.92336209E-04 6.34763498E-05 8.59150850E-04
 5  9-3.66371357E-07-3.58196980E-05 3.61860694E-05 1.74064101E-05 7.40173834E-05
 5 10 3.04820667E-05 2.02155184E-03 1.64301531E-03-3.74776131E-05 2.80519317E-05
 5 11 4.77632507E-05 1.47818838E-04-1.03113889E-04 1.15268131E-04 1.40300415E-04
 5 12 6.16213827E-04-2.73634918E-04 2.97911023E-04 2.09707771E-04 2.81782867E-03
 5 13-4.01140236E-04 5.67842570E-04 8.59150850E-04-1.39015588E-05-2.22845106E-05
 5 14 3.61860694E-05-2.64298684E-05-6.34069358E-05 4.88599010E-05 2.02155184E-03
 5 15 1.64301531E-03-5.55487897E-06-4.64825309E-05 4.77632507E-05 1.47818838E-04
 5 16-4.82681853E-05-1.46933312E-04 1.40300415E-04 6.16213827E-04-1.21181055E-04
 5 17-3.85930302E-04 2.09707771E-04 2.81782867E-03-2.91195973E-04-6.31318920E-04
 5 18 8.59150850E-04-4.00111740E-05 3.82510457E-06 3.61860694E-05 9.02345828E-06
 5 19-1.06104476E-05-7.93419677E-05 3.25306132E-01 2.69351855E-01-2.38688981E-04
 5 20-2.54327591E-04 5.38046210E-04 2.60162897E-03 1.81495882E-04 1.87465496E-04
 5 21-4.00238711E-04-2.70882355E-03 4.30940619E-04 4.86327052E-04 1.08402869E-04
 5 22-3.37711695E-03 2.85073012E-04 3.65255203E-04 4.64162444E-04 4.70323849E-05
 5 23 1.04449666E-04-1.51482051E-04-5.01281739E-05 7.02603365E-05 1.02664831E-04
 5 24 3.25306132E-01 2.69351855E-01 3.39598646E-04-7.95469258E-05 5.38046210E-04
 5 25 2.60162897E-03-2.53097823E-04 6.34472968E-05-4.00238711E-04-2.70882355E-03
 5 26-6.36641891E-04 1.30041997E-04 1.08402869E-04-3.37711695E-03-4.58856790E-04
 5 27 6.42528692E-05 4.64162444E-04 5.24992153E-05 9.89828355E-05-1.51482051E-04
 5 28 5.37727274E-05-1.24040520E-04 9.51482060E-06 3.25306132E-01 2.69351855E-01
 5 29-1.00909664E-04 3.33874517E-04 5.38046210E-04 2.60162897E-03 7.16019405E-05
 5 30-2.50912793E-04-4.00238711E-04-2.70882355E-03 2.05701273E-04-6.16369049E-04
 5 31 1.08402869E-04-3.37711695E-03 1.73783778E-04-4.29508072E-04 4.64162444E-04
 5 32 1.27691476E-04 2.37905748E-05-1.51482051E-04-3.64455360E-06 5.37801838E-05
 5 33-1.12179652E-04-4.07257940E-05-6.85318462E-05 1.92402019E-05 1.73380324E-05
 5 34-5.26099471E-05 8.87103495E-05 1.12823890E-04 1.20080424E-04-2.70005243E-04
 5 35 8.12086952E-04-7.86008146E-07-4.51223260E-05-3.36272954E-04 1.54484570E-03
 5 36-9.08386922E-05-1.28172106E-04-4.14024870E-04-4.54881954E-05-4.66247396E-05
 5 37 9.21129351E-05 3.05474969E-05-7.14896676E-05-6.67259125E-05-4.07257940E-05
 5 38-6.85318462E-05-2.46352775E-05 7.99348740E-06-5.26099471E-05 8.87103495E-05