!   The benzoquinone in this input file is the precursor used in
!   a stereospecific Diehls-Alder addition to form hongconin, a
!   cardioprotective natural product.
!   This molecule is taken from the work of G.A.Kraus, J.Li,
!   M.S.Gordon, J.H.Jensen, J.Org.Chem., 59, 2219(1994).
!
!   There are 245 AOs, 54 occupied MOs, 39 valence MOs.
!
!   This input file was used as the timing test for the distributed
!   memory MP2 program, in tables 2 and 3 of G.D.Fletcher, M.W.Schmidt,
!   M.S.Gordon, Adv.Chem.Phys. 110, 267-294 (1999)
!
!   FINAL E= -721.7909348546 after 3 iters, due to reading in MOs.
!      CODE=serial, E(.P2) = -723.8714119086, RMS gradient= 0.020700837
!   Using CODE=DDI, E(MP2) = -723.8714119085, RMS gradient= 0.020700864
!   Using CODE=IMS, E(.P2) = -723.8714119086, RMS gradient= 0.020700864
!   The SCS-MP2 energy is    -723.8037013607.
!   106.6864 e- in principal NOs      MP2 dipole is 2.608183 Debye
!
!   This run takes 717 seconds on 2.66 GHz Cloverton ( 1 Apr 2015)
!
!   comparison to other codes last made 2010, on 2.66 GHz Cloverton:
!      1241, 861, 1141 s.conds for serial, DDI, IMS codes
!
 $contrl scftyp=rhf runtyp=gradient mplevl=2 $end
 $basis  gbasis=n31 ngauss=6 ndfunc=1 $end
 $guess  guess=moread norb=54 $end
 $scf    dirscf=.true. $end
 $mp2    code=ddi $end

!     the original serial code.  This memory causes two integral passes
--- $system mwords=200 memddi=0 $end
--- $mp2    code=serial $end

!     Graham's programme.        This memory is sufficient to run p=1
 $system parall=.true. mwords=5 memddi=156 $end
 $mp2    code=ddi $end

!     Kazuya's program.          This memory is sufficient
--- $system mwords=30 memddi=0 $end
--- $mp2    code=ims $end

 $data
Quinone precursor of hongconin...RHF/6-31G(d) structure
c1
C  6.0   -1.274033    0.670380   -0.009460
C  6.0   -1.274048   -0.650040   -0.010422
C  6.0   -0.008743   -1.435196   -0.084213
C  6.0    1.277817   -0.673813    0.060593
C  6.0    1.281235    0.661011    0.108856
C  6.0   -0.002228    1.427628   -0.065338
C  6.0    2.587845   -1.408554    0.068176
C  6.0    3.786713   -0.537094   -0.260330
O  8.0    3.674835    0.664703    0.454254
C  6.0    2.550705    1.477539    0.255768
O  8.0    0.008286    2.604156   -0.269516
O  8.0   -0.054352   -2.607407   -0.281128
O  8.0    2.696274   -2.568848    0.296509
C  6.0    3.974747   -0.344406   -1.763016
C  6.0    2.520309    2.417770    1.458694
H  1.0    3.490967    2.890823    1.541367
H  1.0    3.106674    0.104492   -2.233948
H  1.0    4.655212   -1.031906    0.148438
H  1.0    2.342682    1.852936    2.367294
H  1.0    1.764694    3.181213    1.350998
H  1.0    4.157761   -1.302094   -2.237534
H  1.0    4.829742    0.298050   -1.939545
H  1.0   -2.175858   -1.233627   -0.009705
H  1.0   -2.171936    1.259995   -0.010223
H  1.0    2.666016    2.063782   -0.652283
 $end

--- RHF ORBITALS --- GENERATED AT 18:57:04 CST  3-MAR-1999
Quinone precursor of hongconin...RHF/6-31G(d) structure
E(RHF)=     -721.7909350398, E(NUC)= 1006.0521673255,   18 ITERS
 $VEC
 1  1-2.29954957E-08 1.52499137E-05-1.29436476E-05-2.36683707E-05 4.85627918E-06
 1  2-3.27194610E-04-2.08121852E-04 1.23161203E-04-1.76196686E-05 2.87280054E-05
 1  3-6.87943193E-05-1.85213469E-05-3.83725577E-05 6.41672008E-06 5.36754873E-06
 1  4 2.69512402E-06 2.16866051E-05-6.79106645E-07 2.29039036E-05 3.61865505E-07
 1  5 1.96077906E-04 4.35047471E-05 2.97208112E-05 8.67477401E-06-7.01448936E-06
 1  6 1.87467309E-05 6.33329478E-06-2.33685070E-05-2.44145684E-07 2.07340689E-06
 1  7 5.90654912E-06 2.52999638E-05-1.93706255E-06 6.26444257E-06-4.07636194E-07
 1  8-1.91192081E-05 6.12349999E-05-1.88054187E-04-2.33900797E-05-2.81431391E-06
 1  9 1.46713829E-05 1.31433804E-05 1.40836704E-07-6.22475807E-07 1.81219458E-06
 1 10 5.20402018E-07 7.35147681E-06-1.56221984E-06 2.15972412E-05-4.42690335E-07
 1 11 4.29012161E-04 1.01462654E-05 2.55202462E-04 3.71996180E-05-8.81402503E-06
 1 12 2.39803655E-05 2.33828287E-06 1.82797796E-05-1.19105071E-06 5.94153490E-06
 1 13 2.21759251E-06 3.03155428E-05 1.65527488E-05-3.00496716E-05 8.95169552E-06
 1 14-5.40000830E-04 2.19005437E-04 3.79474224E-04-1.16198186E-05 2.55607055E-05
 1 15-7.23684985E-05-1.35896287E-05 4.39744115E-05-3.63992360E-06 7.01759322E-06
 1 16-1.45483714E-05 3.53095892E-04-1.00501373E-05-1.65038257E-04 2.67206833E-05
 1 17-2.91043524E-04-1.85877287E-05-1.04283823E-03 1.61455422E-04-3.53060048E-05
 1 18-8.58831505E-04-6.09565633E-05-1.82163186E-05 2.60702313E-06 1.62279892E-04
 1 19 2.02760948E-06 6.26971278E-06-2.45183283E-06 1.34681828E-06 4.32956769E-07
 1 20-2.21172610E-05 1.21972243E-06-6.61778913E-05-9.36982125E-06 7.49888526E-06
 1 21-3.60520811E-07 3.88534819E-06 9.49236425E-07 1.66146054E-06 3.11643740E-07
 1 22 1.54769156E-06 5.77592163E-06-3.76175268E-06 2.15873132E-06 2.25203382E-07
 1 23 2.05178785E-06-6.42668145E-06-1.82448419E-06 9.82777766E-06 2.94210397E-06
 1 24 2.17054804E-06 2.82064264E-06-7.89556028E-07-1.41006022E-06-7.70058021E-07
 1 25 1.93499885E-05 3.14737983E-05-2.74077653E-06 2.00560935E-06-2.83844036E-06
 1 26-1.89744276E-04 5.53687715E-05-3.96473832E-05 1.53556221E-05 1.13352335E-05
 1 27 1.59121184E-05 2.17030986E-05 6.99034013E-06-1.92504372E-06 1.20289362E-06
 1 28-2.07983690E-07-1.14712500E-06 1.46210678E-06 1.34483998E-05 4.35070038E-07
 1 29-4.12426876E-06 1.83726963E-04-7.73062679E-05 6.38618661E-05 1.09928480E-06
 1 30-1.31181415E-06-2.44600066E-06-1.87541623E-05 2.21481893E-06 5.36204187E-07
 1 31 9.94655244E-01 2.09651689E-02-2.14550078E-06-1.60442220E-03 2.72760688E-04
 1 32 5.19424711E-03 1.70056206E-05-1.55930922E-04 5.48473994E-05-3.99041666E-03
 1 33-3.59887364E-03-4.27456856E-03 8.43942748E-06 2.20017229E-05-1.42600772E-04
 1 34 1.58568198E-05 2.26951678E-05-1.77547259E-07-2.18078611E-06 3.52327428E-07
 1 35-1.72882750E-04-8.53893067E-06-3.77892672E-05-1.01903945E-05 1.77784259E-05
 1 36 9.41212224E-06 1.33325116E-05-1.38378238E-06-1.18460665E-07-1.10010905E-06
 1 37 4.89555023E-06 5.83050819E-06-1.80588656E-08 1.32670892E-07-1.21039659E-06
 1 38-4.18000610E-05-2.85509070E-06-2.94236696E-06 8.03903796E-06 3.68038864E-06
 1 39 4.88618985E-06 2.64918471E-06-1.56325051E-06 2.45502298E-07 8.71301080E-07
 1 40 1.39340418E-07 3.14090715E-07-1.46029508E-06-2.10951183E-07-4.92719429E-07
 1 41 1.47105305E-06 8.21721653E-06-2.93776199E-06 6.21447813E-06 5.39650659E-07
 1 42 2.30699963E-07 2.32082134E-07 7.66825319E-07 1.04733288E-07-1.96458065E-07
 1 43-2.94866029E-06-1.87828226E-05-2.05574083E-06-1.01530838E-05-8.33480472E-06
 1 44 1.41985638E-04-6.50768222E-05 1.11885946E-04 8.70310814E-06 1.36287598E-06
 1 45-6.88413762E-06-1.99828828E-06 4.82920414E-07 4.32025438E-06-6.92982493E-06
 1 46-8.79224653E-06-1.73350213E-05-2.33229962E-06 1.31400557E-05 4.44413890E-07
 1 47-4.14959736E-06-6.20002435E-06 7.66526482E-06 1.85217408E-05-2.11014614E-04
 1 48 5.85539812E-07-2.89020098E-06-5.91249134E-07-2.48050626E-06 4.49009515E-06
 1 49-9.76629653E-06-8.51540415E-06-8.01467765E-05 2.67161765E-05-2.37906941E-05
 2  1 1.87840089E-06 1.46468558E-05 6.35236225E-08-2.63949379E-05 7.53723300E-07
 2  2 3.13875440E-04 1.04051861E-04-6.95424708E-05 6.78465325E-06-5.45062631E-06
 2  3 2.10830562E-05 5.68729739E-06 2.11819198E-05-4.25604593E-08-2.42391120E-06
 2  4 1.52168880E-06 2.76268225E-05-1.82833189E-05 2.87098764E-05 4.87300067E-06
 2  5-4.54606176E-04-3.02683438E-04-1.77813641E-04-1.40232698E-05 1.62883888E-05
 2  6-7.12200980E-05-1.55976493E-05 3.98756280E-05 5.58202413E-06-5.33374819E-06
 2  7-1.79571398E-05 3.30585710E-04 5.25755244E-06 1.95045287E-04 3.43069500E-05
 2  8-2.02278410E-04 1.67981598E-05 1.18783703E-03 1.75783022E-04-3.11350300E-05
 2  9-8.97474939E-04-5.70448470E-05-4.44449202E-05-6.43177428E-06-1.68384609E-04
 2 10 4.99749142E-06 3.53930764E-05 9.28734016E-06 2.40341724E-05 5.43992663E-06
 2 11-7.10889508E-04 2.32673897E-04-2.61916183E-04-2.01303639E-05 4.68144557E-05
 2 12-7.20219896E-05-7.92357192E-06-3.52791446E-05-4.24384869E-06-9.52653012E-06
 2 13 4.50793190E-07 8.79875399E-06-4.54670062E-06-2.34626517E-05-1.10608000E-06
 2 14 3.95514807E-04 1.86205534E-05-2.34338389E-04 1.20295014E-05-1.03579609E-05
 2 15 2.44447885E-05 2.15870421E-06-1.69853791E-05-8.71061072E-07-7.34888445E-07
 2 16 7.07356681E-06 2.99083850E-05-4.63410640E-07-7.17282131E-06-1.08956267E-06
 2 17-5.92687061E-05 8.75271245E-05 2.30239149E-04-2.00887560E-05-2.32597288E-06
 2 18 1.74948356E-05 1.53149614E-05-1.39991389E-06-1.80475104E-07-2.11579653E-06
 2 19-7.39336355E-07-2.41585451E-06 5.89643154E-06-9.59598591E-06-4.82978074E-06
 2 20 1.35590119E-05-4.78571538E-05-2.02824026E-05 1.73819165E-05-1.56317878E-06
 2 21-1.30978768E-05-5.55403858E-08 2.47360568E-05-3.71186382E-06 3.57178042E-06
 2 22 4.96840766E-07 3.66902353E-06-7.32730322E-07 1.25801362E-06 1.12295833E-06
 2 23 1.08071089E-05 1.52732480E-05-2.28136664E-05-6.93138287E-06-3.49108062E-06
 2 24-1.97273015E-08 1.11880415E-06-2.26962435E-06 1.72499652E-06-7.65094701E-07
 2 25-1.65150864E-05-4.47420958E-06-1.24293439E-06-1.32196611E-07-1.25959557E-07
 2 26 4.14529305E-05-5.19237619E-06-1.38041740E-07-1.96302236E-06-2.82520735E-06
 2 27-2.08012684E-06-1.57173440E-08-2.31650734E-07-5.50067051E-07 2.24716593E-07
 2 28 3.02989443E-06 1.16628443E-05-2.89401497E-06-2.57142576E-07 1.14161342E-06
 2 29-5.86772134E-05-6.19006437E-07 4.48352896E-05-1.76823439E-05 7.81708835E-06
 2 30 3.33723031E-07 5.62655844E-06-7.33385947E-07 1.65277831E-07 1.72732720E-07
 2 31-4.49041369E-06 2.60394689E-05 1.99455298E-07 2.18511875E-06 3.44369823E-07
 2 32-2.00830919E-04-9.20189114E-06 4.51356128E-05-1.32953017E-05 2.04997980E-05
 2 33 1.03555841E-05 1.55234242E-05 1.21597810E-06 3.29804288E-07 1.76289444E-06
 2 34 9.94659342E-01 2.09618767E-02 4.31280981E-05 1.64915494E-03 2.69409684E-04
 2 35 5.26770721E-03 2.15300297E-05 2.02073345E-04 4.58421181E-05-3.98365854E-03
 2 36-3.55577861E-03-4.28440005E-03 1.08752980E-05 9.87470188E-06 1.46278013E-04
 2 37-9.98020498E-05 3.76146678E-05-1.87301763E-05 3.04987850E-06-6.54541524E-06
 2 38-1.70507294E-04 7.69894278E-05-1.32134461E-05 1.54648383E-05 2.60429420E-05
 2 39 4.58566614E-05 4.63033522E-05 1.20224586E-05-8.86060438E-06 4.04457058E-08
 2 40-3.44013953E-09 7.05590446E-08 1.01562772E-06-1.46507195E-07-9.31234201E-07
 2 41-6.82837308E-06-9.53725603E-06 7.18638209E-06 2.40717242E-06 3.79570103E-07
 2 42-4.68654563E-07 1.55763519E-07-4.37029217E-07-6.05616544E-07 7.19312166E-07
 2 43-1.73759105E-07-1.96003383E-06-1.17588449E-06-1.72081272E-06-1.72602345E-06
 2 44 1.81283321E-05 7.33230993E-07-9.98607642E-06 4.85870883E-06 6.90728981E-08
 2 45 2.61338799E-06-8.04184001E-07 6.05354665E-07 2.19001387E-07 5.65617220E-07
 2 46-8.28662303E-07-1.88980947E-06-2.26347939E-06-6.84005177E-07-1.17230349E-06
 2 47-1.06982943E-05-1.43646649E-06-5.51758346E-06 6.58518637E-07-5.18102750E-06
 2 48 2.01237898E-07 6.64344958E-06 3.10101966E-07 3.37738011E-06-1.19761010E-05
 2 49-1.18812649E-04 6.20130087E-06 8.27193366E-06 2.07204767E-06-9.72207286E-06
 3  1-1.96711433E-07-5.35455727E-06 1.00626332E-05-2.82906785E-07-1.72152694E-07
 3  2 2.81297376E-04 1.15073228E-04 1.93877200E-05-3.74722844E-06 3.19839235E-06
 3  3 2.37611340E-06 1.44268264E-06 1.26410922E-06-9.05429765E-07 7.14898316E-07
 3  4 1.89651165E-06 9.46073729E-06 3.02305445E-06 1.62225219E-06-2.85949116E-07
 3  5-1.26090254E-04-9.29680165E-05-3.47282175E-05 1.91562045E-06 4.18468514E-07
 3  6-6.01734185E-07 4.20244018E-06 2.49979992E-06 6.97142813E-08 3.46973748E-07
 3  7-1.00249670E-07-3.49619929E-06 5.20840312E-06-2.23245541E-06 2.26387566E-06
 3  8 2.07481459E-04 4.97902730E-06 9.43957054E-05 1.46898604E-05 3.30753604E-06
 3  9 4.26682886E-06 3.71865080E-07 1.91881131E-06 1.69600639E-06 2.95916178E-06
 3 10 5.59302104E-06 3.87945867E-05-1.70093204E-06-6.35803190E-06 4.73834542E-06
 3 11-4.37562117E-04 2.47431156E-04-1.99345905E-04-4.16643792E-05-5.98956993E-06
 3 12-1.16248274E-05 1.24582249E-05-1.40182425E-06-1.83359514E-06 1.08138234E-06
 3 13 6.53020382E-06 7.94652294E-05-1.70340918E-05 4.35319723E-06-1.87538316E-05
 3 14-4.10306753E-04-6.01024422E-04-5.85243683E-04-9.03627230E-06-7.91867972E-05
 3 15 2.80262682E-06-3.07937448E-06-5.30801210E-06-1.21071801E-05-2.83501339E-07
 3 16 3.09265714E-06 1.05439311E-05-6.59539523E-06 5.27878172E-06-2.38367961E-06
 3 17-2.99319383E-05 2.44965633E-04 3.38075431E-04-3.95795298E-05 1.61370683E-05
 3 18 7.88638066E-06 1.34195473E-06-5.77404613E-06 5.04643178E-07-3.22608966E-06
 3 19-2.78472389E-06 4.18925420E-05-2.94485235E-05-2.14348584E-05 5.97496017E-06
 3 20-5.52196999E-04-1.32276567E-04-1.10421899E-04 1.22110214E-04-3.18182828E-05
 3 21-8.05055005E-05-2.22493036E-05-2.74004651E-05 9.35835384E-06 1.88398343E-05
 3 22-2.90795915E-05 1.70437769E-04-9.26083739E-06 3.53868342E-04 2.26068614E-04
 3 23 6.83151605E-04-4.76872334E-04-1.12603872E-04-3.68432355E-04-6.11496440E-05
 3 24 3.49007663E-05-2.35045558E-05 1.37654244E-07-3.96668541E-05 4.66789994E-05
 3 25 9.94638897E-01 2.13444732E-02-9.04892006E-04-3.56028402E-04-8.33436499E-04
 3 26 3.53530866E-03 6.80615015E-04 2.42703212E-04 5.59611668E-04-4.08845910E-03
 3 27-4.13883313E-03-3.96584091E-03 1.41850020E-04-7.65257637E-05-1.32577898E-04
 3 28-3.78923993E-05 1.24776187E-04 3.03084929E-04-2.25172279E-04 4.88066868E-05
 3 29 1.25542707E-03-3.76545789E-04-3.18878693E-04 7.90287020E-05 1.55464579E-05
 3 30-8.26070151E-06-7.08239493E-05-4.78629569E-05 2.13800906E-05 1.20307724E-05
 3 31-3.16565985E-06 4.44207403E-05 2.57816042E-06-3.08659277E-06-1.98556882E-06
 3 32-3.21419484E-04-3.40345660E-05 8.49863405E-05-8.09783062E-06 2.86799817E-05
 3 33 1.90525441E-05 2.66294577E-05 6.22616177E-06 1.32359794E-07 2.41363663E-06
 3 34 1.76421555E-05 8.48783638E-06 2.37263968E-06 1.06756561E-06 1.41185950E-06
 3 35-2.55801318E-05-1.06078031E-05-2.04502091E-05-6.09526426E-06 5.90838108E-06
 3 36 2.25736937E-07 8.43878852E-06-1.52590918E-06-9.96363079E-07-1.59208606E-06
 3 37 7.32285570E-05-8.46049039E-06-5.38752514E-06 1.26372421E-05-2.35476701E-06
 3 38 1.05790827E-04 2.61311903E-05 6.17169876E-05-3.31140229E-05-1.71804768E-05
 3 39 1.70538987E-05-1.05568570E-05-3.66647144E-06 7.07717985E-06-7.92666324E-06
 3 40 3.60685742E-06 6.73863563E-05 1.20326942E-06-7.65825140E-06-4.69837801E-05
 3 41-3.79881462E-04 1.92982846E-04 2.81272480E-05-1.77793150E-04-1.97042324E-05
 3 42-1.07751786E-05-5.48678453E-05 9.27813466E-06 2.99493185E-05-1.28085637E-05
 3 43 1.04806685E-05 1.06166355E-04 1.53046483E-05-8.28339606E-06 2.59897881E-05
 3 44-2.71783379E-04-1.63749278E-04 4.01042426E-04 5.18438747E-05-4.25043089E-06
 3 45-5.22494402E-05-1.47622344E-05 1.65034908E-05 2.26100948E-05-3.57145192E-05
 3 46 5.98690201E-05-6.49730428E-05 2.60463122E-05 5.55747208E-05 1.95940943E-05
 3 47 3.27783091E-05 5.75671512E-05 5.54361663E-05-7.64088728E-06-2.08952254E-04
 3 48 1.24762545E-05-1.07429479E-06 1.20892951E-05-7.35452490E-05-4.57222675E-06
 3 49-2.61729810E-05-2.34880700E-06 2.89805620E-06-5.35124381E-05-2.74675717E-05
 4  1-1.19769506E-06-7.81376150E-06 3.50897211E-06 7.85924693E-07 6.95237596E-07
 4  2 2.08425101E-04 7.64201105E-05-1.25659877E-04 9.20425194E-07 1.85640152E-06
 4  3-6.46834123E-08-1.00964799E-06-8.99886637E-07-3.83348437E-08 1.61617724E-06
 4  4 2.49571875E-06 1.31289078E-05 1.60403441E-06 1.87902317E-06-8.81496571E-08
 4  5-1.53932663E-04-7.53461821E-05-1.41240928E-04 1.60261770E-06-3.38653655E-06
 4  6 7.42297658E-07 5.14321809E-06 2.82782171E-06 7.29098672E-07-9.74423265E-08
 4  7-3.33131280E-06-1.99249320E-05-2.18536351E-06-7.17131836E-06 3.11577185E-06
 4  8 2.63108979E-04 1.79464902E-04 8.57991363E-05-8.04815410E-06 6.91567712E-06
 4  9-1.47287509E-05-5.09731035E-06-2.33347136E-05-5.98849052E-06-7.43398445E-06
 4 10 5.65197432E-06 3.46166765E-05-1.38653860E-05 1.89474353E-05-7.68545935E-06
 4 11-5.85874739E-04 6.45333134E-05-1.39508054E-05 7.42918221E-05 4.51194066E-05
 4 12-6.16309134E-05-4.84369436E-06 3.49077262E-05-9.10886215E-06 3.25012381E-06
 4 13 2.49832561E-06 2.37179434E-05 1.33884656E-05-2.17299675E-05 3.81921887E-07
 4 14 1.59795746E-04-3.91953534E-04-2.30762433E-05-6.14293992E-05-1.27542039E-05
 4 15 1.77470551E-05 6.23138903E-06 1.88124493E-05 3.71343451E-06 2.23180683E-06
 4 16 4.72058414E-06 2.20567489E-05-1.09981857E-06 5.64128026E-07 1.68216333E-06
 4 17-2.79660682E-04-1.09061098E-04 2.06815477E-04-3.04677574E-05 4.89328904E-06
 4 18-2.68003829E-07 8.41408466E-06 6.34176848E-07 1.30657414E-06 9.92704371E-07
 4 19-1.95910775E-05 3.34855034E-04-2.49369758E-05 1.93107322E-04-3.48562404E-05
 4 20-3.87933631E-04-1.26212163E-04 9.45245767E-04-2.17929390E-04-5.28860885E-05
 4 21-9.04454712E-04-6.89744928E-05 9.69311836E-05-1.77230651E-05 1.96801710E-04
 4 22-6.14967872E-06-1.39749754E-05 2.07226296E-05 3.70887260E-05-1.27250196E-05
 4 23-1.27696318E-05 8.80401362E-05-3.03047454E-05 1.18489570E-05 1.23225366E-05
 4 24-5.73271258E-05-2.77601993E-05-2.11537833E-05-9.59494405E-06 1.45981362E-05
 4 25-6.85313695E-05 4.03869171E-05-7.91039521E-06-7.48040417E-06 1.08924114E-06
 4 26-1.82401347E-04 7.26249231E-05 3.60343067E-05-7.72937413E-06 1.12265940E-05
 4 27 1.53217163E-05 3.99121408E-05-1.84675890E-05-7.15153937E-06 1.12990899E-06
 4 28 5.87605425E-07-4.47561497E-06-1.72385663E-06-1.49034701E-05-1.89909659E-06
 4 29 2.10440586E-04-3.59054968E-05-9.73053225E-05 1.53178020E-05-2.25955935E-06
 4 30 1.20753743E-05 6.27541336E-06 1.04526900E-06-1.08912227E-07-1.24480422E-06
 4 31-1.06020240E-07 1.54856202E-05-1.39635814E-06-1.37254730E-06-2.01991012E-07
 4 32-1.06601613E-04 1.78302556E-05 1.47404545E-05-1.56785362E-06 9.10681779E-06
 4 33 1.05223266E-05 9.99951095E-06-2.56922810E-06 6.09603801E-07-3.11554365E-07
 4 34 1.22077976E-04 3.65664471E-05 1.87565263E-05 3.97550099E-06 5.07928750E-06
 4 35-1.35358983E-04-8.79046512E-05-1.28657891E-05-1.28339783E-05 2.33162431E-05
 4 36 4.07597130E-05 3.97806423E-05-1.37800401E-05-8.97379144E-06-9.00828777E-07
 4 37 9.94660234E-01 2.09938473E-02-1.33856057E-04 1.63647852E-03-3.31683627E-04
 4 38 5.13981599E-03-2.11051644E-05 1.92152459E-04-2.69911580E-05-3.98152995E-03
 4 39-3.54799138E-03-4.26022622E-03-4.78186163E-05-3.09460693E-05-1.68484817E-04
 4 40 7.32042793E-06 2.03789355E-05-1.36290183E-05-6.84355566E-06 1.14326808E-05
 4 41-1.15001049E-04 7.92935394E-05 5.18889267E-05-3.63670343E-05 7.07123141E-06
 4 42 2.23158059E-05 1.68776999E-05 4.58669884E-06 3.76579295E-06 3.69754512E-06
 4 43-1.64992067E-06-4.13520215E-06 4.99810371E-07 4.71510625E-06 2.67066989E-06
 4 44 1.61639137E-05-3.56669637E-06 1.93861465E-06-7.01946825E-06-3.45313388E-06
 4 45-4.78919278E-06-3.45932760E-06 4.56657326E-07-2.84596816E-07-1.73383442E-06
 4 46 2.23117646E-07-1.00066912E-07 1.62681437E-05 2.01969567E-05 4.08861255E-06
 4 47-6.06487815E-05-2.91848563E-06 2.63209214E-06-2.36381111E-07-7.09510161E-06
 4 48 8.49401859E-06 3.59261734E-05-2.55283418E-06-4.42469495E-05-6.73973837E-06
 4 49-4.32902976E-05 5.00636289E-06 2.90683536E-05-5.26295561E-06 1.87987107E-05
 5  1 3.69766695E-03-1.65036940E-04-6.48904241E-05 8.64097710E-05-1.14724606E-07
 5  2 9.83882664E-03 4.97477067E-03-3.28540785E-03 1.69057784E-04-4.15398169E-04
 5  3-3.62898196E-04-2.63985991E-04-2.47864574E-04 3.22121853E-05 4.12023889E-05
 5  4 3.31836657E-05 3.73728574E-05-6.57491640E-05-1.20519064E-04 2.65550588E-05
 5  5-6.29262683E-03-2.01385600E-03-2.12640377E-03-1.42178838E-04 4.58307022E-05
 5  6 7.51847765E-05-1.94970809E-05 4.97785074E-06-1.51263583E-05-1.19202233E-05
 5  7-8.08605204E-04-3.55145906E-04 9.39074479E-06-7.45045154E-05 1.28743905E-05
 5  8 2.87504482E-03-1.31421638E-04 3.14534648E-03 3.77099471E-04-5.22880405E-05
 5  9-1.32394005E-04-1.46025552E-04-1.04899091E-06 8.37496016E-06 1.30405743E-06
 5 10 3.72914514E-05 1.06009170E-04 7.43591127E-05-1.02779104E-04 4.65087519E-05
 5 11-7.03749717E-03 2.02867011E-03-2.71381797E-03-2.01055192E-04 1.38589195E-05
 5 12 2.22760701E-05-3.73556077E-06 6.67312448E-05 2.94143478E-05-4.80658814E-06
 5 13 4.45118729E-03-1.03898211E-05 1.78203090E-04 1.13089594E-04 2.61084932E-05
 5 14 9.23933695E-03-6.41757093E-03-4.19532297E-03-5.34580834E-04-4.41969907E-04
 5 15-3.06730049E-04-2.28954365E-04 2.07903418E-04-5.03375856E-05 6.60911380E-05
 5 16 9.95879075E-01 2.76857219E-02 8.61934578E-05 4.80373766E-04-9.99318392E-05
 5 17-1.21025134E-02-4.12629038E-05 1.11383055E-02-1.45961239E-03-1.61895140E-03
 5 18-6.61103776E-04-2.17050350E-03 7.69934051E-05 2.93712944E-05-3.09413182E-04
 5 19-2.02619338E-05-1.07965938E-04 2.64022300E-05-1.94075092E-05-6.13873205E-06
 5 20-1.67898529E-04-1.14759757E-04 4.34239268E-04 1.06362016E-04-2.76653727E-05
 5 21-1.17535197E-05-5.40635937E-05-3.31245994E-05-7.48240247E-06-3.34117930E-06
 5 22-5.48620867E-06-2.81004065E-05 1.02831553E-05 1.87154268E-05-1.26942477E-06
 5 23 4.64333949E-05 4.07392786E-05-1.51717760E-04-9.77239996E-05-4.18518899E-06
 5 24 7.77866202E-06-7.67431845E-06 6.38181671E-06 1.71105504E-06-3.10740111E-06
 5 25-9.06444334E-06-2.43123114E-05-1.57451471E-06-1.24385249E-05 3.84937546E-06
 5 26 1.16831229E-05 9.56535687E-05-8.91807103E-06 7.66059489E-06-1.86740331E-05
 5 27-2.49709919E-05-4.51585093E-05 1.87820975E-05-4.62385847E-07 8.54903112E-06
 5 28-1.00183171E-04-2.45789371E-04-6.06093874E-05-5.66416479E-05-5.09142355E-06
 5 29 3.26006269E-03-1.07075024E-03-8.72133246E-04-2.99028375E-04 4.83047990E-05
 5 30-9.35224512E-07-5.67583149E-05 4.21138827E-05 2.83482540E-05 1.61681935E-06
 5 31-1.68328235E-04 1.46480879E-03-1.67328625E-05-3.45946664E-04 7.77035321E-05
 5 32-9.04078781E-03 7.46147904E-05 2.93487147E-03-6.37695949E-04 6.72979540E-04
 5 33 4.88189960E-04 8.60477671E-04 4.82025517E-06-1.27223624E-05 1.03551158E-04
 5 34-5.39508824E-05-2.41049992E-04-3.89344261E-06 1.54402315E-05-5.80814344E-06
 5 35 1.87107113E-03 6.17676058E-05 3.06271596E-04 9.95667540E-05-1.60255419E-04
 5 36-1.21333129E-04-1.33173853E-04 8.97330167E-06 1.83203172E-06 9.30335503E-06
 5 37-6.40862992E-06-2.56875693E-05-2.99034278E-06 6.27400774E-06 8.68737343E-06
 5 38 2.49455247E-04 6.77785846E-05-1.06684565E-05-6.84548547E-05-2.04115842E-05
 5 39-2.98848989E-05-8.26369089E-06 2.05497590E-05-8.06295054E-08-8.08940593E-06
 5 40 8.50501518E-06 2.41087502E-05-2.34131742E-06 8.66973092E-06 7.56546050E-06
 5 41-1.53884153E-04 3.37355453E-06 1.09657640E-05-6.58535015E-05 9.06074084E-06
 5 42 1.30236974E-05 8.37418342E-06 2.08411477E-06 1.22375618E-06 7.82545130E-06
 5 43-3.75203566E-05-5.63134640E-05 7.70044883E-05 3.54784380E-05 3.64097935E-05
 5 44 2.28661836E-04-2.85328639E-04-4.03149453E-05-6.73581728E-05-4.42573946E-05
 5 45-3.06261710E-05-4.36575754E-05-1.26307259E-05-1.49223155E-05 5.19979551E-06
 5 46 7.84972657E-06 2.46439274E-04 2.45484984E-05-3.19829542E-05-8.37117101E-06
 5 47-2.21459295E-05-1.74822899E-05-5.11086860E-05-5.69893670E-05-2.23171990E-04
 5 48-1.15257894E-06 1.96152733E-05 2.67205923E-06 2.89541042E-05-4.27307406E-05
 5 49-3.77927554E-04 1.54617636E-04 1.50483637E-03-8.01650479E-05-1.29048477E-04
 6  1 4.10875647E-05 9.11009994E-05-7.21267273E-05 1.20055643E-04 2.19274870E-05
 6  2-6.99072814E-03-2.40131407E-03 2.36025461E-03-1.34696964E-04 3.29643638E-05
 6  3 6.57048146E-05-7.93492710E-06 7.30293928E-06-1.77136547E-05 8.50596414E-06
 6  4 4.09702944E-03-1.47638540E-04-4.46856396E-05-8.59243007E-05-2.81071136E-06
 6  5 1.02842313E-02 5.19738870E-03 3.49354673E-03 1.33089616E-04-4.05721425E-04
 6  6-3.75340152E-04-2.70501481E-04 2.57290891E-04 3.40695013E-05-4.80961701E-05
 6  7 9.95892253E-01 2.77539774E-02-8.79516060E-07-3.66559694E-04-9.02805391E-05
 6  8-1.26502889E-02-5.81460529E-04-1.20172363E-02-1.56702923E-03-1.62582064E-03
 6  9-6.79165367E-04-2.13142597E-03 1.50880774E-05 2.06687879E-05 2.86718422E-04
 6 10 4.05305471E-03-3.69722796E-05 2.10914369E-04-1.22981412E-04-7.93864034E-06
 6 11 9.81318858E-03-7.74398072E-03 5.02345614E-03-5.33850073E-05-4.86751499E-04
 6 12-2.98417163E-04-2.28702777E-04-1.97854667E-04-4.38100867E-05-4.22388738E-05
 6 13 5.07722843E-05 1.44279933E-04 5.83079528E-05 1.00638967E-04 3.63127282E-05
 6 14-7.61850879E-03 2.88499983E-03 3.44805744E-03 1.32249119E-04 2.73005225E-05
 6 15 1.26693297E-05 6.65481179E-06-8.06249382E-05-6.69536972E-06-4.63711255E-06
 6 16 6.51917545E-04-3.29113262E-04 2.59774838E-05 7.01551705E-05 1.28518302E-05
 6 17 3.39406838E-03-3.52401877E-04-3.56196452E-03 4.17549510E-04-5.21403467E-05
 6 18-1.32902885E-04-1.47597994E-04-4.39111757E-08 1.21015786E-06-8.54231936E-06
 6 19-2.25562852E-04-2.19323155E-04-3.49203998E-05 4.93619143E-05-1.98625384E-06
 6 20 3.29080499E-03-2.67491351E-03 8.20635918E-04 8.35018697E-05 7.01377984E-05
 6 21 3.14269100E-05-6.36872657E-05-4.28829972E-05-7.61504548E-07-3.51006790E-06
 6 22-3.79734222E-05-1.50010085E-04 2.09256252E-05 1.66941594E-05-1.05919536E-05
 6 23 1.06315057E-03-2.63400685E-04-6.00423712E-04 1.32298864E-04-4.18631127E-05
 6 24-1.97116178E-05-5.44627340E-05 8.02579403E-06-9.46239632E-07-1.62456723E-05
 6 25-1.87897596E-06-6.75949613E-06-8.53500435E-07-9.25885612E-08 1.56353497E-05
 6 26-4.64888695E-05 6.50232351E-05 1.59066925E-05-1.00550842E-04-7.59144728E-07
 6 27-9.75483427E-06-2.04691548E-06-7.47599748E-06-1.36480008E-07 6.96959547E-06
 6 28-1.47069134E-05-9.37122856E-05 3.87267736E-05 1.91317994E-05-1.12842523E-05
 6 29-7.18072855E-04 2.91568384E-04-1.57913982E-04 2.09219890E-04-3.40711361E-05
 6 30 3.40755156E-06-4.66410192E-05 3.01557084E-05 7.78144934E-07-2.75100600E-06
 6 31-5.74556105E-05-2.56319754E-04 8.06867896E-08-1.33748380E-05 1.20347320E-06
 6 32 2.02703995E-03 3.30541422E-05-3.33090844E-04 9.09432455E-05-1.68231557E-04
 6 33-1.29194338E-04-1.36299269E-04-7.19229032E-06-3.15176969E-06-8.40741570E-06
 6 34-1.62685083E-04 1.54989068E-03 6.72656254E-06 3.74880346E-04 7.87433924E-05
 6 35-9.66204633E-03-6.68077168E-05-2.96859683E-03-6.25072481E-04 7.08586742E-04
 6 36 6.09146749E-04 8.95649289E-04 7.08039750E-06-6.30785201E-06-8.25047803E-05
 6 37-1.77681533E-05-6.84101626E-05-1.93677568E-05-3.23940032E-05 5.76799078E-06
 6 38 2.74445944E-04 3.94680825E-04 1.10487298E-04-2.06202599E-05-6.49861297E-05
 6 39-3.20753904E-05-8.39831990E-05 3.13826117E-05-1.96465776E-05-6.60790486E-06
 6 40 5.56551802E-06 1.80507724E-05 2.28126554E-06 2.74357048E-06-5.47604064E-06
 6 41-1.47327266E-04 3.13570298E-05 1.33965164E-04-1.82852238E-05 6.91614233E-06
 6 42 2.12862470E-06 1.14382899E-05 6.31800672E-06 8.18108587E-06 1.89295906E-05
 6 43-3.54527845E-06 1.08875331E-05 1.83759685E-05 1.68285903E-05 7.86326551E-06
 6 44-8.11402916E-05-8.21714467E-06 3.86660641E-05-6.52379655E-05-1.27637236E-05
 6 45-2.32930660E-05 1.20204479E-05-1.18616689E-05-2.83009527E-06-2.46645916E-06
 6 46 8.66149568E-06 2.47236671E-06 2.14586079E-05-2.94766545E-05-6.46125546E-05
 6 47-2.41762848E-05-4.74307852E-07 4.69987894E-05-1.20880708E-05 6.92625137E-05
 6 48 1.05554783E-05 8.79522366E-05-9.98965775E-07 1.96774759E-06 1.63782719E-04
 6 49 1.55693267E-03-5.20886782E-05-5.14178272E-04 3.94364865E-06 1.30876997E-04
 7  1 8.97026439E-06 4.19623520E-05-2.02418093E-05-1.16391969E-05-1.21991562E-05
 7  2-9.62451241E-04-8.92685813E-04 3.54874980E-04 7.10657607E-05-1.18607221E-05
 7  3 7.44413996E-06 2.54296063E-06 1.81112354E-06 5.64279248E-06-1.14839377E-05
 7  4-2.30332792E-05-1.62156419E-04-1.39099738E-05 1.47549275E-05-8.34044418E-06
 7  5 2.10197994E-03 1.05956727E-03-4.24475265E-04-1.17733426E-04 3.88404236E-06
 7  6 8.89130357E-06-6.28704648E-05-2.43630877E-05-9.76443928E-06 1.26302412E-05
 7  7 1.62242837E-04-1.32146491E-04-6.36685833E-05 4.97710256E-05 6.61597143E-06
 7  8 1.09314283E-03 2.61752641E-03-9.56814871E-05 2.90146636E-04 3.67366314E-05
 7  9 1.88380521E-05-4.86995483E-05 4.52263862E-05 3.21217581E-05 2.31369475E-05
 7 10 5.36570314E-03 1.49610379E-04-1.36737548E-04-1.18619614E-04 3.25359389E-06
 7 11 6.91949665E-03 4.13665169E-03 3.98292237E-03-2.03313310E-04-5.27031305E-04
 7 12-3.01514986E-04-1.88773015E-04 2.00931686E-04-6.44755033E-05 2.44033467E-05
 7 13 5.80141911E-05-6.36306465E-05-1.41473728E-04 1.12959095E-04-4.46512565E-05
 7 14-4.72602378E-03 1.46522575E-03 2.16808539E-03 4.64966885E-04 8.07423375E-05
 7 15 1.24985324E-05-5.23161023E-05 6.34080018E-05-2.02521303E-05-1.73022387E-05
 7 16-4.64531650E-05-1.99241314E-04 2.37057320E-05-6.82210364E-07-1.06519608E-05
 7 17 1.77520433E-03 2.35191524E-04-1.68928518E-03 1.23530628E-04-1.57217195E-05
 7 18 3.11188251E-06-7.27296946E-05-2.68707745E-05-1.58078525E-05-1.26189512E-05
 7 19 9.95851155E-01 2.76283980E-02-1.49914835E-04-4.34124263E-04 5.63380286E-05
 7 20-9.24197287E-03 8.85068172E-04-8.56087756E-03 1.54867211E-03-1.62349654E-03
 7 21-5.37125072E-04-2.10577319E-03-1.05070640E-04-3.71070020E-05-4.14787033E-04
 7 22 7.12768691E-03 5.15844176E-04-1.45021082E-04-1.46325545E-04 1.66264312E-05
 7 23 3.10576292E-03-1.98141156E-03 5.90865300E-04 8.76968167E-04-2.00102746E-04
 7 24-2.94942253E-04-1.25235807E-04-1.87958756E-04 7.89648406E-05 8.72673917E-05
 7 25-4.52888048E-05-2.55189752E-04 8.28262853E-05 7.96855808E-05-3.19510477E-05
 7 26 3.78324290E-04-5.33671100E-04-1.22919439E-04 2.24409276E-04-6.68615745E-05
 7 27-4.31268400E-05-2.69263024E-04 1.37417578E-04-2.29375375E-05 1.81818543E-06
 7 28-1.30741966E-04 8.93442205E-05 4.55076476E-06 8.04201350E-05-3.79904347E-05
 7 29-1.15903459E-03 2.31638113E-04 5.38315783E-04 2.47837679E-04 8.90060622E-07
 7 30-6.73022023E-05-7.52362664E-06-5.44885058E-07-5.28985968E-06 2.09293794E-05
 7 31-2.49034323E-05-1.09552875E-04 1.80631754E-05 4.19484761E-06 6.52766850E-07
 7 32 8.54672441E-04-1.29945733E-04-9.95125827E-05 3.76293736E-05-7.00746211E-05
 7 33-7.86514489E-05-5.85792895E-05 1.98887296E-05-8.65176827E-06-2.04575561E-08
 7 34-1.52582493E-05-5.37700048E-05 5.89765936E-06-3.49800304E-05 8.96584978E-06
 7 35 9.43135914E-05-3.90239411E-04 1.19964678E-04-7.52851508E-05-6.26963737E-05
 7 36-1.79044405E-05-8.81024851E-05-4.38344290E-05-9.51523772E-06-1.14307611E-06
 7 37-2.37830514E-04 1.23652388E-03-1.95727985E-05 3.13712494E-04-6.99422097E-05
 7 38-7.60488073E-03 2.18782299E-04-2.67844733E-03 5.49134506E-04 5.28526125E-04