!   hipposudoric acid...C16 O8 H8...by the RI-MP2 program of Katouda-san
!   there are 32 atoms, 84 occupied MOs, and 376 AOs for 6-31G(d)
!
!   This molecule was isolated from the sweat of hippos, in
!   a collaboration between Keio Daigaku and Ueno Dobutsukoen.
!   Its red color is believed to serve as a sunscreen for the
!   tender skins of the hippo, and also to inhibit bacteria.
!   Y.Saikawa, K.Hashimoto, M.Nakata, M.Yoshihara, K.Nagai,
!   M.Ida, T.Komiya   Nature 429, 363(2004)
!   Y.Saikawa, K.Moriya, K.Hashimoto, M.Nakata
!   Tet.Lett. 47, 2535-2538(2006)
!
!   FINAL E= -1209.3907501793, 3 iters, E(MP2)= -1212.8398735596
!
!   This run takes 143 seconds on a 2.66 GHz Cloverton ( 1 Apr 2015)
!   results have not changed since 2012.
!
 $contrl scftyp=rhf runtyp=energy nzvar=90 molplt=.true. $end
 $system mwords=2 memddi=0 $end
 $basis  gbasis=n31 ngauss=6 ndfunc=1 $end
 $guess  guess=moread norb=84 $end
 $zmat   auto=.true. dlc=.true. $end

 $contrl mplevl=2 $end
 $system mwords=30 memddi=50 $end
 $scf    dirscf=.true. $end

 $mp2    code=rimp2 $end
 $auxbas cabnam=svp $end
 $rimp2  othaux=.f. stol=1d-8 ivmtd=0 gosmp=.t. usedm=.t. $end
!
!   The AM1 optimized geometry is a mininumm energy structure
!
 $data
hippo sweat...AM1 structure
C1
C    6.0   0.1996275469  -0.8171580101  -0.1557307199
C    6.0  -0.0279450066   0.5552693142  -0.1699858073
C    6.0   1.2529098975   1.2297326783  -0.0450775771
C    6.0   1.6327882093  -1.0537747110  -0.0258352072
C    6.0   2.2705827095   0.1714660134   0.0473920840
C    6.0   3.6822898213   0.5064664607   0.1940109212
C    6.0   3.9833334994   1.9634379359   0.2176569891
C    6.0   3.0293015102   2.9049854802   0.1264559044
C    6.0   1.6181468259   2.5506921461  -0.0069546607
C    6.0  -1.3684833254   1.1338216153  -0.2943876172
C    6.0  -2.4688064994   0.1313157759  -0.3961804260
C    6.0  -2.2364354021  -1.1925174581  -0.3800279715
C    6.0  -0.8861833297  -1.7911842977  -0.2537863330
O    8.0  -0.7212737965  -3.0148190342  -0.2341358614
O    8.0  -1.5866232741   2.3497273391  -0.3165291028
O    8.0   4.5903517915  -0.3254144514   0.2990747251
O    8.0   0.6734901817   3.5169270021  -0.0943093102
H    1.0  -3.0665986235  -1.9233715456  -0.4520265094
H    1.0   1.1021862468   4.3889360236  -0.0511291892
H    1.0   3.2772733474   3.9792833682   0.1481572417
H    1.0   5.0511251567   2.2237739484   0.3173656359
C    6.0   2.2510287022  -2.3817616320  -0.0192226750
O    8.0   2.3583582635  -2.9419479847   1.2179890476
O    8.0   2.6741138132  -3.0321908574  -0.9763652043
H    1.0   2.7585172470  -3.8243175007   1.1335268349
C    6.0  -3.8344795900   0.7043053820  -0.5590458497
C    6.0  -4.8864719526  -0.0349686762   0.2077326959
O    8.0  -5.6479135817   0.7717264679   0.9981799925
O    8.0  -5.1744611238  -1.2351195126   0.1997535813
H    1.0  -6.3234100593   0.2418112422   1.4536744401
H    1.0  -3.8408914796   1.7869656315  -0.2443959506
H    1.0  -4.1233293334   0.6642717882  -1.6474433987
 $end


--- CLOSED SHELL ORBITALS --- GENERATED AT Wed Aug  4 10:51:15 2010
hippo sweat...AM1 structure                                                     
E(RHF)=    -1209.3907501794, E(NUC)= 1963.3783356674,   18 ITERS
 $VEC   
 1  1 2.02522868E-06 1.74309044E-05 9.20740387E-06-9.82570344E-06 5.71521171E-07
 1  2-7.93770192E-04-5.99045367E-04-7.17795789E-04-5.78781424E-05 2.71013774E-06
 1  3-1.82891495E-05 2.60672795E-06-1.04718843E-06-8.65794849E-08-3.85248517E-07
 1  4 4.75786790E-07-2.00324799E-05-2.68567479E-05 2.02782335E-05-2.30202514E-06
 1  5 4.68810830E-04 1.89279169E-03-8.59152272E-04 1.74164336E-04 5.12554313E-06
 1  6 2.80519734E-05 1.46499272E-06 8.20564824E-06 4.41739641E-07 9.01679792E-07
 1  7-7.60072252E-06-9.19655601E-06-5.73465938E-06-2.82528960E-05-6.74741279E-07
 1  8 1.10377860E-03 8.45251998E-04 2.32257138E-03 8.96633709E-05-1.45295185E-05
 1  9-3.09981232E-05-2.41757150E-05 3.25043927E-05 1.06030444E-06 2.84690308E-06
 1 10-2.41112501E-06-1.67299873E-05-6.05495206E-06-1.64960917E-05-5.43717773E-07
 1 11 1.21511182E-04-2.82468391E-04 2.26728403E-04-2.18257435E-05 1.01077225E-05
 1 12-2.27871332E-06-4.38371092E-06-2.25893878E-06 2.01043286E-06-5.31627302E-07
 1 13 4.73346017E-06 2.10811101E-05-2.26448445E-06 2.08541027E-05-4.46477007E-08
 1 14 9.48400453E-05-5.28292505E-04-1.74920967E-04-5.37058208E-05 3.00047821E-05
 1 15-1.44334734E-05 1.03918938E-05-1.12584079E-05 1.82596779E-06-1.03853546E-06
 1 16 3.62939469E-06 1.76609874E-05-6.60651652E-06 1.15387035E-06-5.89502649E-07
 1 17 1.45949837E-04-1.57058653E-04-2.97247980E-04-1.58531196E-05 7.55926092E-06
 1 18-4.38366897E-06 8.08186724E-06-8.15497815E-06 7.35374280E-08-8.79845419E-07
 1 19-4.04636393E-06-1.88765085E-05-4.12854012E-06 2.05890788E-05-3.79808535E-07
 1 20-2.17702857E-05-4.94102763E-05-2.81328448E-04-3.66506807E-06-2.47566172E-06
 1 21 2.35639055E-05-1.13029038E-05-1.86895561E-05 1.02557607E-06-1.92404237E-06
 1 22 7.00439246E-06 8.94561268E-05 3.36813432E-05-7.50295970E-06 3.07334289E-06
 1 23-8.00775616E-04 6.53039735E-04-2.47269472E-04 6.13221957E-05-9.38069845E-05
 1 24-1.99970106E-06 4.50850871E-07 5.74300881E-05-1.02244593E-05 5.49302366E-06
 1 25 8.82192104E-06 4.83563769E-04-2.61173913E-04 2.18295620E-04-2.41589700E-05
 1 26-1.71735210E-03 1.12796726E-03 2.02117520E-03 1.10325596E-04-4.50240799E-05
 1 27-1.00833346E-04-3.87010878E-05 3.88109000E-05-6.81377404E-07 3.53827665E-06
 1 28-2.02295742E-05-1.18221691E-04 1.83270403E-05-3.28833301E-05 1.76586622E-06
 1 29 1.32665863E-03 1.16235862E-03-4.83771958E-04 1.09531197E-04 1.65171548E-05
 1 30-4.00716214E-05-2.71903671E-05 4.19679700E-05 4.67257933E-06 4.16265121E-06
 1 31 6.01631423E-07 4.52585886E-06 3.79225429E-06-1.04765249E-05 5.14018895E-08
 1 32-1.33150157E-04-2.25456609E-04 4.52195522E-04-2.21385580E-05-1.08481456E-05
 1 33 4.35532082E-06 3.84993768E-08-4.98148526E-06-4.71778091E-07-7.97208523E-07
 1 34-1.80609544E-06-1.19366992E-05-4.30056568E-06 3.60457618E-06-3.27972915E-07
 1 35 3.27480731E-04 5.10634932E-06 2.79283987E-04 1.28229291E-06-1.67441937E-06
 1 36 4.39771751E-06-2.56297548E-06 1.38679517E-06 2.78953199E-07 3.61085791E-07
 1 37 5.69703710E-07 8.25193077E-06 3.30225598E-06-6.12120045E-06 2.18196355E-07
 1 38-4.34234376E-04-2.76608952E-04-1.16984425E-04-2.40121273E-05-5.18566896E-06
 1 39-5.31920084E-06 5.64253455E-07-2.20562479E-07-4.22034093E-07 1.08649411E-07
 1 40-1.02230363E-06-3.84099580E-06-1.46236786E-08 1.49186354E-06 1.00228305E-07
 1 41 4.14551344E-05 2.02169201E-05 2.04824640E-05 1.30974296E-06-6.28065064E-06
 1 42 1.31491210E-06 1.41748178E-07 9.86816736E-07-6.38595504E-07 2.46588823E-08
 1 43-6.17532423E-06 7.74577224E-05 8.70543001E-05 3.83044926E-05 8.57872238E-06
 1 44-1.71163014E-04-4.07687687E-04-2.48686482E-04-3.95006115E-05 2.62316737E-05
 1 45 1.42610436E-04 1.16398556E-04-1.67893321E-05-1.05835669E-05-1.78898921E-06
 1 46 4.79047922E-06 1.80577777E-05-1.54899530E-06-3.30104005E-06-3.02759952E-07
 1 47-1.29932502E-04 5.64692758E-05 1.04842774E-05 6.69987984E-06 4.46579783E-06
 1 48 1.70044374E-05 1.03473677E-05 3.75812660E-06-8.81954422E-07 3.63206634E-07
 1 49 9.94649545E-01 2.11842074E-02 1.50186295E-03 1.93961972E-04 1.43439722E-04
 1 50 3.81765573E-03-1.04089220E-03-4.11961389E-04-9.99506466E-05-4.10798639E-03
 1 51-4.15896729E-03-3.93210483E-03 1.04170521E-05-1.92989883E-05 1.80060379E-07
 1 52 4.59179331E-06 4.79948700E-05 5.30950936E-04-2.62738418E-04 2.35803753E-05
 1 53 1.06418092E-04 1.40864706E-05 3.63110044E-05 3.33143933E-07-2.87850622E-06
 1 54-2.23505793E-06 8.11132219E-06-1.08173214E-06 1.44094922E-04-9.01140350E-06
 1 55 1.04434858E-04-4.93463283E-07-1.06694793E-06 7.63704960E-06 3.35403931E-06
 1 56 6.85283765E-07-1.16845897E-06 8.62186773E-07-1.50329023E-06-5.32513094E-06
 1 57 1.23920009E-06-8.43762826E-07 1.73868833E-06 2.21680144E-05-6.06764926E-06
 1 58 1.33525403E-06-1.07995984E-05-5.01683205E-06-1.89288068E-06-2.44750780E-06
 1 59-6.56728813E-07 9.05152754E-07 1.17622464E-06-1.66009924E-06-6.07214609E-06
 1 60 1.82957388E-06 1.62820709E-07-1.44394052E-06 2.89580671E-05-7.83453316E-06
 1 61-7.64027121E-06 8.65264034E-06-4.79135149E-06-4.25408258E-06-3.82355428E-06
 1 62-1.41768236E-07-1.18341964E-06-2.00570402E-06-3.26725744E-07 8.00794916E-06
 1 63-3.16423013E-06-1.38277227E-05-1.30605993E-05-3.42376968E-07-2.50303508E-06
 1 64-1.20856998E-04-3.48748807E-05 4.30583464E-05-1.09958989E-06-4.24726484E-06
 1 65-4.62831011E-07-8.79343190E-06 3.60128866E-06 6.79843745E-07 1.61633407E-06
 1 66 9.30076434E-07 2.62408261E-06 2.43418518E-06 7.92602929E-07-5.64033306E-07
 1 67-9.20644469E-07 4.92112132E-06-1.80815285E-05-1.77296635E-05 8.98300985E-07
 1 68 2.44527478E-06 2.59210118E-06 3.97309730E-07-5.74505844E-07-3.39073389E-07
 1 69-8.29290399E-07-3.47358406E-06-7.23380053E-07 2.75456471E-07-1.93521741E-07
 1 70 2.23645906E-05 6.53618240E-06-3.57051894E-06-1.85851358E-06-1.39895566E-06
 1 71-2.32827382E-06-2.53383877E-06-3.36349465E-07-8.25124880E-08-1.79683033E-07
 1 72 6.18814365E-07 3.21345732E-06 6.69235373E-07-8.55325392E-07-8.16671780E-07
 1 73-2.00596798E-05-4.45871480E-06-4.76630865E-07 5.12607818E-06 2.11906613E-06
 1 74 2.30051634E-06 3.03958104E-06 4.19578740E-07 3.36676952E-07 4.34621590E-07
 1 75-3.53389840E-07 8.26783903E-07 1.03710769E-06-1.00880822E-05 1.43596948E-07
 1 76 2.29295187E-06
 2  1 6.56150224E-07 3.13828939E-06-2.77285436E-06-1.85857203E-06 1.04150024E-06
 2  2-3.64059471E-05 1.30179806E-04 1.14715664E-04 2.70384937E-06-1.70887173E-07
 2  3 1.00907728E-06 1.28113515E-06-3.46038686E-07 6.37558877E-08 2.04880616E-07
 2  4-3.45120405E-07-1.55067131E-06 1.86850968E-06 2.21578458E-07 3.78766716E-07
 2  5 5.29409133E-05-2.48319450E-04 4.74426396E-05-1.66518718E-05 2.74094824E-06
 2  6-2.96117515E-06-1.97446016E-07-4.62622286E-07-1.10620534E-07 8.04938675E-08
 2  7-1.47520046E-08-1.71131087E-06-2.55100836E-06 1.35624481E-06-5.86952525E-07
 2  8 9.44991061E-05-3.19162415E-05-1.12874695E-04-3.68859334E-06 1.15277291E-06
 2  9 1.29764050E-06 6.45076192E-07 3.04224106E-07 3.74143257E-07 1.05245149E-07
 2 10 1.07768650E-07 6.99835399E-07 1.46829808E-06-2.05723034E-07-2.49570451E-07
 2 11-4.43041646E-05 1.73672556E-05-2.90882269E-05 6.77754961E-06-5.87775029E-07
 2 12 2.25164921E-07 2.01419904E-07 1.05350855E-06-4.10396586E-07-2.96746102E-09
 2 13 2.69891601E-07 1.80323577E-06 3.44495060E-07-9.11547584E-07 1.64042024E-07
 2 14-2.75406478E-05 3.16345396E-05-2.23063769E-05 9.86491112E-07-5.60332907E-07
 2 15-2.62919873E-07 5.17369170E-07 1.20300457E-06-2.59790072E-08 3.19474589E-07
 2 16-1.19753145E-07-3.84575886E-07-1.85463104E-07-7.02824132E-07-7.26102049E-08
 2 17-7.38001827E-06 3.66347916E-06 1.84609628E-05 1.15553539E-06-1.72481417E-07
 2 18-3.39652146E-07-1.78215275E-07-3.05733083E-07-1.02807113E-07-5.03553254E-08
 2 19-5.14647946E-08-2.60443042E-07 8.91577130E-08 6.19258012E-07 4.09454312E-09
 2 20 1.53446766E-06-5.52015472E-06 8.70559838E-06-7.68206474E-07 1.46845498E-07
 2 21-1.63174585E-07-1.31159212E-07-2.26181744E-07 3.13825325E-08 1.55663441E-08
 2 22 3.33304827E-08 2.50856824E-07 7.69439716E-07-6.73827976E-08 3.64458190E-08
 2 23-1.12928852E-05-5.63394845E-06 1.10222266E-05-4.22436553E-07-2.40889488E-07
 2 24 4.12406970E-08-2.20503042E-08-1.16532466E-07-1.32629949E-08-2.61405846E-08
 2 25-2.79848460E-07-1.77887408E-06-7.65214442E-07-1.08788747E-06-8.88875904E-08
 2 26 6.00835196E-05 6.81318340E-07-3.72926126E-05 1.44260382E-07 1.59642012E-07
 2 27-2.54570037E-07-1.71953718E-07 6.79818032E-07 2.28742636E-08 9.79257160E-08
 2 28 5.14394547E-06 2.38760736E-05 1.24623456E-06 2.15158336E-06-3.72699365E-07
 2 29-1.99076310E-04-1.40828316E-04 2.28721812E-04-3.16368291E-05 6.99846428E-07
 2 30 1.00785910E-05 7.85578020E-06 3.22420410E-06 1.07904277E-06 7.94132378E-07
 2 31-3.05578510E-06-9.51738406E-06 8.73889698E-07 1.37086910E-06-1.00885525E-05
 2 32 1.58422224E-04 2.20353971E-04-2.24044566E-04 7.04297642E-05-8.56929421E-06
 2 33-2.45085419E-06-3.74582502E-06-3.15487369E-08-1.32619467E-06-2.47240607E-06
 2 34 2.05708475E-06 1.06174245E-05-5.75218111E-06 1.74120419E-06 2.36100974E-06
 2 35-1.89962118E-04 2.14891975E-05-2.14303773E-04-2.64723335E-05 4.92335880E-06
 2 36-4.99017878E-06 5.11607174E-06-3.16761628E-06 3.46514184E-07-4.39869607E-06
 2 37 1.84367639E-07 1.82059733E-07-1.44101316E-06-3.76583945E-09-1.02402353E-06
 2 38 8.39734166E-05 1.18650494E-04 6.16482092E-05 2.35922612E-05-9.53477571E-07
 2 39 2.86697151E-06 8.06759138E-07 9.64660325E-07-1.18698344E-06 1.61722463E-07
 2 40 5.47352833E-07 2.25986948E-06 3.94193944E-07 5.07897794E-07 2.24541909E-07
 2 41-3.71258141E-06-1.25328151E-05-8.68203211E-06-3.98942647E-06 2.28484835E-06
 2 42-1.08741899E-06 2.80626188E-06-1.36951861E-06-2.30338545E-07-7.63071850E-07
 2 43 5.77105542E-06 1.64912400E-05 7.17574751E-06-1.08283112E-06-2.27167658E-06
 2 44-1.36878502E-04-2.56801425E-05 4.34104384E-05 9.26178937E-06 1.02335564E-05
 2 45-9.06999568E-07 4.11036341E-06 2.47847310E-06-4.43065647E-07-1.38973836E-06
 2 46-1.86236104E-07-9.93328093E-07-1.23655227E-07-3.08156040E-08 1.20326377E-08
 2 47 8.79546379E-06-1.97011352E-06 3.30535742E-07-4.34200148E-07-5.96947838E-07
 2 48-8.16251600E-07-2.99296508E-07-7.63182353E-08-2.54588341E-08-5.39737640E-08
 2 49-3.56907921E-07-1.94559756E-06-2.65761545E-07 4.40248660E-07 1.00407268E-07
 2 50 1.13222981E-05 4.11887122E-06-2.51209855E-06 4.71719116E-08-7.86902577E-07
 2 51-1.11096716E-06-1.49630568E-06-3.39782966E-07 1.24279061E-07 1.18918239E-08
 2 52 4.51895413E-06-6.83644526E-05 5.91254120E-08 1.56723634E-06-4.58115718E-07
 2 53-2.32160124E-06 2.65042859E-07 1.24499400E-06 3.03913448E-07 1.18390859E-06
 2 54-4.69446018E-08 9.99578329E-08 3.55602811E-09-1.57535595E-05 2.78162456E-06
 2 55-8.93293146E-06-6.66726469E-06 6.58917157E-07 3.69004539E-07 3.73484810E-07
 2 56-1.28010720E-07-1.64082869E-08 1.04112351E-07-1.87329980E-07-6.41431562E-07
 2 57-8.70971786E-08-4.27534364E-08 2.20341980E-08 4.84379582E-06 3.21858916E-08
 2 58 1.37271369E-06-1.00435014E-06-2.63938533E-07-2.87301771E-07-4.44881219E-07
 2 59 9.88896657E-09 2.24855732E-08-2.71535353E-07 2.14686564E-07 1.01302450E-06
 2 60-9.71712006E-08-8.37666489E-08 4.24522059E-08-6.44387318E-06 9.36293132E-07
 2 61-1.37340510E-07-1.18967637E-06 6.72069091E-07 7.00385781E-07 5.35194832E-07
 2 62 4.75679882E-08 1.57317347E-07 4.12831266E-10-1.13776463E-07-3.35949839E-07
 2 63-8.08478736E-06-1.16768453E-07-4.51377087E-06-1.12848730E-05 6.21875860E-06
 2 64 6.82334842E-04 3.97902965E-05-1.25426810E-05 4.22725447E-05-3.81579836E-05
 2 65-1.85533775E-05-3.87256714E-05 1.01281624E-06 3.84635056E-05-8.87789720E-06
 2 66 1.82669092E-09 3.81018608E-04-1.74087334E-04 1.96823106E-04 1.80584395E-04
 2 67-2.18427119E-04-2.21210070E-04-6.10351781E-04 5.94648773E-05-4.42714957E-05
 2 68-9.67339831E-06-5.27234366E-05 2.79567293E-05 3.84025557E-06-1.43278069E-05
 2 69 9.94620164E-01 2.11745950E-02-1.34312051E-04-1.21963714E-03-1.31865201E-04
 2 70 4.26346558E-03 1.90744677E-04 5.84214176E-04-4.34510715E-05-4.12170318E-03
 2 71-4.10270077E-03-4.08248703E-03-1.09941418E-05 1.20136948E-04-1.49321479E-05
 2 72-3.42204719E-04 3.35578779E-05 1.66312920E-05-4.45342034E-05-2.61904212E-05
 2 73-4.37603513E-04 4.34071398E-06-1.18505245E-04-1.82820472E-05 2.34050543E-05
 2 74-2.69809443E-05 3.47701861E-06 2.28611268E-05-2.08071537E-05-2.39450505E-05
 2 75 4.24785494E-04-2.71041156E-04 3.57377690E-05-2.23471912E-04-2.19288875E-05
 2 76-3.61174359E-05
 3  1-2.79805889E-06-2.93957168E-05-3.32580446E-06-9.82694147E-06-3.53979818E-06
 3  2 3.16129851E-04 5.73952051E-04 3.02645418E-04 1.10650162E-04 8.40070620E-06
 3  3 1.34537088E-05-1.75743250E-06-3.93610592E-06 7.51812683E-06-5.69557304E-06
 3  4 7.99799767E-07 6.01412099E-06 6.04741838E-07 4.31205791E-06-4.50719667E-07
 3  5-6.78597841E-05-1.75733010E-04 1.57431221E-04-2.55760249E-05 1.79006821E-06
 3  6-7.43197896E-06 1.99684817E-06 6.74331079E-06 1.13907312E-06 2.75394328E-06
 3  7 1.30492862E-06 9.36060927E-06-4.61978159E-06 1.65715702E-06-4.48310616E-07
 3  8-5.91791956E-05 7.11452222E-06 1.63689320E-04-9.65080736E-06 1.46718125E-06
 3  9-6.47370374E-06 2.04979963E-06 6.00984905E-06-2.74547529E-06 1.22713634E-06
 3 10 1.73889040E-05 1.09035923E-04-7.14630227E-06 8.76492915E-06 1.78206378E-05
 3 11-6.76502049E-04 3.22172668E-04-6.80255493E-04-1.08642876E-04 7.34390840E-06
 3 12-2.58203820E-05 1.40957473E-05 1.37114459E-05-1.86049151E-05 3.84293173E-05
 3 13-3.00941820E-06-2.94100998E-05 8.83933930E-06-5.08226783E-06-4.77960285E-06
 3 14 3.83266789E-04-5.43542386E-04-3.16247145E-04 7.43161022E-06 9.12664643E-06
 3 15 1.17912742E-05-2.73765365E-06 1.77569884E-06 3.02051500E-06-7.31396281E-06
 3 16-6.31503285E-06-2.80362963E-05-8.20090811E-06-1.14959397E-06 1.36584848E-06
 3 17 2.99452133E-04-3.01037497E-04 1.38156846E-04-5.94514405E-05-1.04067049E-05
 3 18-5.09952485E-06-8.46208123E-06 4.20787815E-06 2.77225827E-06 5.78094288E-07
 3 19 1.26669436E-06 6.46148953E-06-9.08435789E-07 5.86938670E-06-1.90735177E-07
 3 20-1.72319814E-04 1.32035057E-04-1.48194551E-05 2.05417875E-05-1.95253928E-07
 3 21-4.29616941E-07 2.16670151E-06-1.59718618E-06-3.08917935E-07-1.40040567E-06
 3 22-1.08041730E-06-6.01659211E-06 4.34130292E-06-4.31894529E-07 1.52508402E-06
 3 23 1.08011327E-04 3.33415428E-05-7.09270503E-05-1.87236780E-06-4.11144550E-07
 3 24 7.88991080E-07-2.00362233E-06-1.84892582E-06-1.13866232E-08 3.75957756E-07
 3 25-2.54776669E-07 5.17090117E-09-3.52905105E-06-1.22656648E-07 5.28907333E-07
 3 26-1.04933026E-04 5.06029776E-05 3.62342047E-05 6.87049020E-06-1.45474697E-06
 3 27-9.21140315E-07-7.43770439E-07 1.66309106E-07-4.22408701E-07-1.95104015E-07
 3 28-2.66662691E-07-5.13810146E-07 2.61638364E-06 2.89886327E-06 7.25455544E-07
 3 29-1.04411227E-04-1.31138462E-04-1.54958246E-05-9.58636649E-06-2.33954010E-07
 3 30-1.79361636E-06-6.43134122E-07-1.68466803E-07 1.77438611E-07-1.10303680E-08
 3 31-1.02851112E-06-6.16497898E-06-2.77387521E-06-7.09976081E-07 1.00751819E-06
 3 32 1.40372714E-04 6.33688651E-05-1.81192745E-04-3.13708925E-06-2.12965084E-06
 3 33 3.24414180E-06-1.56908320E-06-3.12599775E-06-1.90805178E-08 6.88223972E-08
 3 34 2.46516087E-06 1.39184277E-05-3.35227804E-06 3.51492644E-06-9.20157656E-07
 3 35-3.03399261E-04-8.77597624E-05-1.86893030E-04 1.65696340E-06-3.38543697E-06
 3 36-3.12193563E-08 4.68791930E-06 6.63239970E-07 1.79577926E-07-4.63554549E-07
 3 37-7.84021547E-06-3.73395961E-05 6.42265545E-06 6.07191901E-06 4.02609316E-06
 3 38 3.63001173E-04 7.69076327E-05 3.98913019E-04-2.06233226E-05-1.47791804E-07
 3 39-1.48038500E-05-1.09203410E-05-2.08645079E-06-3.29465438E-08-2.80809713E-06
 3 40-3.68450603E-05-4.25773575E-05 7.21224941E-06-3.12775527E-06 8.36975628E-07
 3 41 2.66833397E-04-3.80147002E-05 7.49054500E-05 1.14730708E-06-1.85043711E-05
 3 42-9.05352083E-06-2.02552772E-05-3.73716636E-06 5.16385756E-07 6.20250757E-07
 3 43-6.59225544E-07-3.51766565E-06 4.90666512E-07-2.68322492E-07-2.92212899E-07
 3 44 2.57738309E-05 1.18449170E-05-6.27872482E-06 1.53034188E-06-2.66637260E-06
 3 45-1.38303335E-06-1.49338715E-06-1.63296829E-06-8.84683922E-08-1.51204047E-07
 3 46-3.77094475E-05-4.02258496E-05 5.05775392E-07-5.02782596E-06-7.04103365E-07
 3 47 2.43744315E-04-3.99323544E-05 5.83105590E-05 2.97178740E-06-1.75789805E-05
 3 48-1.60132761E-05-2.36623621E-05-5.01370892E-06-6.51512355E-07-3.01297867E-07
 3 49-2.54231372E-07-3.52941749E-06-6.75728511E-07-6.98194583E-07-4.92171312E-07
 3 50 2.71393806E-05 7.28249711E-06-6.26438114E-06 1.27709277E-06-1.34773177E-06
 3 51-1.57546037E-06-1.06453932E-06-9.94408621E-07-8.57423678E-08-2.32767112E-07
 3 52-7.62309818E-06-4.00427831E-05-2.38473261E-06 2.52241375E-06 1.83993507E-06
 3 53 1.35671241E-05-6.03719980E-06-2.80508044E-05-2.04287051E-07 3.88963795E-04
 3 54 2.33990642E-05-1.23234777E-04 2.96287980E-04-3.73475314E-04 2.53961818E-04
 3 55-5.09487538E-04-2.60087395E-04-4.17112926E-05-2.96326425E-05-3.96498697E-05
 3 56-1.46980748E-05-1.74131497E-05 3.36944874E-05 9.94630281E-01 2.12072692E-02
 3 57 3.42930597E-04-4.94751507E-04-1.08643032E-03 4.05662257E-03-1.98686335E-04
 3 58 3.23872455E-04 4.89081695E-04-3.98989659E-03-4.13062863E-03-4.10730103E-03
 3 59 8.07525463E-05-7.97838440E-06 5.79303087E-05-3.61001428E-04 2.70851369E-05
 3 60 2.87045953E-06 6.99960387E-06-5.55815265E-05-3.62890257E-04 2.21290259E-05
 3 61-9.44966660E-06-9.94780499E-05 2.76899769E-06 3.74717742E-05-4.33120690E-05
 3 62-2.12396798E-05 8.35460593E-06-4.30618617E-06 4.22355471E-04-2.88324319E-04
 3 63-1.58829263E-07-1.56451454E-06 2.06425270E-06-3.31950017E-07-1.08494463E-06
 3 64 5.69624096E-05 2.57904785E-05 1.22173088E-05 1.63235025E-05 2.01703499E-06
 3 65-1.06836523E-06 2.10266117E-08 2.16564440E-06 6.09583984E-07 1.74481641E-07
 3 66 3.43148181E-07 1.55104852E-06-8.94215634E-08-7.82893997E-07 3.29681453E-07
 3 67 3.13077822E-06-1.26731907E-05 1.60449068E-06 1.46913189E-06-4.31994572E-07
 3 68 3.67103847E-07 1.47502666E-06-8.02858109E-07-2.14472426E-07 3.59240473E-07
 3 69 5.18720749E-07 2.12782811E-06 1.40839841E-07-3.41130322E-08-4.84325371E-07
 3 70-1.14262922E-05-1.78539751E-06 2.58355116E-06 4.00777328E-06 1.20267380E-06
 3 71 1.23787467E-06 1.11571804E-06 1.48737138E-07 4.38164894E-07-6.75538060E-07
 3 72 2.97095501E-07 1.02093717E-06 1.94988315E-07 3.79477979E-07 1.31879091E-07
 3 73-4.67837257E-06 1.52556698E-06-3.06327802E-06-9.06030507E-07 6.05775225E-07
 3 74 4.17062681E-07 1.46132088E-06 6.79946517E-08-1.66718306E-07 6.58202081E-08
 3 75 1.35820229E-07-1.19746285E-06-2.47737965E-06-1.10891158E-05 6.15962273E-07
 3 76 5.93325749E-06
 4  1-6.35945147E-07-4.45191828E-06-2.79434232E-06 3.70052647E-06-7.55610130E-07
 4  2 1.98875778E-04 1.44343147E-04 3.81745798E-05 1.85790589E-05-1.48113266E-06
 4  3 1.53093940E-06-8.68808407E-07 1.59023302E-06 4.15044575E-07 1.30584536E-07
 4  4 1.37193569E-06 9.63136696E-06 2.66571310E-06-2.28807986E-07 2.28868862E-07
 4  5-1.72976367E-04-2.75013946E-04 4.91713265E-05-2.70444251E-05-6.07880973E-06
 4  6 2.19298477E-06 1.55896413E-06 1.95230328E-06-7.75893445E-07 3.97400510E-07
 4  7-6.81609860E-07-8.84508200E-06 1.26409177E-05 9.58666122E-07 9.59964199E-07
 4  8 2.34408131E-04-4.55874686E-05-3.77294405E-04-5.87167121E-06 2.26997787E-06
 4  9 1.84353853E-05 1.38900581E-06-1.43301918E-05-3.11977282E-07-1.12777286E-06
 4 10-3.49213228E-06-1.75983858E-05-1.22941262E-05-2.17098274E-05-4.95321263E-07
 4 11 5.81413965E-05 2.42013736E-04-3.11225494E-05 1.07361230E-05 3.18424996E-06
 4 12-2.12429966E-05-5.32663409E-06-1.05375185E-05-4.46831448E-08-4.41885303E-07
 4 13 6.03068838E-06 3.21570100E-05-2.10185684E-05 1.02309811E-05-2.24579061E-06
 4 14-6.41490027E-04-1.84386837E-05-1.37231963E-04 8.90471898E-07-2.48519686E-05
 4 15 2.89914983E-05-7.96371136E-06 7.98836288E-05-2.69712243E-06 7.42635853E-06
 4 16-1.19290790E-05 4.62710418E-04 5.45368909E-06 6.33327525E-06 8.65398839E-07
 4 17-3.31369085E-05-6.46690542E-04 5.60830132E-04-7.38812165E-05-4.35813592E-04
 4 18-3.67772639E-04-6.28067681E-05 3.98598083E-04-5.02872207E-05 4.60399803E-05
 4 19-1.81915557E-07 2.03985961E-05-9.92046977E-06 2.67981096E-05-1.34488028E-06
 4 20-2.70816597E-04 2.07419249E-04 7.52127933E-05 2.10330878E-05 4.36290960E-06
 4 21-5.47570470E-05-1.78001007E-05 5.35681636E-05 2.51880828E-06 5.77377150E-06
 4 22 1.76679280E-06 1.09249784E-05 1.86232535E-05-1.61226235E-05 1.76525878E-06
 4 23 1.75681368E-04-3.34985363E-05-4.09256900E-05-3.79136360E-06 2.54921976E-05
 4 24-6.29004799E-06 4.55506395E-06-1.50490993E-05 2.16156730E-06-1.29963895E-06
 4 25 2.44444014E-06 6.21047657E-06 4.94970543E-06-7.07142336E-06 5.24889502E-07
 4 26 1.62794782E-04-1.61242709E-04-6.02851253E-05-1.55748800E-05 2.55576953E-06
 4 27 7.73795181E-06 7.13321392E-06-1.21162932E-05-5.57760911E-07-1.08357418E-06
 4 28 9.70539636E-07 5.94954832E-06-2.74223399E-06 2.68505900E-07-2.08208850E-07
 4 29-1.47497906E-04-5.37533746E-05 6.50185395E-05-4.47481927E-06 1.52119938E-07
 4 30-6.56023634E-07 1.44011785E-06 1.35752491E-08-1.06368972E-07-1.12104665E-08
 4 31-1.79986277E-07-1.47867654E-06 1.03754574E-06 7.50608973E-07 2.98411995E-07
 4 32 4.20712989E-05 1.45427902E-05-2.28610522E-06 2.02396824E-07 8.57195776E-07
 4 33-8.59724501E-08-2.52956040E-08 6.15778006E-07 8.87906670E-08 7.42737763E-08
 4 34 5.56973369E-08 1.96207015E-07 5.55057924E-08 1.09587667E-07-5.17309660E-09
 4 35-1.69871810E-05-4.33742584E-06-1.14788609E-05 4.25723242E-07 3.65376582E-07
 4 36-9.60796844E-08 8.26963734E-09-1.98431545E-08 1.17631956E-07-2.21427936E-08
 4 37-1.55513502E-07-3.59436728E-07-5.69226827E-07 8.43025012E-07 1.54708984E-07
 4 38 4.39016288E-05 1.03403959E-05 2.46199155E-05-1.43096492E-06-1.46794729E-06
 4 39 8.66703661E-07-3.61878459E-07-3.12235947E-07-2.74300440E-07-1.63403369E-07
 4 40-8.57558928E-07-8.32074647E-07 2.84799506E-07-3.53955923E-07-5.75304248E-08
 4 41 6.85730290E-06-2.82112712E-06 1.05728802E-06 3.63043817E-07-7.46491193E-07
 4 42-6.94892945E-07-4.47203929E-07-8.57134820E-09-9.54706638E-08 1.16735473E-07
 4 43-1.38816337E-05 3.99940443E-06-6.67251882E-07-5.94592554E-07-5.78306596E-08
 4 44-2.81590631E-05 4.02550686E-06 4.79727818E-06 2.40247980E-07 2.17260164E-06
 4 45 2.74445203E-06 2.48279137E-06-5.91280879E-07-1.13745574E-08-2.87734231E-08
 4 46 9.94706042E-01 2.08536124E-02-1.10586525E-03 1.02488658E-03-1.26464428E-04
 4 47 4.67687709E-03 4.11853812E-06-2.56132152E-05-8.47357091E-07-3.75560543E-03
 4 48-3.76609876E-03-4.18163753E-03-1.32789742E-04 5.50218932E-05-1.88303018E-05
 4 49 2.26626900E-06 1.33851878E-05-1.31668904E-06-3.52899941E-07-1.68856219E-07
 4 50-9.31097850E-05-1.04836774E-05 3.25591360E-05-7.59408221E-07 8.63438527E-06
 4 51 4.59369031E-06 7.27956436E-06 5.99357830E-06 1.76154264E-07 5.46092881E-07
 4 52-3.95106316E-07-2.00462178E-06-7.13350934E-08 2.06165100E-07 1.63135956E-06
 4 53-1.69422825E-06-6.91772924E-06-8.06416725E-05 9.73411251E-06 2.80948590E-05
 4 54 1.99193200E-05 2.25973622E-05 6.49682825E-06-4.69129087E-04-1.59921213E-04
 4 55-2.02875812E-05-2.85798636E-06 3.78235421E-05 1.10942751E-05 5.23954304E-06
 4 56 1.05973523E-05 6.40471609E-06 1.75801587E-06 2.30818697E-05-3.42564056E-05
 4 57-5.73042904E-06-6.30885126E-07 3.72109237E-06 1.95892023E-04 3.77229712E-05
 4 58 2.56122909E-05-7.29698223E-05-1.95719452E-05-1.79647405E-05-1.33986063E-05
 4 59 3.28802282E-06-8.48428847E-06-7.26846977E-06-2.23089681E-05-4.62818663E-05
 4 60-5.67925777E-06-3.40683396E-06-5.28118705E-06 2.77675419E-04 1.29216528E-05
 4 61 6.02402582E-05 8.73678253E-05-3.15780858E-05-2.49673198E-05-1.99854668E-05
 4 62 3.11205312E-06 3.82205433E-06 1.11997256E-05-1.12979017E-05 3.11687951E-06
 4 63 3.60215804E-07 1.79052203E-06 4.76471106E-07 3.48465864E-07 1.35020682E-07
 4 64-5.00553051E-06-8.33600848E-06-3.48756761E-06-4.38072493E-07-2.91701802E-07
 4 65 5.30964523E-07 8.17177679E-07-7.31304167E-08-2.78092740E-07-2.11128234E-07
 4 66 1.95703743E-09 2.75683089E-08-2.77008753E-08 4.01179880E-08-6.32605910E-08
 4 67-4.27693763E-06 6.98949769E-07-4.86059278E-07 2.26502489E-06 1.96013386E-07
 4 68-1.29765455E-07-1.59564415E-07-3.65888237E-08 1.19684321E-07 8.39352224E-08
 4 69-7.38786276E-08-1.50397108E-07-1.36967373E-08-1.98909735E-08 7.32182736E-08
 4 70 8.04715589E-07-2.83798326E-08-8.50844518E-08-5.61519624E-07-1.30236820E-07
 4 71-1.66375597E-07-7.84880574E-08 2.68317604E-08-1.33486367E-08 1.29020652E-07
 4 72-6.04271445E-08-3.28859549E-07 1.55962584E-08-3.20054766E-08 1.21297603E-07
 4 73 1.84617183E-06-7.62269051E-08 6.88210678E-07-6.51371607E-07-2.39045689E-07
 4 74-8.92686578E-08-3.23777792E-07-2.51490237E-08-1.67717420E-08-9.31925175E-08
 4 75 2.09888809E-08 7.42802435E-09 8.63232456E-07 5.58858532E-08 1.33799792E-07
 4 76-2.65040664E-07
 5  1 7.95238721E-07 2.72313427E-06-1.34781960E-05 1.73035851E-05-1.69402158E-06
 5  2 3.93249257E-04 3.32223750E-04 4.28277783E-04 3.62941262E-05-9.83160359E-06
 5  3 3.21230238E-05 3.21987458E-06 8.45600527E-06-1.31672148E-06 1.20481292E-06
 5  4 2.90604585E-06 2.54073923E-05 1.92124697E-05-2.28932920E-05 1.92170625E-06
 5  5-6.07431623E-04-6.02547261E-04 3.97763271E-04-5.84700452E-05 4.19305665E-05
 5  6-6.29915315E-05-1.10082054E-05 5.00549635E-05 5.89785312E-06 4.34905311E-06
 5  7-8.58858502E-07 1.27493216E-06 1.43490594E-05 1.48876430E-05 1.62078246E-06
 5  8-1.48218811E-04-3.07112731E-04-7.61545616E-04-3.21005508E-05-3.20621457E-06
 5  9-1.69386405E-05-1.40107485E-06-1.15722399E-05-4.68947026E-07-1.17441907E-06
 5 10 1.81690809E-06 1.20534371E-05 4.90143458E-06 5.10220195E-06 7.51059582E-07
 5 11-1.31838480E-04 1.21920927E-04-1.39121968E-04 6.49872283E-06-2.29481870E-06
 5 12-1.74090994E-06 2.93426828E-06 5.28903634E-06-6.04592546E-07 5.51395735E-07
 5 13-4.03984842E-07-1.87706789E-06-1.54248159E-06-7.67381697E-06-3.40087441E-07
 5 14-8.22358979E-07 2.27115118E-04 2.98849590E-05 2.39508228E-05-3.59855896E-06
 5 15 1.74660327E-06-5.45849771E-07 4.93573386E-06-2.38092937E-07 3.19606066E-07
 5 16 2.39760738E-07 2.97074654E-06 8.24547185E-07-2.02728240E-06 1.30434635E-07
 5 17-1.21509276E-04 1.01924725E-04 8.51112842E-05 1.00842523E-05-3.19830053E-06
 5 18-2.28204200E-07 3.29162539E-07-2.09169566E-07-4.56428749E-07-8.71270211E-09
 5 19-3.47379968E-08-5.66745103E-07-8.05195443E-07 6.83758483E-07-6.67977535E-08
 5 20 1.00444451E-04-6.13589018E-05 9.49372511E-05-6.15095895E-06 5.29737392E-07
 5 21-8.05279449E-07 4.86449142E-07-3.84154974E-07-1.14645518E-09-1.18614029E-08
 5 22-6.83341470E-07-5.16217580E-06 3.28830349E-06 2.36306734E-07 3.28593955E-07
 5 23 9.88890202E-06-1.54803889E-04 1.45788777E-04-1.45478543E-05 3.17383807E-06
 5 24-1.48511422E-06-2.03921181E-06-4.57219055E-06 5.43490983E-07-4.31053479E-07
 5 25-6.64882785E-06-3.22347562E-05 9.69320973E-06-1.50277053E-05 8.67501083E-07
 5 26 5.57939675E-04-1.42236885E-04-5.85791856E-04-1.45982854E-05-6.92828939E-06
 5 27-7.45610793E-06-9.79435175E-06 1.79725367E-05 3.67424406E-07 1.66768291E-06
 5 28-3.51311176E-06 5.02051230E-04-1.72877181E-06 8.21205297E-06-1.03712741E-06
 5 29-5.12502221E-04-2.89448321E-04-6.02398946E-04-1.82692584E-05-8.16111744E-05