!   catnip...C10 O2 H14...6-31G(d) has 208 AOs, 26 atoms.
!   Converted from closed shell to have a UMP2 timing test,
!   the triplet UHF occupies 46 alpha and 44 beta orbitals.
!
!   The test case runs Michio's RI-MP2 program selecting its
!   most complicated memory usage, and two non-standard ways
!   of decomposing matrices.
!
!   FINAL E= -536.3980029506, in 2 iters.
!   resolution of the identity: E(MP2)= -537.9770694821
!   fully accurate calculation: E(.P2)= -537.9771030826, RMS= 0.040832474
!
!   This run takes 41 seconds on 2.66 GHz Cloverton (31 Mar 2015)
!   results from this test have not changed meaninfully since 2010.
!
!   RI  energy   code is   38 s.conds on 2.66 GHz Cloverton (8 Jul 2010)
!   DDI gradient code is 1226 s.conds.
!   DDI energy   code is  266 s.conds.
!
!   to scan all 16 possible code pathways, copy this file to 'template.inp',
!   and run the following script (on our IB cluster using two 8-way nodes):
!            #!/bin/csh
!            #
!            foreach aaa (f t)
!            foreach bbb (0 2)
!            foreach ccc (f t)
!            foreach ddd (f t)
!               sed -e "s/aaa/$aaa/g" \
!                   -e "s/bbb/$bbb/g" \
!                   -e "s/ccc/$ccc/g" \
!                   -e "s/ddd/$ddd/g" \
!                   template.inp > catnip.inp
!               rungms catnip 00 16 8 >& catnip.$aaa$bbb$ccc$ddd.log
!            end
!            end
!            end
!            end
!
 $contrl scftyp=uhf mult=3 mplevl=2 runtyp=energy nzvar=72 $end
          next two are for code = DDI, energy or gradient run:
-----  $system parall=.t. mwords=10 memddi=310 $end
-----  $system parall=.t. mwords=6  memddi=105 $end
          next is for code = RIMP2
 $system parall=.true. mwords=10 memddi=11 $end

!   default STOL using diagonalization for orthogonalization of auxiliary
!   basis set changes the result by about 2-3 microHartree.
 $mp2    code=rimp2 $end
 $rimp2  othaux=.true. stol=1d-8 ivmtd=2 gosmp=.false. usedm=.false. $end
x$rimp2  othaux=.aaa. stol=1d-8 ivmtd=bbb gosmp=.ccc. usedm=.ddd. $end
 $AUXBAS CABNAM=SVP $END

 $basis  gbasis=n31 ngauss=6 ndfunc=1 $end
 $guess  guess=moread norb=0 $end
 $zmat   dlc=.t. auto=.t. $end
 $scf    dirscf=.t. $end
 $data
catnip...RHF/6-31G* structure of correct stereochemistry
C1
C           6.0  -0.6138320650  -0.3109749649   0.7109401155
H           1.0  -1.5703496666  -0.5652480673   1.1211148063
O           8.0  -0.6498824543  -0.4152344023  -0.6544969777
C           6.0   0.4344253454   0.0305401795   1.4272907442
C           6.0   0.3649992010   0.0897958386   2.9301209993
H           1.0  -0.6251006582  -0.1599673653   3.2938474594
H           1.0   1.0700918950  -0.6017485658   3.3824667677
H           1.0   0.6141357857   1.0848055857   3.2896948295
C           6.0   0.4100373163  -0.1338937881  -1.4224545764
O           8.0   0.3563235095  -0.3794782542  -2.5788950634
C           6.0   1.7288536010   0.3918271981   0.7543185190
H           1.0   2.0532292282   1.3510093472   1.1526844221
C           6.0   1.6066184498   0.5434096388  -0.7817399074
H           1.0   1.4724847821   1.5931668669  -1.0297616876
C           6.0   2.8957230834  -0.5931944674   0.9505917688
H           1.0   3.3377025340  -0.5290105910   1.9387592862
H           1.0   2.5509782364  -1.6148724699   0.8083578337
C           6.0   2.9416781895   0.0180489608  -1.3877354026
H           1.0   2.7452912255  -0.9507946118  -1.8335644443
C           6.0   3.5266448766   0.9204402189  -2.4692123365
H           1.0   4.4614683564   0.5151580282  -2.8452169986
H           1.0   2.8413216634   1.0127414076  -3.3037993474
H           1.0   3.7294624060   1.9157154773  -2.0809764324
C           6.0   3.8550433295  -0.1953367439  -0.1702611164
H           1.0   4.3602789523   0.7323648499   0.0915316667
H           1.0   4.6223403561  -0.9379063067  -0.3616535727
 $end

--- OPEN SHELL ORBITALS --- GENERATED AT Mon May  3 11:05:24 2010
only 46 alpha and 44 beta occupied orbitals are given, to save some space.
 $VEC   
 1  1 1.75668907E-05 8.48571233E-05 1.34550194E-05 3.53052134E-06-4.79914786E-05
 1  2-4.36127487E-04-4.57274887E-04-1.20035134E-04 1.11744161E-04 3.29950937E-06
 1  3 3.53121131E-05 4.37837213E-05-1.09219529E-05 3.86175191E-05 1.20900189E-05
 1  4-1.80113261E-05-1.92355273E-04-1.50867454E-04-8.97650025E-05-3.13104516E-05
 1  5 2.37834961E-06 5.45330015E-05 3.15897736E-04 1.00405717E-04-1.77117667E-05
 1  6-1.80582165E-04 9.48557603E-07-7.65101792E-05-1.39048091E-04 4.13083953E-05
 1  7 2.45645407E-05-6.58338142E-07-5.61385290E-07-1.21359741E-05 4.29468227E-06
 1  8-8.37588580E-07-2.23300519E-05 5.17254553E-04-5.16375992E-05-6.27606818E-05
 1  9-1.27691672E-04-1.17558195E-05 2.93213396E-06 1.99127203E-05-1.45346834E-05
 1 10-1.73327148E-06 2.16204291E-06 2.73717977E-06 1.51355585E-05-3.08737276E-06
 1 11-1.38105468E-06 4.53404828E-06-7.26161032E-05 2.63139045E-05 2.24777679E-05
 1 12 3.03486498E-05 5.02247972E-06 5.43230428E-06-6.62092027E-06-1.86864193E-07
 1 13-8.49175504E-07-2.30826234E-06 4.59696943E-06 2.37050855E-05 3.23902862E-06
 1 14 2.71994215E-06 1.04378438E-06-5.20786228E-06-1.71893246E-05 5.02666569E-04
 1 15-1.69716988E-06 2.12632361E-05 6.09634295E-05-1.32374991E-03 3.07127902E-04
 1 16 4.68008376E-04 1.76109009E-03-6.59446334E-05-1.36390020E-04-9.55575265E-04
 1 17 1.28710237E-05-2.03880447E-05-1.97400894E-04 9.94090702E-01 2.24747340E-02
 1 18 5.26323358E-05 3.42200227E-04 1.59510663E-03 7.52846900E-03 1.14033215E-05
 1 19 9.03399942E-05 4.94594299E-04-4.71042826E-03-4.80611339E-03-4.61418668E-03
 1 20 7.49008916E-05 1.71423237E-05 5.48638701E-05 9.81142032E-06 3.75446923E-05
 1 21-8.09807243E-06-1.83077120E-05-2.76365688E-05-1.00653692E-04 5.55022608E-05
 1 22 2.34819946E-04-7.16958657E-06 3.71982003E-06 2.36800233E-05 2.72493934E-05
 1 23-3.12945544E-06-6.60323203E-06-1.00233631E-05-2.08711894E-05-8.31397112E-05
 1 24 2.85525574E-06 2.50232450E-05 1.43693652E-05 1.41539919E-05 3.73297787E-05
 1 25-3.63538894E-04 3.35579095E-04 2.40940629E-05-2.42375613E-04 1.94769309E-05
 1 26-1.13564562E-05-3.42380876E-05 5.35815994E-06-3.16511848E-05-1.48216519E-05
 1 27 1.66227225E-05 1.66736453E-05-2.79061529E-06-1.68488943E-05-2.24862784E-06
 1 28 5.93947757E-06-2.80227365E-06 1.82995499E-04-7.83498334E-05-1.37224946E-05
 1 29-5.05741983E-05 5.66714823E-06-5.28425956E-06-1.88899720E-06 8.93850142E-09
 1 30 2.53767173E-06-5.01364190E-07-9.87966961E-07 1.26991334E-05-1.30220794E-05
 1 31-3.52469809E-05 5.40630339E-06 8.42376145E-06-1.78947632E-05 8.30068100E-06
 1 32-1.98019291E-05-1.18983022E-04 1.62905549E-04-1.49290616E-04 1.40281325E-04
 1 33 1.98357113E-05-9.99958206E-07 2.38536768E-05 1.07910122E-05 1.80341906E-05
 1 34-5.71093650E-06 3.39475435E-05-5.67280105E-05-6.58587269E-06-2.79559828E-05
 1 35-8.42723691E-06-7.50792162E-06 1.61166937E-05 2.75652015E-04-5.74748572E-05
 1 36-1.31090955E-05-5.08206422E-05-9.96521341E-07-1.18044961E-05-1.53168184E-05
 1 37 7.70815773E-06-1.47985197E-06 4.92134113E-06-1.15125390E-05-2.82422532E-05
 1 38 2.42857279E-05-1.61935240E-04-6.92073965E-06-1.75938391E-05 4.84176711E-06
 1 39 2.79198446E-05 2.11365410E-06 7.05545954E-07 3.46999092E-06-2.12312956E-04
 1 40 8.39972561E-05 1.33854016E-05 6.41738730E-05-1.18592184E-06 9.04316697E-06
 1 41-1.91880193E-06-1.08916110E-06-6.63628411E-06-1.63980874E-06 4.06430457E-06
 1 42-2.70820024E-06 6.48192982E-06 1.76633394E-06
 2  1-9.59594450E-06 2.76448399E-04-4.14541146E-06-3.03151640E-05-4.04738955E-04
 2  2 1.02861710E-03 1.08668146E-03 3.67609412E-04 6.15328499E-04-1.58505315E-06
 2  3-5.96225396E-05 4.00673393E-05 2.31952415E-05 2.46156438E-05 1.24312911E-05
 2  4 2.64484290E-05 2.40168546E-04 9.94552109E-01 2.14391236E-02 1.12454770E-03
 2  5 3.92753985E-04 4.63468266E-04 4.39095496E-03-8.26192463E-04-3.20766230E-04
 2  6-3.93407259E-04-4.20714290E-03-4.04106221E-03-4.32354947E-03-8.93174507E-05
 2  7 2.86879764E-05-1.12821727E-05 1.50566078E-05 1.17128402E-04 1.45930170E-05
 2  8 5.46832561E-06 3.44429087E-05-1.45775952E-03 7.40408493E-04 2.34928463E-04
 2  9 6.73562050E-04-9.27814224E-06 1.17104189E-05-6.32091128E-05-1.36221321E-05
 2 10-5.46285413E-05-2.08820310E-05 7.32765523E-07 2.91198192E-07-3.85236775E-06
 2 11-1.08769484E-06-1.34811298E-05-1.16770142E-04-1.23938094E-04-3.02453272E-05
 2 12 7.65560814E-05-2.12630275E-06 2.24800729E-06 1.64990685E-05-1.41408227E-06
 2 13 9.13853111E-06 2.93466514E-06 5.93086333E-06-1.00915842E-04-5.53652830E-07
 2 14 1.63751001E-05-9.48710704E-08 1.57588832E-05-1.25755481E-05 3.37832664E-04
 2 15-3.41734900E-04-9.20703433E-05 2.10216019E-04 1.11607906E-05 7.78006665E-04
 2 16 4.62382848E-04 8.69190268E-04-4.71573909E-05-7.22936373E-05-6.67078838E-05
 2 17 2.47894751E-05 4.89855093E-05 2.89484024E-05 9.79585641E-05-1.55376193E-04
 2 18 3.12731069E-05 4.41825934E-06-4.15751872E-05 1.08955417E-03-5.13037497E-05
 2 19 3.03581204E-05 2.40724688E-04-1.25671337E-04-1.04166058E-04-1.31824255E-04
 2 20 4.79242165E-06 5.49941481E-05 1.88328838E-05 1.06246966E-06 2.32281138E-06
 2 21-6.60378780E-06-5.68594236E-06-5.52306507E-06 1.48796519E-04-1.53523920E-04
 2 22 9.80553573E-06-3.35146083E-04 3.26493400E-06 2.18734576E-06 5.39737639E-07
 2 23-2.46260946E-06 1.25062798E-05 5.85028143E-06 3.95933858E-06 1.42188024E-05
 2 24 2.16821664E-05 1.56265769E-04 4.93546799E-05 1.12036526E-05 5.84926405E-06
 2 25-1.30224497E-03 3.68052927E-04 3.36398007E-04-6.15388052E-05-6.12180664E-05
 2 26 4.99204732E-07 2.27057779E-05-3.84223947E-05 1.62704153E-06 4.52998419E-06
 2 27 3.24935053E-05-4.38807508E-05-7.49017506E-06-3.21682317E-05-1.27375681E-06
 2 28-6.46920973E-06-4.20145438E-07 2.56121995E-04 1.59308110E-05 1.09609550E-04
 2 29-1.74437306E-05-1.22986219E-05-1.00336448E-05-6.14877347E-06-1.37295463E-06
 2 30-1.89286885E-06-1.44451390E-07-1.37387170E-05-1.85295224E-05 3.52523472E-06
 2 31 8.45679153E-06-9.26684546E-07-1.60502021E-05-1.46385226E-05 3.50392460E-06
 2 32 5.00161590E-06 1.48476364E-04-6.71520932E-05-2.86375896E-05 8.18728372E-05
 2 33 1.40085090E-05 4.04666079E-07 9.64756525E-06-7.60368553E-07-7.91879305E-06
 2 34 5.03548770E-08-3.52009756E-06-1.85229722E-05-2.51977264E-07 1.12055692E-06
 2 35-3.57772380E-07 5.87118043E-07 3.58197428E-07 3.14960895E-05 1.46133296E-05
 2 36-1.80572662E-05-6.37606165E-06-1.71406164E-07-9.69189580E-07-4.55104348E-06
 2 37-1.03797912E-06 3.17020349E-06-4.04926356E-07-2.65257067E-06-1.18943025E-05
 2 38-8.83232711E-07 2.11057004E-06 3.53470687E-06-5.89148099E-06 4.61555719E-06
 2 39 2.43212758E-05 4.00037457E-06 5.62433613E-06 2.25456051E-06-1.97737359E-04
 2 40 8.56001415E-05-4.33300530E-05-4.75276128E-05 2.25617724E-07 5.71405810E-06
 2 41 2.70095252E-06-6.79068707E-07-1.40364498E-07-2.52813040E-06 1.58487964E-05
 2 42 1.75636160E-05-5.79032786E-08-1.85363905E-05
 3  1-2.37845703E-03-6.50538430E-04-1.05773301E-04-2.32030352E-05 1.64557521E-04
 3  2 3.77088604E-03 3.98611010E-03 1.10226515E-03 2.01031253E-05 5.81770523E-06
 3  3-1.94554260E-04 3.65300987E-05 6.83343100E-05-7.33885742E-05 5.34802289E-06
 3  4 2.01524806E-04 1.45742586E-03-6.90209590E-05 7.79575548E-04 2.91631736E-04
 3  5 4.47297050E-05-2.41605087E-04-2.84197583E-03-1.89665731E-03-2.25549092E-04
 3  6 1.81532654E-03-1.00282971E-04 3.83760944E-04-3.87456959E-05-1.32133299E-04
 3  7 3.97823837E-04 7.71516304E-05-2.67863585E-05 1.83448929E-04 2.37839744E-05
 3  8 2.67590269E-05 6.14907117E-05-4.19250466E-03 1.45182613E-03 6.68006869E-04
 3  9 2.27251939E-03-5.02300587E-06 3.15827342E-05-8.51402606E-05 1.65566505E-05
 3 10-4.33413595E-05-2.89164526E-05-1.65692988E-05-4.34281382E-05-1.82912473E-06
 3 11-2.30767298E-06 7.72690181E-06-3.33848118E-04-3.13317422E-04-9.80208734E-05
 3 12 1.67137379E-04-2.11206185E-05-2.60336332E-05 1.39362873E-05 5.49335305E-06
 3 13 3.22178112E-05 1.53681260E-05-2.37086682E-06-2.16268236E-04-1.97233934E-06
 3 14 3.49398251E-05 1.69513425E-06 3.59728265E-05 9.95069483E-01 3.21369829E-02
 3 15-1.17931685E-03-6.20275848E-04-1.02165245E-03-4.83768912E-03-3.78913158E-03
 3 16-2.54418259E-03-3.87821340E-03-3.08738815E-03-2.70832570E-03-2.20703729E-03
 3 17-2.67670960E-04-1.12799400E-04 2.53553006E-05-2.51813917E-04 1.15368641E-03
 3 18-1.22061203E-05 4.00771629E-05 3.28019156E-04-6.24238960E-03 6.06666377E-04
 3 19-2.64689995E-04-3.06853446E-03 5.54503742E-04 5.24047620E-04-5.41545380E-05
 3 20 4.78822374E-05 1.36499701E-04-7.32197841E-05-1.45512810E-04-3.41947062E-04
 3 21-1.62731037E-05 8.76053199E-05 1.40067478E-04 2.07660923E-03 1.70897692E-04
 3 22-8.82671195E-04-1.16987651E-03-3.59115857E-05-9.81700896E-05-6.12446428E-05
 3 23 1.13152426E-05 2.81511113E-06-1.14453335E-05 2.64400160E-05 3.58781655E-04
 3 24 6.41539310E-03 2.45726150E-04-8.05562886E-05-5.20987915E-06-4.20814323E-05
 3 25 2.71548336E-03-2.88386117E-03-7.96002448E-04-1.22133547E-03-2.29764720E-04
 3 26-1.21869800E-04-2.41428966E-04-1.07754167E-05-2.69175648E-05-2.19228564E-05
 3 27-1.67372928E-04 2.80156937E-04 2.97793336E-05 1.64035097E-04 3.97229530E-05
 3 28-4.27436051E-05-3.54222988E-06-1.23602849E-03 5.12520275E-04-5.28001964E-05
 3 29 4.51101648E-04 6.36199086E-06 3.98973724E-05 2.07649797E-05 7.25706374E-06
 3 30-4.63221175E-05 3.43508412E-05 1.28525356E-05-1.24764000E-04 5.48662367E-05
 3 31 2.79255452E-04-1.63381294E-04-2.97056840E-04 1.24835431E-04-5.81289404E-06
 3 32-1.81497787E-05 1.30657656E-03-8.57488817E-04 4.46569994E-04 2.90144594E-04
 3 33-3.79405996E-05-7.09389985E-05-1.10062102E-04-1.52254670E-05-3.20547203E-05
 3 34 5.71386165E-05-1.62224580E-04 3.62870154E-04 2.54120495E-05 6.34868834E-05
 3 35 2.90303236E-06-1.95863616E-06-6.98639843E-06-3.74071786E-04 2.63054238E-04
 3 36-5.31543798E-05-5.35990168E-05-1.58895744E-05 5.16631020E-05 2.40403172E-05
 3 37-2.66479676E-05 5.15765844E-06-1.70941491E-05-2.38966886E-06-2.63414002E-05
 3 38 4.88090528E-05 4.87809129E-05 1.78500962E-05 7.90322678E-05 8.35486120E-06
 3 39-2.49071817E-05-1.25325110E-05-4.07696200E-05 3.02486490E-05 2.72415000E-04
 3 40-4.97075847E-05 7.75763336E-05-1.27411533E-04-1.09090439E-05 8.97535527E-06
 3 41 1.86090167E-05 6.50793472E-06 7.04904368E-06 5.90978352E-06-2.66712139E-05
 3 42-3.73533335E-05-3.14613475E-06 2.96885738E-05
 4  1 9.95624827E-01 2.68079110E-02 4.66673100E-05-1.01963829E-04-1.71562452E-03
 4  2-9.16968996E-03-1.07716807E-03-4.61030363E-04-2.80966322E-03-1.48162360E-03
 4  3-2.27110545E-03-8.90676589E-04 3.06530108E-04 2.14138945E-04 1.73701747E-04
 4  4-1.86789461E-04 1.81742335E-03-3.76179898E-05 9.34554286E-04 3.49519517E-05
 4  5 4.64358509E-05 3.19411557E-04-3.28661321E-03-3.74983934E-04-4.31433836E-04
 4  6-2.91752884E-03 3.44460887E-04 6.09527829E-04-7.80787708E-04-1.18111932E-04
 4  7 1.59313331E-05-1.06364918E-04 1.60319117E-02 2.67556612E-04 1.90347771E-04
 4  8 4.57885790E-05-1.84714025E-05 3.07016654E-03-3.35248556E-03-9.10058179E-04
 4  9 6.48131807E-04-2.33959987E-04-4.80641780E-05-2.95257049E-04-5.58620163E-05
 4 10 1.59445697E-04 2.67553892E-05-1.98600381E-05-1.15557509E-04 2.75666110E-05
 4 11 1.68171870E-05 7.89493896E-05-8.13682632E-04 2.85205299E-04 5.67661737E-05
 4 12 1.13118931E-04 2.01138225E-05-4.58545816E-05 7.18253920E-05 2.20933912E-05
 4 13 7.34852873E-06 1.01921619E-05-2.82284521E-05 2.95158452E-04 1.76206292E-05
 4 14 1.01199524E-05 2.33301352E-05 3.62189662E-05 2.19514595E-03-4.65251449E-04
 4 15-4.44838991E-06-2.43360866E-05-7.36177964E-05 1.33958844E-03 1.35071376E-03
 4 16 1.07480660E-03 3.62367149E-03-2.41742264E-05-1.67068449E-04 5.45905850E-05
 4 17 5.66243574E-05-7.80207819E-05-1.63191860E-06-9.76414495E-05-4.22008249E-04
 4 18-1.37822671E-05-1.88565201E-05-4.63089080E-06 3.16221890E-03-9.47504714E-05
 4 19 1.27916081E-04 5.49162535E-04-2.75814747E-04-2.14341728E-04-2.83398576E-04
 4 20-2.73365984E-05 7.42136424E-06-9.29905651E-06-8.27128847E-05-3.70484966E-04
 4 21-2.39550145E-05-2.43113377E-06-5.10539535E-05 3.10161692E-03-1.34794027E-03
 4 22-4.78888962E-04-1.54566111E-05 1.35124993E-04-5.24569593E-05 1.37910305E-05
 4 23 5.88056542E-05-3.21573995E-05 3.76555775E-06-4.05564713E-05 5.99436998E-05
 4 24 3.80489815E-05 3.53136776E-04 1.08127218E-04-2.88652726E-05 3.00334154E-05
 4 25-3.82453032E-03 1.10362044E-03 1.32784871E-03-4.11727789E-04-3.46530197E-05
 4 26 4.61534388E-05 6.11463083E-05-4.58509108E-05 3.13192855E-05 9.56348321E-06
 4 27 1.50834304E-05-2.05120693E-04-1.33710893E-05-1.95673811E-05 3.63744938E-05
 4 28-3.35888792E-05-1.27920688E-05-7.97984195E-05 8.87098000E-05 1.76271305E-04
 4 29 9.65280110E-05-3.74854914E-05-9.91608030E-06 3.85599090E-06-1.13424254E-05
 4 30 7.61453231E-06-4.87640796E-06-2.30137196E-05-1.25553514E-05-1.05574776E-06
 4 31 1.41950975E-04-6.04983481E-07-8.30517899E-05-1.16880190E-05 1.96245705E-05
 4 32 2.45470659E-05 4.03337848E-04-5.85879955E-04-2.49402215E-04 3.14819416E-05
 4 33 4.61115546E-05-2.18266264E-05 9.81059320E-06 1.00242976E-05-3.99090054E-05
 4 34 1.29723616E-06-5.66885842E-05-1.29240001E-04 7.98805080E-06 3.15687616E-05
 4 35-2.41164708E-06 5.30634829E-06 6.45035643E-06-1.11377439E-05 1.63320599E-04
 4 36-6.98852945E-05 5.93691890E-05-2.31967971E-06 7.85648524E-06 9.86497233E-06
 4 37-1.68938143E-05 1.20433292E-05-7.31482474E-06-1.19488083E-05-4.16251732E-05
 4 38-1.49883111E-06 1.24935587E-04 2.06172792E-05-1.86533554E-05-1.56575095E-05
 4 39-6.22794158E-05 8.30960768E-06-9.95957393E-06 5.92576626E-06 3.08968271E-04
 4 40-9.95177622E-05 1.21728322E-04-1.01586569E-04-5.95090496E-06-1.80535644E-05
 4 41-5.84153098E-06-4.76316138E-06-6.73684760E-06-1.32456047E-05-1.41460723E-05
 4 42-5.64659302E-05-3.59477822E-06 4.78004157E-05
 5  1 2.22591868E-05-5.30249989E-05-6.50016606E-05-4.62570925E-05-3.19584584E-05
 5  2 1.04845934E-03 7.71379961E-04 2.08342091E-04-3.51340183E-04 1.81258260E-06
 5  3-3.78595054E-05 6.30038206E-05 2.63822694E-05 2.41168322E-05 1.15293634E-05
 5  4 3.64476654E-05 2.93560722E-04 5.19648807E-07-4.28720250E-05-3.26362523E-05
 5  5-2.98265262E-05 8.23536154E-05-3.94723054E-04-3.81096296E-04-1.16271734E-04
 5  6-9.00645057E-04-4.58634854E-05-8.56209844E-05 4.61430369E-05 4.91721881E-05
 5  7-6.84423465E-05 9.72538786E-06 9.83244499E-04 1.27403566E-04-3.97525834E-05
 5  8-2.82564853E-05 1.02823276E-04-2.37440228E-03-3.26343437E-04 5.41561905E-05
 5  9 4.41360652E-04-2.86790925E-05-6.45582149E-06-7.13684760E-07 1.96805562E-06
 5 10 3.22381192E-05-2.32415099E-05-3.92285724E-05-1.61173661E-04-3.71990274E-05
 5 11 7.11942100E-06 1.56858424E-06 7.93053734E-04 3.59264950E-04-2.61347438E-05
 5 12-3.66606030E-04-5.85444823E-05-5.13522949E-05-3.79977140E-06-1.48887817E-05
 5 13-2.24003781E-05-2.17449055E-06-5.28681590E-06 1.14471459E-04-7.70830167E-05
 5 14-1.13822100E-04-4.76950130E-05-5.77705555E-05-6.73342051E-03-3.18775048E-04
 5 15 1.19876921E-04 6.14015345E-05 1.05106589E-04 5.92975579E-03 3.65615919E-03
 5 16 1.53518489E-03 2.93361654E-03-4.24022159E-04-3.14767002E-04-2.10453191E-04
 5 17-2.30569431E-04-1.70907503E-04-1.23625029E-04-7.83800398E-05-4.38553312E-04
 5 18 5.99581487E-06-4.82167451E-05-4.37571222E-05 2.09481470E-03-5.64399461E-04
 5 19 7.64870561E-05 5.39294139E-04-2.11990822E-04-3.28562111E-04-1.28980672E-04
 5 20 6.99012106E-05-1.02225138E-04 4.03816785E-05 5.75361883E-02 1.43293610E-03
 5 21-7.03996375E-05 4.92384032E-05-2.08158125E-04 5.86581123E-03-1.06140934E-03
 5 22-3.66973530E-04-2.60081902E-03-2.53384190E-04-2.92757777E-04-5.19144837E-04
 5 23 3.16435014E-05-4.01205732E-06 9.96886964E-05-1.68207238E-04 1.58454067E-04
 5 24 9.94285347E-01 2.91214211E-02-3.09291184E-04-3.84612476E-04-3.78743524E-05
 5 25-2.44657499E-02 9.06263872E-04 3.14089313E-03-3.90611682E-04-1.25156737E-03
 5 26-1.09926514E-03-1.24028033E-03 9.27761810E-06 5.68413426E-05-1.95938665E-05
 5 27 3.42178083E-04 2.33567212E-03 3.47364902E-04-3.20197356E-04 1.40931230E-04
 5 28-5.96822575E-05 4.78665027E-05 1.08547067E-03-1.25859076E-05 1.25529947E-04
 5 29-5.35689516E-04-1.26904254E-04-1.10304283E-04 2.42893705E-06-2.37885250E-05
 5 30 2.42790537E-05-2.85157194E-05-3.06637057E-05 2.46983533E-04-7.93278735E-05
 5 31-1.60225304E-04 1.71644362E-02 3.43322344E-04-2.06068403E-04 1.02044579E-04
 5 32 6.99153746E-05 5.65264516E-03-2.53603384E-03-3.00881568E-04 1.66060158E-03
 5 33-3.47883127E-04-2.35513631E-04-2.39598645E-04 1.25973162E-04 8.71976517E-05
 5 34-4.08334765E-05-2.87725485E-04-5.38833061E-04-1.22401128E-04-2.01125057E-04
 5 35 9.86361944E-05 2.14099080E-05-8.91163068E-05 9.71146412E-04-1.97406687E-04
 5 36-1.31566267E-04 3.41985422E-04-6.48099535E-05-7.79456786E-05-9.51722774E-05
 5 37-2.99494653E-05-2.00134604E-05-2.68707620E-05-3.54710201E-05 2.00675556E-04
 5 38-5.68653214E-05-5.18320778E-05-2.14625481E-05-2.63195805E-04 2.19119954E-05
 5 39 2.50670705E-06 8.65109442E-05-2.59581258E-05 7.44128113E-05-1.46636788E-03
 5 40 5.90671405E-04 3.80645877E-04-8.15919248E-05 3.28246582E-05 9.75365902E-06
 5 41 1.70512672E-05-7.66129498E-05-2.06741311E-05-1.69561286E-05 3.11864167E-05
 5 42-1.60473656E-04 3.92672147E-05 2.33223282E-04
 6  1-4.62857269E-04-2.08603973E-04-1.34565112E-04-1.31371511E-05 7.85657044E-06
 6  2-8.36216516E-04-6.37028657E-04-9.14683537E-05 1.04472251E-03-2.21823726E-05
 6  3-8.96700782E-05 5.23961556E-05 1.80101171E-05 7.29815453E-06 1.87171883E-05
 6  4-5.57167832E-05-1.92194460E-04-2.91956648E-05-1.21807180E-04-1.40508666E-05
 6  5 9.09692233E-06-4.19113839E-05 8.23074856E-04-4.61248851E-06-2.32061577E-05
 6  6 2.77246194E-04-1.03714403E-04-9.21366332E-05-7.79064946E-05-1.53045603E-05
 6  7-2.54276671E-05-2.39972683E-05 2.81301959E-02 8.30789034E-04 6.47467036E-05
 6  8 1.13174509E-05 9.95678563E-05 4.81681598E-03 2.84330312E-03 2.32754972E-04
 6  9-4.02928622E-03-3.90658370E-04-2.45490977E-04-2.22088646E-04-1.27715436E-04
 6 10 1.49492901E-04 9.32738492E-05 2.29160791E-06-3.14436364E-04-7.84787712E-05
 6 11-5.06394532E-05-2.01782697E-05 2.67450041E-03-2.06210832E-05 1.63314674E-04
 6 12-7.97876085E-04-5.79812461E-05-1.12925079E-04-3.98415898E-05 3.01728250E-05
 6 13 4.13233522E-05 1.29711156E-05-7.35462647E-05-7.91324345E-06-5.27436006E-05
 6 14-2.15143304E-04-8.28249081E-05-4.23647310E-04 4.24279760E-04-1.63629175E-04
 6 15-1.56392314E-04-3.12197170E-06-7.70923015E-05-1.13717225E-03-4.54409504E-04
 6 16-1.59434818E-04 9.83330483E-05-9.91799438E-05-8.56920166E-05-9.78547237E-05
 6 17 4.91183311E-05-1.29162186E-05-3.25238918E-05-3.13854461E-05-1.26971937E-04
 6 18-4.47179009E-06-2.49484970E-05 1.74483188E-05 7.80713417E-04 1.34536116E-04
 6 19 1.72198435E-04 2.37328732E-04-1.04790809E-04-8.06753914E-05-3.69093386E-05
 6 20 6.03279090E-06 1.96610398E-05 2.44805452E-05 9.93879424E-01 2.92660453E-02
 6 21-8.31371936E-05-1.32576079E-04-1.76776772E-04-2.46726702E-02 1.12170896E-03
 6 22 2.18499573E-03 2.14858631E-03-1.27754372E-03-1.17713098E-03-1.27663720E-03
 6 23 4.49369362E-05-4.42869516E-05 3.16946301E-05 3.26955194E-04 2.48423106E-03
 6 24-5.79379188E-02-1.99779440E-03 5.41451809E-05 4.16783601E-05 2.37516890E-04
 6 25 9.42729938E-03 3.40607307E-04-1.46516943E-03 2.72781174E-03-1.13891722E-04
 6 26-1.01403166E-04-4.12595053E-04-6.10047498E-08-3.97518028E-05-6.44889776E-07
 6 27-2.58242120E-04-2.08023880E-05 1.65207736E-02 3.79034766E-04-1.94471039E-04
 6 28 1.74490376E-04 6.90854886E-05 5.43097928E-03-2.49389818E-03 7.78515147E-04
 6 29-9.75450551E-04-2.67275007E-04-3.34477513E-04-2.20642511E-04 1.98641260E-04
 6 30 8.87406836E-06 6.32980759E-05-1.16209996E-04 2.84429788E-04-3.29888572E-04
 6 31-4.64203364E-04-1.79850279E-03 2.07447195E-05 7.63812673E-05-6.53549551E-05
 6 32 6.07386777E-06-1.72212995E-03 9.48416423E-04 1.29613314E-04-1.08756920E-03
 6 33 8.70798169E-06 2.53583539E-05 9.37456571E-05-2.93556787E-05 1.38966961E-05
 6 34-2.68493687E-05 1.16574975E-04 2.74439540E-05 5.25830092E-05 4.04292697E-05
 6 35 1.64658891E-06-3.49715273E-06 1.11858180E-05-4.77339549E-04-8.81654231E-05
 6 36 2.73096629E-04-8.59266764E-05 3.68029831E-05-1.66118114E-05 2.42868725E-05
 6 37 1.18890948E-05 4.94266258E-06 1.28996184E-05 3.79638278E-05 5.92967004E-05
 6 38-2.92629598E-05 8.36394032E-05 2.60424018E-05-9.33607771E-05-1.11028615E-04
 6 39-2.47056348E-04 1.48325992E-05-6.69638026E-06-1.20855488E-04 6.05811698E-04
 6 40-1.94697617E-04 5.18372299E-04 2.67636650E-04 4.13295361E-05-2.18958851E-05
 6 41-5.28514656E-05-8.88885098E-05-1.86793843E-05 3.09182265E-05-7.77926720E-05
 6 42-3.54117103E-04-1.85878715E-05 3.20471269E-04
 7  1-2.93031302E-05-6.33882528E-06-1.04805576E-05-2.33625093E-05-3.40250622E-05
 7  2-2.09004853E-04-1.27423153E-04-4.70104465E-05-3.21024117E-04-1.80331898E-06
 7  3-4.23905948E-06 4.70535232E-05 3.24348533E-06 2.56932865E-06 4.19484857E-07
 7  4 7.53810899E-06 1.15470684E-05-2.33840237E-05-1.02999464E-04 4.86877957E-06
 7  5-7.39782648E-06 3.79831437E-05 6.27945073E-04 2.20487866E-04 2.89129842E-05
 7  6-4.56919710E-04-3.05049437E-05-5.79763569E-05-7.84932804E-05 4.42056503E-06
 7  7-5.12291795E-05-9.75115034E-07 1.21313639E-03 2.32759155E-05 2.96615413E-05
 7  8-2.19766244E-05 8.58907331E-06 2.96613427E-05-4.87666006E-04-4.50296395E-05
 7  9-2.72246558E-04-2.34422777E-05-6.84233159E-06 1.09128898E-05-9.23995985E-06
 7 10-2.08888150E-07-3.37224207E-06 1.30747034E-04 2.23220647E-05 2.05200654E-05
 7 11 1.85724632E-05-1.34514546E-05 6.55985546E-05-3.80301878E-05-1.13892597E-04
 7 12 1.69528687E-06 1.32222024E-05 3.51355685E-06 2.35356203E-06-5.51019139E-06
 7 13-5.30532246E-06 3.14883297E-06-1.46114783E-05-3.31943477E-05 9.73891636E-06
 7 14-5.23229977E-05 2.14315682E-05 4.59839491E-05 1.58078681E-04-2.89111119E-04
 7 15-1.03052531E-04-2.19259728E-05-4.90556613E-07 4.01521230E-04 1.04554616E-03
 7 16 5.98206695E-04 4.78096170E-05-7.92512398E-05-1.21911008E-04-1.43355172E-04
 7 17-1.79682436E-05 4.07407629E-06 5.44200996E-05-2.47593535E-05-9.42096763E-05
 7 18-3.03129077E-05 3.94308312E-06-6.21677238E-06 4.30449264E-04-1.29263780E-04
 7 19-5.49425805E-05 2.08765557E-04-7.91940314E-05-1.27445481E-04-1.26140339E-05
 7 20 8.81479000E-06-2.23428710E-05 1.73499768E-05 8.12666377E-04 1.14664201E-04
 7 21 3.27903234E-05-1.44875528E-05 5.49788945E-05-1.81156830E-03-5.98374602E-04
 7 22-4.53006797E-05 1.36311814E-03 8.55306987E-05-2.97173602E-06 9.26577792E-06
 7 23-2.14190644E-05-1.93046379E-05 1.78357782E-05 8.17960995E-05-5.53771606E-05
 7 24-1.75964550E-02-6.79926912E-04 1.65157793E-04-8.91941699E-05-9.58896929E-05
 7 25 6.82522309E-03 3.19896878E-03-2.07504946E-04 2.33257604E-04-3.67600009E-04
 7 26-1.98717584E-04-1.67567296E-04 1.11835833E-04 9.90262339E-05-9.40098841E-05
 7 27-2.70996203E-04-5.06006968E-04 5.46737294E-04-2.09660447E-04-6.59640779E-05
 7 28 3.38119590E-05 9.94310893E-05 4.38883794E-04-2.87893567E-04-2.62589064E-04
 7 29-5.49502514E-04-5.28183717E-05-6.55304440E-05 4.72705553E-05-1.43312203E-05
 7 30 6.77266642E-05-1.80455478E-05-2.67932896E-06 3.90778080E-04-8.67422287E-05
 7 31-2.88115244E-04 9.95122063E-01 2.90120440E-02-5.83301036E-05 1.58888147E-04
 7 32 1.02827611E-04-2.16798027E-02 3.98957434E-04-1.67662926E-03-1.60394278E-03
 7 33-1.36271392E-03-1.24166174E-03-1.32356161E-03 7.18885835E-05 2.16657416E-05
 7 34-7.69488433E-06 3.13857726E-04 2.54363540E-03 2.06810051E-02 5.77246201E-04
 7 35-5.26482970E-05-7.80626399E-05 1.15426299E-04 4.67572399E-03-8.97663637E-04
 7 36-8.06155799E-04 1.82741801E-03-2.23072205E-04-3.42995566E-04-2.56708989E-04
 7 37-1.05268695E-04 9.77622983E-05 2.32045033E-04-1.34262310E-04 2.12694349E-05
 7 38-1.63490153E-04-1.28583050E-05-2.29962664E-04-1.87930176E-04 3.26675855E-02
 7 39 8.60775117E-04-4.68706611E-05 6.47829253E-06-2.17139130E-04 4.99881103E-03
 7 40-1.57803575E-03 1.08059727E-03-1.57292945E-03-3.69676583E-04-1.64888441E-04
 7 41-4.24627105E-04 1.00678050E-05-1.74502402E-04 1.75405564E-05-2.82305307E-04
 7 42-2.24459268E-04-1.27822252E-04 2.47762871E-04
 8  1-1.65932870E-02-8.45907631E-04-1.94607507E-04-5.65660450E-05-1.10190900E-04
 8  2 6.08103847E-03 2.29867663E-03 6.83371707E-04 7.53420506E-04-2.36014278E-04
 8  3-9.16580917E-05-3.05238451E-04-6.57783408E-05-4.68533762E-06-1.32504803E-05
 8  4-3.93953097E-05 1.09116512E-04 4.88877578E-05 1.30639195E-04 2.04476612E-05
 8  5 9.66911933E-06 9.17948527E-06-1.18719461E-03-3.54848732E-04-1.29937764E-04
 8  6-2.25095805E-04 1.24596975E-04 7.32929671E-05 2.05530316E-04 1.66850138E-05
 8  7 4.33731221E-05 2.60414190E-05 9.87021918E-01 2.81827699E-02 9.35610432E-06
 8  8-2.27833916E-05-9.19132832E-05-1.47564072E-02 4.87426937E-04 1.47845715E-04
 8  9 1.51341750E-03-1.61056840E-03-2.13051607E-03-1.82209957E-03 1.76851030E-04
 8 10 2.25136385E-04 1.07899432E-04 1.26297233E-01 3.78799817E-03 5.53400534E-05
 8 11 1.18597470E-05 9.15202654E-05 4.91233797E-04-3.09633594E-04-1.31687879E-04
 8 12-1.12820415E-03-3.58297392E-04-2.81536655E-04-8.24970522E-04-2.51850341E-05
 8 13 3.35475333E-05-2.03496123E-05-6.20537941E-05 3.50160924E-05-9.20283068E-05
 8 14 5.60146960E-04-1.27089183E-04 6.36864758E-04 3.63947228E-06-1.93362410E-05
 8 15-4.90580255E-05-1.20168338E-05 7.18541403E-06 2.45061950E-04 2.37717475E-05
 8 16 8.80597690E-05 4.59856107E-04-1.10904360E-05-2.39531236E-05-1.88148940E-05
 8 17-1.10013105E-06-2.00602158E-05-6.04816366E-06-1.23551950E-05-5.70063172E-05
 8 18 1.64156711E-06 9.31922664E-07-1.80210978E-06 3.80837288E-04-1.47580583E-05
 8 19 9.92955349E-06 8.49351445E-05-3.64338801E-05-3.81803677E-05-2.23806463E-05
 8 20-2.85802856E-06-9.19199361E-06-8.24111460E-07-2.81516710E-02-4.93038577E-04
 8 21 3.67066507E-05-3.10728035E-05 6.40263957E-07 2.52972248E-03-2.01993921E-03
 8 22 5.12820163E-04-4.60419016E-05-3.61761996E-04-3.38556890E-05-1.26619849E-04
 8 23-5.68568426E-05 1.92527417E-04 8.03530352E-05-1.45314063E-04 6.08361961E-05
 8 24 7.04812247E-04 1.41453028E-05 3.52621248E-05-5.89186564E-06-7.24803161E-06
 8 25-8.33303549E-04 1.75377575E-04-9.30636621E-05-4.50655198E-04 4.98581945E-05
 8 26 5.84487032E-06 3.81934061E-05 7.90359082E-06 1.41403826E-07-1.37649059E-05
 8 27 4.33956078E-05-7.29922211E-06-3.14491526E-03-4.36452150E-04 1.60539835E-04
 8 28 1.54738082E-06-2.63723051E-05 1.44860382E-03-1.28910256E-03 2.72570264E-04
 8 29 2.62424752E-04-3.03134989E-05-5.43025600E-05-1.79365186E-04-6.31054361E-05