! $contrl dfttyp=b3lyp ispher=1 nprint=-5 $end
 $contrl ispher=1 nprint=-5 $end
 $system mwords=100 $end
 $ELMOM IEMOM=0 $END
 $basis  gbasis=n31 ngauss=6 ndfunc=1 $end
 $fmo
        iefmo=1
        nfrag=16 nbody=2 nacut=3
        resdim=0.3 rcorsd=0.3
!        modefm(1)=8,24,1,1,1
 $end
 $fmoprp nprint=9 $end
 $data
Water16 modeled by HyperChem and optimized by amber94 force feld
C1
h 1
o 8
 $end
 $fmoxyz
O 8       -0.564282   -0.573389   -2.527290
H 1       -0.080858   -1.335857   -2.192111
H 1        0.119062   -0.063496   -2.973049
O 8       -3.559032   -1.843467   -2.145618
H 1       -3.976867   -2.377445   -2.823766
H 1       -2.661798   -1.718761   -2.474039
O 8       -0.780634    0.549622    1.559678
H 1       -1.538516   -0.014361    1.370546
H 1       -0.951282    1.322831    1.010301
O 8       -2.352054   -2.187566    0.721791
H 1       -3.196693   -2.026671    0.291598
H 1       -1.889702   -2.743454    0.085772
O 8       -2.787945    1.065148   -0.801006
H 1       -3.363079    0.372300   -1.138435
H 1       -1.995432    0.973197   -1.341287
O 8       -0.743852    3.066470    3.696188
H 1       -1.142793    2.220454    3.479019
H 1       -1.267910    3.692487    3.186715
O 8       -2.298610    3.527736    1.007140
H 1       -3.012998    2.988911    0.653722
H 1       -1.686213    3.587875    0.268187
O 8        1.900072   -0.303970   -0.164006
H 1        1.034150    0.118481   -0.148631
H 1        1.855278   -0.912350    0.581306
O 8        2.287796   -2.178609   -2.793880
H 1        2.604370   -1.650842   -2.054605
H 1        2.444322   -1.605606   -3.550011
O 8        0.017154   -3.564946   -1.130639
H 1        0.548169   -3.517187   -0.329719
H 1        0.670232   -3.709525   -1.823086
O 8        0.672636   -2.500629    1.909540
H 1       -0.172069   -2.038118    1.860625
H 1        0.643130   -2.928864    2.767014
O 8        3.708764    2.344338   -0.263127
H 1        3.612301    1.406260   -0.070951
H 1        3.619790    2.747259    0.606910
O 8        2.319057    0.886153   -3.216717
H 1        2.549622    1.076628   -2.301441
H 1        2.417550    1.739660   -3.649251
O 8        0.338910    2.593537   -0.753703
H 1        0.667371    2.957257   -1.581703
H 1        1.077078    2.721840   -0.148154
O 8        2.572094    3.995314   -2.728268
H 1        3.260415    3.807675   -2.080215
H 1        2.756504    4.895549   -3.003656
O 8        1.887855    2.390519    2.224219
H 1        1.316135    1.622226    2.321722
H 1        1.534061    3.001100    2.879735
 $end
O 8 -0.56428260218 -0.57338973835 -2.52729114253
H 1 -0.0808582456 -1.3358544188 -2.19211043073
H 1 0.11905953323 -0.06349594823 -2.97304868025
O 8 -3.5590328312 -1.84346745605 -2.14561693951
H 1 -3.97686569863 -2.37744409144 -2.82376255678
H 1 -2.66179735239 -1.71876160423 -2.47404006102
O 8 -0.78063132686 0.54961910751 1.55967512272
H 1 -1.53851333449 -0.01436186378 1.37054726292
H 1 -0.95128032582 1.32283137283 1.01029943663
O 8 -2.35205417898 -2.1875648003 0.72179213623
H 1 -3.19668946399 -2.02666853345 0.29159769408
H 1 -1.88970165054 -2.74345465526 0.08577429993
O 8 -2.78794256565 1.06514863268 -0.80100464136
H 1 -3.3630785881 0.37229718658 -1.13843435541
H 1 -1.99543121514 0.97319883716 -1.34128377482
O 8 -0.74385352536 3.06646958783 3.69618492606
H 1 -1.14279477389 2.22045315085 3.47901597703
H 1 -1.267908092 3.69248597883 3.18671447754
O 8 -2.29860730198 3.52773201165 1.00714024994
H 1 -3.01299625198 2.98890811494 0.65372409872
H 1 -1.68621192696 3.5878729777 0.2681869036
O 8 1.90007351974 -0.30396985234 -0.16400782761
H 1 1.03414944402 0.1184827303 -0.14862994399
H 1 1.85527868669 -0.91234877393 0.58130622627
O 8 2.28779621587 -2.17860583369 -2.79387993159
H 1 2.60437106435 -1.65084173628 -2.05460378728
H 1 2.4443214807 -1.60560768632 -3.55001036335
O 8 0.01715591834 -3.56494373829 -1.1306395782
H 1 0.54816916253 -3.51718551404 -0.32971960516
H 1 0.67022912935 -3.70952547823 -1.82308355801
O 8 0.6726368847 -2.5006259135 1.90954049627
H 1 -0.17206719332 -2.03811463196 1.86062337439
H 1 0.64312997518 -2.92886240075 2.7670136153
O 8 3.70876346335 2.34433877832 -0.26312797148
H 1 3.61229978802 1.40626141865 -0.07095205216
H 1 3.61978764257 2.74725943789 0.60690780953
O 8 2.31905470126 0.88615451243 -3.21671352167
H 1 2.54962241193 1.07662648181 -2.30143839893
H 1 2.41755041627 1.73965880396 -3.64924692616
O 8 0.33891140965 2.59353351939 -0.75370150933
H 1 0.66737157355 2.95725803857 -1.58170476123
H 1 1.07707628226 2.72183777481 -0.14815368469
O 8 2.57209126735 3.99531280885 -2.72826727536
H 1 3.26041295833 3.80767193642 -2.08021595408
H 1 2.75650416008 4.89554872125 -3.00365627793
O 8 1.88785482281 2.39052005511 2.22421559932
H 1 1.31613199201 1.62222384412 2.32172175334
H 1 1.53405766415 3.00110035302 2.87973360807
