!  To calculate part of the Na+Cl- dissociation free energy curve, often
!  called potential of mean force (PMF) in the literature.
!
!  In $FFDATA, NaCl distance is 2.50 angstrom, and is fixed.
!  In $FFDATB, NaCl distance is 2.60 angstrom, and is fixed.
!  TIP5P-Ew (504) water model is used with shifting function. 
!  IEWALD=2 can be used at a higher cost, delivering almost the same result.
!
!  The relative free energy converges to about -2.1 kcal/mol at NSTEP=10000.
!  (it is impossible to reproduce MD trojactory for more than 5000 steps)
!
!  TOTAL     ENERGY =     -7042.6872639297  KCAL/MOL
!  TOTAL     ENERGY =     -7038.1205048414  KCAL/MOL
!
 $CONTRL RUNTYP=MD COORD=FRAGONLY $END
 $SYSTEM TIMLIM=99 MWORDS=50 $END
 $QUANPO
         IFEPTOP=1 IFEPTYP=2 WSIMUL=0.0 WPERT1=1.0
         NFIXMM=2 1 2 NFIXMMB=2 1 2 
         KFREEA=2 1 2 KFREEB=2 1 2 
         DT=1.0D-15 TEMP0=298.15 NSTEP=100 JOUT=100 KOUT=100 ITYPWAT=504 
         NFFTYP=0 SWRA=10 SWRB=12 ITSTAT=1 IPSTAT=1 IRATTLE=10  IEWALD=0
         CENTX=0.0000000000   CENTY=0.0000000000   CENTZ=0.0000000000   
         XBOX=28.9067903740   YBOX=28.9067903740   ZBOX=28.9067903740 
 $END
 $FFDATA 
 COORDINATES  NUC                   X                   Y                   Z
 NA1         11.0    -1.2500000000000     0.0000000000000     0.0000000000000
 CL1         17.0     1.2500000000000     0.0000000000000     0.0000000000000
 O1           8.0   -17.7873547702311   -10.6592980990783     2.8779574061878
 H2           1.0   -16.8593104134721   -10.4263657772695     2.8513443650414
 H3           1.0   -18.2163153202579    -9.9985427333397     2.3342410066781
 L4           1.0   -18.0297870825297   -10.6350868826745     3.5341896658445
 L5           1.0   -17.8892377175401   -11.3000602138888     2.6151914983418
 O1           8.0   -25.0536214538195    15.5336131514998    -4.5010973802430
 H2           1.0   -25.3086406720205    14.6260647131389    -4.6670885318043
 H3           1.0   -24.5656775243475    15.7925920218621    -5.2828098925447
 L4           1.0   -24.6491475567475    15.5766979482815    -3.9314090250937
 L5           1.0   -25.6187864681078    15.9379749674329    -4.4169659475597
 O1           8.0   -21.2512228141111    11.9069567271138   -11.1083227752805
 H2           1.0   -20.3065207546865    11.9612844652360   -11.2526068156145
 H3           1.0   -21.5989620775626    11.5523171107391   -11.9265776463197
 L4           1.0   -21.5187587572557    12.5409598498095   -10.9799979371954
 L5           1.0   -21.3955308872717    11.4801388718273   -10.5725959284532
 O1           8.0   -12.6613859377041    -6.7315809151682    -8.2175347733790
 H2           1.0   -12.0189370406245    -6.6345345457190    -7.5146296026659
 H3           1.0   -13.5075399802293    -6.7379876691043    -7.7700791674239
 L4           1.0   -12.5602363763581    -7.3313056746545    -8.5640892811891
 L5           1.0   -12.6220012565112    -6.1943892750078    -8.6646067598439
 O1           8.0    -9.0831284197803    -9.7109609417368   -32.6033818384285
 H2           1.0    -9.4470118530575   -10.4297115168179   -33.1203126103817
 H3           1.0    -8.5398449797165    -9.2219351278186   -33.2213865552354
 L4           1.0    -8.6959147665803    -9.9575746908507   -32.0749410744661
 L5           1.0    -9.5941072526871    -9.3058599257005   -32.3488338448168
 O1           8.0     6.0471783997784    10.7101467835231   -17.4444033449014
 H2           1.0     6.3235984977874     9.8058221555371   -17.2960008826975
 H3           1.0     6.8063239479521    11.1297839391934   -17.8491708533239
 L4           1.0     5.8856919324937    11.0220223923079   -16.8388825986054
 L5           1.0     5.4942341936305    10.7326533042502   -17.8730612163061
 O1           8.0     2.9996827073517    -3.6860151505488     1.8178568567216
 H2           1.0     3.2498726486331    -4.4028336286261     1.2349257416024
 H3           1.0     3.0562986989059    -2.9018150286948     1.2719102021923
 L4           1.0     3.4405616115698    -3.6425117677563     2.3598307660370
 L5           1.0     2.3471407208657    -3.7760027926259     2.0546927898072
 O1           8.0    -9.5952490796351     2.6344799391322   -10.5580229360342
 H2           1.0    -9.8450883236395     3.5491471332828   -10.4268883507219
 H3           1.0    -8.6383300181478     2.6474736869671   -10.5772557899865
 L4           1.0    -9.8515871096419     2.3922450434698   -11.1626837044788
 L5           1.0    -9.8267223281935     2.2367262526933   -10.0305637917947
 O1           8.0    -9.9423894002198    12.7439332943202    -0.5489935316635
 H2           1.0    -9.2954528405441    12.4960206132194     0.1114945159765
 H3           1.0   -10.2248494972377    13.6213085050301    -0.2908025037051
 L4           1.0   -10.4827513280577    12.2989656409392    -0.5452789801120
 L5           1.0    -9.6534797451555    12.7546373791383    -1.1865007630115
 O1           8.0     9.4843462705780    -1.3340804492080   -19.2886252475123
 H2           1.0     9.3212026832766    -1.3583568924742   -18.3457430595019
 H3           1.0     9.0919024967043    -0.5107170612636   -19.5789588612575
 L4           1.0     9.1803131950361    -1.8786678424852   -19.6064115079862
 L5           1.0    10.1716782390330    -1.3407783565726   -19.4210304726138
 O1           8.0   -19.8968888213021     3.3650354047659   -15.3546868095935
 H2           1.0   -20.4495320077263     3.2253257020519   -14.5857277551813
 H3           1.0   -19.0364354386402     3.0359119682305   -15.0948184605815
 L4           1.0   -19.8633869806081     4.0456260485722   -15.5149219013221
 L5           1.0   -20.1427437917500     3.0078879341849   -15.9042345920294
 O1           8.0    -8.3356143507126     6.4415143155803     6.5846012953643
 H2           1.0    -8.7916395778848     7.1481151862499     6.1274481917972
 H3           1.0    -7.9169550196072     5.9359012075847     5.8879574691963
 L4           1.0    -8.7888356579650     6.0441635649343     6.9405559202825
 L5           1.0    -7.8566141854386     6.7002031938156     7.0246457367257
 O1           8.0     0.7498936765959     2.3969930000237   -11.7436345073995
 H2           1.0     0.5757877294977     2.1301346050351   -12.6462445874647
 H3           1.0     0.8682897816690     1.5743678987460   -11.2687616968128
 L4           1.0     0.2090264150212     2.7572225777109   -11.4834427033574
 L5           1.0     1.3291938676005     2.7883934831442   -11.7087295881450
 O1           8.0   -11.9512804517810    16.8980430803481     7.4187595847334
 H2           1.0   -11.1419144490454    16.4525023329313     7.6690654081496
 H3           1.0   -11.7503898737345    17.3051274226237     6.5760498685342
 L4           1.0   -12.1234959827885    17.3831892770936     7.8930766086393
 L5           1.0   -12.4760353698699    16.4394290531358     7.3531381318908
 O1           8.0    -2.5558319631299    -5.4222427294503     2.0647007000071
 H2           1.0    -2.0752586902185    -5.5996695159576     1.2561212194327
 H3           1.0    -1.8839294657060    -5.4143366904030     2.7464021911498
 L4           1.0    -3.0271921835142    -5.9249192728749     2.1877295083489
 L5           1.0    -2.8795634343080    -4.8026146796754     2.0292053366797
 O1           8.0     5.8842651581836    -3.6398961399443    -4.4606054469811
 H2           1.0     6.5290635938461    -3.6506917029275    -3.7532506137357
 H3           1.0     5.4581598843525    -4.4955270521137    -4.4099921447271
 L4           1.0     6.1984516213207    -3.5562605416952    -5.0805186872680
 L5           1.0     5.4192010688138    -3.1257866629945    -4.3636114139155
 O1           8.0    -6.1582007584608     3.0045653264925    -7.5261539113796
 H2           1.0    -6.7994443395770     3.4934560564844    -7.0103790475626
 H3           1.0    -6.4665615684484     2.0988809970991    -7.4964262470971
 L4           1.0    -5.5202807872124     3.0581382119358    -7.2429748073781
 L5           1.0    -6.1409954184625     3.2385319349773    -8.1856732934449
 O1           8.0    -9.4723529868918    27.9854549677813    -7.5720638693302
 H2           1.0   -10.0086533436991    27.6273608223630    -8.2794403202581
 H3           1.0    -9.9569359674980    28.7531047322747    -7.2685409855503
 L4           1.0    -8.8403449052442    28.1699356835212    -7.8098345573665
 L5           1.0    -9.4000559106822    27.5184253321239    -7.0556751007181
 O1           8.0    -5.9255926422936    -3.1975347776780     3.5211891081288
 H2           1.0    -5.8859273232786    -2.8687546355307     2.6231005107525
 H3           1.0    -5.7798068693318    -4.1399389459756     3.4384063062048
 L4           1.0    -6.5524471430015    -3.0681124399827     3.8045688611958
 L5           1.0    -5.4266790236284    -2.9036192891907     3.9145094403813
 O1           8.0    -6.2721693339374     6.4041306530429   -15.7179714742702
 H2           1.0    -6.3814424360755     6.0342351350970   -16.5940242704640
 H3           1.0    -7.0516627034064     6.9438685322994   -15.5864207213842
 L4           1.0    -5.6922749727289     6.7948111405193   -15.6849418097138
 L5           1.0    -6.2389076046492     5.8962754884338   -15.2373697415759
 O1           8.0   -13.3931985756911    10.7329925206860   -16.7942253618418
 H2           1.0   -13.7961660210310    11.3521472871367   -17.4029100925277
 H3           1.0   -12.8494371981535    10.1720996069550   -17.3473581178371
 L4           1.0   -13.8824190918989    10.3560100389947   -16.4647557336460
 L5           1.0   -13.0011125952465    11.0697794403340   -16.3221616550099
 O1           8.0    -5.2741540865425    -1.3609354109946   -18.3771445044090
 H2           1.0    -6.0098966201638    -0.7491352577535   -18.3523506731713
 H3           1.0    -5.5905176082782    -2.0955529759739   -18.9029628133390
 L4           1.0    -5.1067777838647    -1.5729000581288   -17.7313439698469
 L5           1.0    -4.7156854706378    -1.0642418435693   -18.6772894957870
 O1           8.0    -7.1963407754577    19.3771188715356   -13.5802667918640
 H2           1.0    -6.3820722956786    18.9080756155925   -13.3980623114554
 H3           1.0    -7.6469702591732    19.4123326196211   -12.7365099238364
 L4           1.0    -7.5809140516811    19.0311742373713   -14.0518863240961
 L5           1.0    -7.0626392289445    20.0223628302652   -13.8164555967299
 O1           8.0    -0.6367004820159    15.5884684709072     2.3062318599886
 H2           1.0     0.1122144092010    14.9977544585470     2.2261232691078
 H3           1.0    -1.2055419451768    15.1686480544043     2.9515252196206
 L4           1.0    -0.9660980691979    15.6550232491196     1.6921731500621
 L5           1.0    -0.4315347414096    16.2190772911058     2.5303709081525
 O1           8.0     8.2953097585102     9.4797937235339    -2.8088763488525
 H2           1.0     8.5962119759466    10.2969898828404    -2.4115342573727
 H3           1.0     8.0840949574328     8.9150080485905    -2.0654803912371
 L4           1.0     8.8004099227028     9.1945176446318    -3.2006582232290
 L5           1.0     7.7283333918276     9.5909342230114    -3.2040826934975
 O1           8.0   -11.1648404322554   -13.3700370576129    -8.2315677329990
 H2           1.0   -10.9412320289638   -14.2299855390195    -7.8755913033994
 H3           1.0   -10.7361243345087   -13.3455599461964    -9.0870420577265
 L4           1.0   -10.9214556300011   -12.8602499679965    -7.8181887751107
 L5           1.0   -11.8582639598255   -13.3034354938473    -8.3003463371758
 O1           8.0     6.7848555765997     6.1125304364588     4.3429464373813
 H2           1.0     6.0007713218770     6.1420034953160     4.8911939065336
 H3           1.0     7.2338645548308     6.9387715800095     4.5216889790891
 L4           1.0     6.6119566001746     6.0662743813374     3.6662124101167
 L5           1.0     7.1889216397956     5.5684334610838     4.5181326437299
 O1           8.0     1.4189653690501   -10.2787070671840   -29.3458897072307
 H2           1.0     1.5273198384392   -10.4289491866163   -28.4067839908133
 H3           1.0     1.9500673260812   -10.9585773400019   -29.7605453622068
 L4           1.0     1.6499188703012    -9.6420394313715   -29.5228487806640
 L5           1.0     0.7468517184973   -10.3426858122038   -29.5307450539139
 O1           8.0   -12.9341628729161    -5.6292754660354   -10.7461003502942
 H2           1.0   -12.6847086319076    -6.5439952414192   -10.6145969444480
 H3           1.0   -13.2327437035776    -5.3358204192887    -9.8853054847262
 L4           1.0   -13.4494280299017    -5.5786296259036   -11.2172037445452
 L5           1.0   -12.3850064168471    -5.2513133587035   -10.9595777647048
 O1           8.0     8.5916728369543    13.0591540652540   -15.7836176496171
 H2           1.0     7.9599679035517    13.2768746032221   -16.4690223164287
 H3           1.0     8.3575646507223    13.6296099709031   -15.0514929277643
 L4           1.0     9.2449731663425    13.1886654661229   -15.9990866468634
 L5           1.0     8.5356938744885    12.3858846384939   -15.6003807865718
 O1           8.0    -2.0178588802879    10.9020220825707     1.1358368075450
 H2           1.0    -1.4351327724056    10.9993580466580     1.8889558018631
 H3           1.0    -2.4619290892367    11.7470346141722     1.0652072496461
 L4           1.0    -2.4801723845567    10.3879887370315     1.2455445731185
 L5           1.0    -1.6512024535372    10.7659349536160     0.5552812964194
 O1           8.0    -0.9289095381803     4.1324655339759   -14.3186049793728
 H2           1.0    -0.6387557165270     4.7790818130317   -13.6752310649201
 H3           1.0    -0.1594425209188     3.9768475687242   -14.8662690550669
 L4           1.0    -1.4580917537384     4.3844703713732   -14.7013053949157
 L5           1.0    -1.1307554846720     3.5417210043465   -14.0019342207538
 O1           8.0    17.5848070299138     1.8385871869920    -0.6156169347432
 H2           1.0    17.8305318997778     2.1048858118414     0.2703498735932
 H3           1.0    17.5327618680271     2.6584494315055    -1.1068918609779
 L4           1.0    16.9656708505454     1.5119916389183    -0.6130251822923
 L5           1.0    18.0703232284813     1.4158465011900    -0.8905046929058
 O1           8.0     0.2949616541835    13.3454937271158    -4.5813360429079
 H2           1.0     0.0193668510702    13.7237768573505    -5.4163106002984
 H3           1.0     1.1666988555722    12.9902654063059    -4.7548841612578
 L4           1.0    -0.1440943692274    12.8377240181484    -4.3828446236717
 L5           1.0     0.3227390844552    13.8373609075273    -4.0840475483144
 O1           8.0    -1.4079745980012    12.0747522352839   -13.6416043269600
 H2           1.0    -1.7481263991591    11.1801295053117   -13.6282034632937
 H3           1.0    -2.1843833527659    12.6280106277204   -13.5560105165337
 L4           1.0    -1.0769363019408    12.2045606605462   -14.2445675120791
 L5           1.0    -0.9687010851532    12.1804488122936   -13.1069384185034
 O1           8.0    -2.4688489807846    -0.6615497418889    -1.6313140155203
 H2           1.0    -3.1318356886893    -0.0122806925939    -1.8661105657625
 H3           1.0    -2.9612279752247    -1.4727475727157    -1.5058034773377
 L4           1.0    -2.1405256606536    -0.4775841910228    -1.0410922766884
 L5           1.0    -2.0000899229647    -0.7338018474155    -2.1461400633374
 O1           8.0   -29.4218369944509     1.6804720886198   -20.4329259302399
 H2           1.0   -30.2269250588250     1.5231768474954   -19.9396478380211
 H3           1.0   -28.7974478934738     1.0454580075497   -20.0820298193300
 L4           1.0   -29.1932367757872     2.3342606610551   -20.3314255855925
 L5           1.0   -29.5257729836298     1.5732932935158   -21.1168201705279
 O1           8.0     7.7197515852439     7.8592101664285   -29.7942264710658
 H2           1.0     6.7673526920866     7.7922159657419   -29.8626417676958
 H3           1.0     8.0084087158557     6.9708665130278   -29.5850459761036
 L4           1.0     7.9005185745394     8.3043936020835   -29.2851724463879
 L5           1.0     7.9968994166783     8.0731076325163   -30.4003939533422
 O1           8.0   -21.1136927224947     6.5176420893527    -4.6669646128357
 H2           1.0   -20.7107698988422     5.6921166592321    -4.3979046601502
 H3           1.0   -20.5061201137340     7.1917016179263    -4.3624453226495
 L4           1.0   -21.7411013943665     6.5961632379104    -4.3666420843568
 L5           1.0   -21.1834241269117     6.5436179884028    -5.3629980422412
 O1           8.0    -4.0069234211280    -2.2868778548419    -4.6948720941470
 H2           1.0    -4.7016031587897    -1.7675483825800    -5.0997767706609
 H3           1.0    -4.4597125912385    -2.8355250689374    -4.0544032754512
 L4           1.0    -3.5399288474631    -1.8719513093100    -4.3790323231573
 L5           1.0    -3.6822830705153    -2.6815788758266    -5.1732247475604
 O1           8.0     2.9306617394502     1.6828639922598    -7.7720340772338
 H2           1.0     2.2357367727650     2.3245892753063    -7.6254036100949
 H3           1.0     3.7185752259282     2.2091605828782    -7.9078179011779
 L4           1.0     2.7927141388336     1.2936015377177    -8.3372313012217
 L5           1.0     3.0044549784451     1.2663160944005    -7.2143214619036
 O1           8.0   -14.3916483815244    -1.8157594163042   -24.5401043233429
 H2           1.0   -14.9933074617643    -1.3440090638490   -25.1160307057809
 H3           1.0   -13.7323341889959    -1.1656270227195   -24.2974839116357
 L4           1.0   -14.0965266692195    -2.3533595587649   -24.8775814850193
 L5           1.0   -14.7265455490655    -2.0521400908839   -23.9726801267740
 O1           8.0     4.5136250895229    10.0981505127403   -23.6441524881213
 H2           1.0     5.4332004387696    10.2298494213816   -23.4133479223476
 H3           1.0     4.1590738073610     9.5726400093601   -22.9269608345876
 L4           1.0     4.4577344625417     9.7563165068097   -24.2524508898139
 L5           1.0     4.1797089931614    10.7116732530481   -23.6898730667202
 O1           8.0    -0.2255274646155    11.4674297644108   -25.8254214549827
 H2           1.0    -0.5553977674698    12.1839770946990   -25.2832237975998
 H3           1.0    -0.0751835780017    10.7501437685660   -25.2096867368918
 L4           1.0     0.3712772728646    11.6510832558286   -26.1418025840895
 L5           1.0    -0.6984768400135    11.2842875358090   -26.3078929235387
 O1           8.0    -6.1279479286107    14.2390399185885   -19.9003816482653
 H2           1.0    -5.1832616815692    14.0896971410357   -19.8616887517255
 H3           1.0    -6.3749734615895    14.4480161419492   -18.9995269013319
 L4           1.0    -6.4605014117583    13.6639593420975   -20.1210430379958
 L5           1.0    -6.2767069404694    14.7729805710360   -20.3279101461647
 O1           8.0     2.3891828485152     2.4013913279261    -1.8485814585664
 H2           1.0     1.7081894122317     1.9339760471204    -1.3648420466262
 H3           1.0     2.8856048769044     1.7124299846737    -2.2903157303479
 L4           1.0     2.8006344618958     2.7611821971691    -1.4112492282307
 L5           1.0     2.1050658813758     2.8393797669703    -2.3148910008073
 O1           8.0    -9.4594395695480    15.5511455059684     2.8416612620017
 H2           1.0    -9.6515403532493    15.1827762516367     1.9793191266501
 H3           1.0    -9.4262540849689    16.4967282056112     2.6967249358487
 L4           1.0    -8.8448143498509    15.3156580796181     3.0799530963043
 L5           1.0    -9.9644283372886    15.3884178735908     3.2982848229734
 O1           8.0    -1.3657354082314     7.9842725656034   -15.8204049976075
 H2           1.0    -0.5461359466222     7.5291333224770   -15.6271752496323
 H3           1.0    -2.0467268879195     7.3313293092702   -15.6586968181514
 L4           1.0    -1.3796758106623     8.1963158206441   -16.4873719013277
 L5           1.0    -1.4474189342717     8.5366886746511   -15.3983090331182
 O1           8.0   -18.1429506918625   -13.2764058746196   -12.4128932969169
 H2           1.0   -17.9329217335213   -14.1774297892438   -12.1673818301175
 H3           1.0   -18.2871435007539   -12.8280127233346   -11.5795961530676
 L4           1.0   -18.7203780479373   -13.2558531264792   -12.8080589665030
 L5           1.0   -17.6109425805713   -12.9846916172613   -12.7619942674332
 O1           8.0    -4.7366694013484    21.9347842471403     1.7063455720236
 H2           1.0    -3.8033550947645    22.1219911634634     1.8068965699455
 H3           1.0    -5.0199668883452    22.5042842366076     0.9910524976382
 L4           1.0    -5.0840708991272    22.0855642619742     2.2950551948210
 L5           1.0    -4.8377127325157    21.2619567561651     1.5417473633669
 O1           8.0     2.7700627937794   -14.3658497241575   -24.2546576290207
 H2           1.0     1.8501696074709   -14.1709911305536   -24.0756030308887
 H3           1.0     2.9579420958366   -15.1423119030636   -23.7273633131456
 L4           1.0     3.1783553111635   -13.8310086179261   -24.0616714150379
 L5           1.0     2.8667809953982   -14.4994452578269   -24.9349519827649
 O1           8.0   -17.5090527993496     2.2374540985654   -14.6993679731693
 H2           1.0   -17.7931832967020     1.3445242589640   -14.5039735683532
 H3           1.0   -16.9303983390122     2.1449653702180   -15.4562292935900
 L4           1.0   -17.1635417066372     2.5116611602638   -14.1558295238275
 L5           1.0   -18.0577533552324     2.6430825198068   -14.8555539288239
 O1           8.0   -18.4916253116773    11.6717216262666   -10.9712662270197
 H2           1.0   -18.2619699566223    11.2843220183077   -10.1266282627818
 H3           1.0   -18.0048873451546    12.4955048451152   -10.9977424658311
 L4           1.0   -19.1804663573788    11.7900091398911   -11.0100907229792
 L5           1.0   -18.2970221555533    11.2523762216063   -11.4968884194016
 O1           8.0   -12.0693200548700     6.5255022312696     6.2210278320156
 H2           1.0   -12.8919165735983     6.9439950235855     5.9671958597785
 H3           1.0   -12.1798229254212     5.6080320257975     5.9714880439338
 L4           1.0   -11.9647934025486     6.5834329809635     6.9107509643034
 L5           1.0   -11.5301031827440     6.8118139622140     5.8785778709471
 O1           8.0    17.4791429852368     5.6984007583133     2.8954881982239
 H2           1.0    17.6901800084881     5.3488176962581     3.7612180612201
 H3           1.0    17.2852993354559     4.9254065684699     2.3652644571392
 L4           1.0    18.0238424769196     6.0495987640857     2.6309813279642
 L5           1.0    16.9225833798648     6.1216627191144     2.9285324118741
 O1           8.0     1.3202636902579   -10.2838188070972   -15.3480768456028
 H2           1.0     0.6056934839462    -9.7403931532792   -15.6802066277408
 H3           1.0     2.1109272450025    -9.7730230099306   -15.5217757788537
 L4           1.0     1.3425066016568   -10.8966521353437   -15.6856284179006
 L5           1.0     1.2455230424422   -10.3982907931354   -14.6615563018472
 O1           8.0    -5.9448777803671    -0.3957150173807    -5.4177323512076
 H2           1.0    -6.1789794432986    -0.2631028507264    -6.3363413292111
 H3           1.0    -6.7791252983917    -0.5629015587419    -4.9791968813038
 L4           1.0    -5.6378384565498     0.1761497083067    -5.1556279041172
 L5           1.0    -5.5148668499982    -0.9437268677078    -5.3486343714116
 O1           8.0    -2.0521694873382    -1.5054473728193   -17.1653112986433
 H2           1.0    -2.6789121816478    -1.4988868908254   -17.8887631888658
 H3           1.0    -2.3509309123193    -2.2140816932084   -16.5953889888438
 L4           1.0    -2.0608398888899    -0.8938446375025   -16.8249152598854
 L5           1.0    -1.4049980736838    -1.6326920699512   -17.3997871696092
 O1           8.0   -23.3976330514070     0.7638638807891   -13.9171692401628
 H2           1.0   -23.9866197071851     1.1270058680238   -14.5785731428829
 H3           1.0   -23.3219890998535    -0.1625347575939   -14.1458557593252
 L4           1.0   -23.6688710730987     0.8391315890648   -13.2762585908555
 L5           1.0   -22.7722446783236     1.0771840634353   -13.9440109265909
 O1           8.0    -5.1691483409506    -8.7636141176149    -5.7557174609830
 H2           1.0    -4.8621674531721    -9.0020969641958    -4.8810056423535
 H3           1.0    -4.6121531093460    -9.2656197242577    -6.3506787447319
 L4           1.0    -5.0928126284164    -8.0765711515951    -5.8659231712525
 L5           1.0    -5.8415370407317    -8.9397997935303    -5.8385098591471
 O1           8.0     9.8750274534184    16.8911926580960   -15.9178262447566
 H2           1.0     9.4570706260211    16.3383647975636   -15.2575793017850
 H3           1.0     9.3447597502656    17.6879218757108   -15.9343176875490
 L4           1.0     9.8690396254317    16.5770284901318   -16.5433401554653
 L5           1.0    10.5351894989656    17.0370900448394   -15.7364357424726
 O1           8.0    -2.8219114209477     7.8897440690038   -21.0545280602198
 H2           1.0    -1.9622181600601     7.8216768869069   -20.6391644893630
 H3           1.0    -2.8248101940788     8.7570798771398   -21.4594386872312
 L4           1.0    -3.3318333834466     7.8375562160183   -20.5778137562602
 L5           1.0    -2.9030911630322     7.3905188327245   -21.5384534096188
 O1           8.0    -0.9627167255468    -2.4022460324602    -4.7609469600958
 H2           1.0    -1.1690738308910    -2.5118768125872    -5.6891871838976
 H3           1.0    -1.8065161070452    -2.2199518749586    -4.3474192647089
 L4           1.0    -0.5206477707969    -1.8676476018627    -4.6672420902481
 L5           1.0    -0.6802873318515    -2.9869732424312    -4.4995532789342
 O1           8.0    -8.2051436237571   -10.1596456752962   -11.1083621515222
 H2           1.0    -8.9682418483910    -9.8731409916280   -10.6065360847688
 H3           1.0    -7.5748975050009   -10.4429710391597   -10.4459811789515
 L4           1.0    -7.9454231151455    -9.6312635137734   -11.4869901612861
 L5           1.0    -8.3732094968630   -10.6902221289297   -11.5329144987770
 O1           8.0    -6.8115233059271    29.0714337523989    -7.8041913537792
 H2           1.0    -6.1207653986430    28.8212027537133    -8.4177623149399
 H3           1.0    -7.6174308187207    28.7438782881717    -8.2035077731051
 L4           1.0    -6.8369181657025    29.7670847441728    -7.7305279725778
 L5           1.0    -6.7066881684548    28.7743967043615    -7.1790671794594
 O1           8.0     4.3280407417414     0.6843374544976    -3.2203885293308
 H2           1.0     4.0732457949689     0.3144410946980    -4.0656625723015
 H3           1.0     4.5790701322213    -0.0737037758895    -2.6925718363162
 L4           1.0     3.7906780506879     1.0233502846158    -2.9266008709529
 L5           1.0     4.8680033665021     1.1234846345296    -3.2951630523734
 O1           8.0     8.4396406755675   -10.1954341806115     1.3174403837509
 H2           1.0     7.8605825298063   -10.0623772434718     0.5669602130185
 H3           1.0     9.1229082483656    -9.5331450033677     1.2137512023699
 L4           1.0     8.7150642260802   -10.8388797842423     1.3063946791054
 L5           1.0     8.0923230662850   -10.1006943248372     1.9177701208808
 O1           8.0     4.5525063363639   -12.0476407532339   -17.1294769471749
 H2           1.0     4.7251079320413   -11.6622829151460   -16.2704425325514
 H3           1.0     3.8357769522415   -11.5240355569516   -17.4877635237511
 L4           1.0     4.3614184197710   -12.7180566818096   -17.0660116295271
 L5           1.0     5.1189866821875   -12.0043135177014   -17.5384073042605
 O1           8.0    -2.2479831825174   -13.1333246423709   -10.6557062223914
 H2           1.0    -2.0510823698754   -13.0285143531003    -9.7248585838578
 H3           1.0    -2.9008348913077   -12.4581198760806   -10.8404149929402
 L4           1.0    -2.5081561496495   -13.7705242678980   -10.7833305550599
 L5           1.0    -1.6732529731636   -13.0342531737332   -11.0428387476678
 O1           8.0   -12.5918802186858     5.1496490804296   -17.8838929356044
 H2           1.0   -11.8337466389479     4.6791795887544   -17.5373037478240
 H3           1.0   -13.0273205794176     5.5065166513216   -17.1097672784918
 L4           1.0   -13.0175592674965     4.7134348082688   -18.2281529367342
 L5           1.0   -12.3888256056132     5.6642383155769   -18.3128081773850
 O1           8.0   -11.4652792201018    21.0052716849628   -11.6541458082596
 H2           1.0   -10.6385177780798    20.8011450697211   -11.2170751577170
 H3           1.0   -11.7799024438456    20.1615048716714   -11.9786477448521
 L4           1.0   -11.3616344736217    21.4510026024867   -12.1838467728694
 L5           1.0   -11.9222442488988    21.2824787388498   -11.2021058644425
 O1           8.0    -3.3890776279108     5.7058175144277   -18.1781808618777
 H2           1.0    -3.4130838789725     4.7545253219342   -18.2816216292525
 H3           1.0    -3.8293159883981     6.0432305018765   -18.9582933360521
 L4           1.0    -2.7282733801651     5.9348496591746   -18.1484666528937
 L5           1.0    -3.7296000281391     5.9002984253441   -17.5983345765506
 O1           8.0    -6.1823683468596    10.2333863951567     3.5072648481310
 H2           1.0    -6.9970119742609    10.5339957267029     3.9100328955189
 H3           1.0    -6.0762336102377     9.3355559943048     3.8217012063913
 L4           1.0    -5.6440607056531    10.6319902114886     3.7105887889817
 L5           1.0    -6.2318804393031    10.2467996007758     2.8091456921343
 O1           8.0   -20.5079244739888     7.4309666144279   -15.2843188566590