!  To calculate the Na+Cl- dissociation free energy curve
!  using thermodynamic integration (restricted MD force).
!
!  This test is done in the gas phase. It can be done in solvent.
!
!  TOTAL     ENERGY =       -84.7892794151  KCAL/MOL
!  TOTAL     ENERGY =       -83.8413868698  KCAL/MOL
!
!DELTA G FROM  2.0000 TO  2.1000 A IS -0.06028639 HARTREE  -37.830280 KCAL/MOL
!DELTA G FROM  2.1000 TO  2.2000 A IS -0.02726448 HARTREE  -17.108722 KCAL/MOL
!DELTA G FROM  2.2000 TO  2.3000 A IS -0.01064533 HARTREE   -6.680046 KCAL/MOL
!DELTA G FROM  2.3000 TO  2.4000 A IS -0.00215429 HARTREE   -1.351837 KCAL/MOL
!DELTA G FROM  2.4000 TO  2.5000 A IS  0.00217909 HARTREE    1.367400 KCAL/MOL
!DELTA G FROM  2.5000 TO  2.6000 A IS  0.00434092 HARTREE    2.723968 KCAL/MOL
!DELTA G FROM  2.6000 TO  2.7000 A IS  0.00535084 HARTREE    3.357700 KCAL/MOL
!DELTA G FROM  2.7000 TO  2.8000 A IS  0.00574436 HARTREE    3.604640 KCAL/MOL
!DELTA G FROM  2.8000 TO  2.9000 A IS  0.00580827 HARTREE    3.644742 KCAL/MOL
!DELTA G FROM  2.9000 TO  3.0000 A IS  0.00569858 HARTREE    3.575910 KCAL/MOL
!DELTA G FROM  3.0000 TO  3.1000 A IS  0.00550116 HARTREE    3.452027 KCAL/MOL
!DELTA G FROM  3.1000 TO  3.2000 A IS  0.00526356 HARTREE    3.302933 KCAL/MOL
!DELTA G FROM  3.2000 TO  3.3000 A IS  0.00501209 HARTREE    3.145135 KCAL/MOL
!DELTA G FROM  3.3000 TO  3.4000 A IS  0.00476113 HARTREE    2.987657 KCAL/MOL
!DELTA G FROM  3.4000 TO  3.5000 A IS  0.00451831 HARTREE    2.835282 KCAL/MOL
!DELTA G FROM  3.5000 TO  3.6000 A IS  0.00428740 HARTREE    2.690385 KCAL/MOL
!DELTA G FROM  3.6000 TO  3.7000 A IS  0.00407001 HARTREE    2.553973 KCAL/MOL
!DELTA G FROM  3.7000 TO  3.8000 A IS  0.00386652 HARTREE    2.426281 KCAL/MOL
!DELTA G FROM  3.8000 TO  3.9000 A IS  0.00367664 HARTREE    2.307125 KCAL/MOL
!DELTA G FROM  3.9000 TO  4.0000 A IS  0.00349971 HARTREE    2.196099 KCAL/MOL
!
!
 $CONTRL RUNTYP=MD COORD=FRAGONLY $END
 $SYSTEM TIMLIM=9 MWORDS=20 $END
 $QUANPO
         IRMDF=1, 2, 2.0, 4.0, 20
         DT=1.0D-15 NSTEP=200000 JOUT=200000 KOUT=200000 
         ITSTAT=1 TEMP0=298.15 NFFTYP=0
 $END
 $FFDATA
 COORDINATES  NUC                   X                   Y                   Z
 NA          11.0    -1.0250000000000     0.0000000000000     0.0000000000000
 CL          17.0     1.0250000000000     0.0000000000000     0.0000000000000
 STOP
 MMVELOCITY                    VX                    VY                    VZ
 NA         -0.000090052830196487  0.000117279966394611 -0.000074436425876671
 CL         -0.000062787318155496 -0.000089316032059784  0.000233472716768358
 STOP
 PARAMETERS       MASS         Q      POL   RMIN/2  EPSILON   RMIN/2  EPSILON
 NA          22.990000   1.00000 0.000000 1.363750 0.046900 0.000000 0.000000
 CL          35.450000  -1.00000 0.000000 2.270000 0.150000 0.000000 0.000000
 STOP
 $END

! TRAVIS-CI SMALL

