!   Si199,H94 model for Si(100).   run #3, 15 atoms are converted to QM.
!
!   It is easy to run QM/MM using QuanPol.
! (1) You can copy some atoms from $FFDATA (or $FFPDB) to $DATA
!     You do not have to (sometimes cannot) delete these atoms from $FFDATA.
! (2) You can add atoms that are not in $FFDATA.
!
! TOTAL     ENERGY =  -2704641.4071289133  KCAL/MOL
! TOTAL     ENERGY =  -2704641.4070482133  KCAL/MOL
!
 $CONTRL SCFTYP=UHF RUNTYP=MD $END
 $BASIS  GBASIS=MINI $END
 $SCF    DIRSCF=.T. FDIFF=.F. DIIS=.T. $END
 $SYSTEM TIMLIM=9999 MWORDS=50 $END
 $QUANPO DT=1.0D-16 TEMP0=298.15 NSTEP=1 NFFTYP=0 $END
 $DATA
  15 SI ATOMS COPIED FROM $FFDATA (FIRST 15 ATOMS)
 C1
 SI          14.0    -1.9429119800000    -3.8307359200000     0.1066120000000
 SI          14.0     1.6015059900000    -3.8336720500000     0.5325110000000
 SI          14.0    -1.8945510400000     4.0811018900000    -0.2413470000000
 SI          14.0     1.6498620500000     4.0781660100000     0.1845520000000
 SI          14.0     0.0158320000000    -3.9336431000000    -1.2335259900000
 SI          14.0     0.0645810000000     4.0420599000000    -1.5842989700000
 SI          14.0    -1.4382480400000    -1.8189389700000     1.2566109900000
 SI          14.0     0.8420659900000    -1.8208260500000     1.5306179500000
 SI          14.0    -1.4138549600000     2.1720199600000     1.0810910500000
 SI          14.0     0.8664590100000     2.1701300100000     1.3551039700000
 SI          14.0     0.1827070000000    -1.9822009800000    -2.6088500000000
 SI          14.0     0.2068990000000     1.9755320500000    -2.7829151200000
 SI          14.0    -1.8949619500000     0.1278540000000    -0.0033670000000
 SI          14.0     1.5874290500000     0.1249710000000     0.4150680000000
 SI          14.0     0.0369740000000     0.0554140000000    -1.3820619600000
 $END
 $FFDATA       !   FROM LOUT=1, TOTAL MM CHARGE = 0.000000, MAY NEED EDITING
 COORDINATES  NUC                   X                   Y                   Z
 SI          14.0    -1.9429119800000    -3.8307359200000     0.1066120000000
 SI          14.0     1.6015059900000    -3.8336720500000     0.5325110000000
 SI          14.0    -1.8945510400000     4.0811018900000    -0.2413470000000
 SI          14.0     1.6498620500000     4.0781660100000     0.1845520000000
 SI          14.0     0.0158320000000    -3.9336431000000    -1.2335259900000
 SI          14.0     0.0645810000000     4.0420599000000    -1.5842989700000
 SI          14.0    -1.4382480400000    -1.8189389700000     1.2566109900000
 SI          14.0     0.8420659900000    -1.8208260500000     1.5306179500000
 SI          14.0    -1.4138549600000     2.1720199600000     1.0810910500000
 SI          14.0     0.8664590100000     2.1701300100000     1.3551039700000
 SI          14.0     0.1827070000000    -1.9822009800000    -2.6088500000000
 SI          14.0     0.2068990000000     1.9755320500000    -2.7829151200000
 SI          14.0    -1.8949619500000     0.1278540000000    -0.0033670000000
 SI          14.0     1.5874290500000     0.1249710000000     0.4150680000000
 SI          14.0     0.0369740000000     0.0554140000000    -1.3820619600000
 SI          14.0     0.9509860300000     6.1322441100000     1.1135870200000
 SI          14.0    -1.4323070000000     6.1342182200000     0.8272090000000
 SI          14.0     0.8781179800000    -5.7895808200000     1.6379040500000
 SI          14.0    -1.5051770200000    -5.7876071900000     1.3515269800000
 SI          14.0     3.7172861100000     0.0653420000000    -0.6447290200000
 SI          14.0    -3.7132139200000     0.0714930000000    -1.5375770300000
 SI          14.0     3.7685899700000     3.9629259100000    -0.8611320300000
 SI          14.0    -3.7054300300000     3.9691140700000    -1.7592129700000
 SI          14.0     3.7209188900000    -3.8365290200000    -0.5181160000000
 SI          14.0    -3.7531030200000    -3.8303411000000    -1.4161950300000
 SI          14.0     0.2394520000000     5.9079351400000    -3.0267500900000
 SI          14.0     0.1671500100000    -5.9209342000000    -2.5065200300000
 SI          14.0     2.2880859400000     1.8911529800000    -3.8541739000000
 SI          14.0    -1.5614000600000     1.8943400400000    -4.3167290700000
 SI          14.0     2.2641930600000    -2.0175910000000    -3.6822660000000
 SI          14.0    -1.5852910300000    -2.0144040600000    -4.1448211700000
 SI          14.0     2.4645049600000     3.7673540100000    -5.3125410100000
 SI          14.0     2.4169259100000    -4.0165848700000    -4.9702038800000
 SI          14.0    10.0695104600000     3.7075820000000    -4.1575970600000
 SI          14.0    -5.1895909300000     3.7561368900000    -6.1559357600000
 SI          14.0     9.0124464000000     4.0264711400000     1.2607049900000
 SI          14.0    -5.7950310700000     4.0565128300000    -0.6556670100000
 SI          14.0    10.0227136600000    -3.9484460400000    -3.8208890000000
 SI          14.0    -5.2369141600000    -3.9860661000000    -5.8154358900000
 SI          14.0     8.9647464800000    -3.7775330500000     1.6039210600000
 SI          14.0    -5.8430218700000    -3.7950251100000    -0.3103590000000
 SI          14.0    -1.3842480200000     3.7705400000000    -5.7750082000000
 SI          14.0    -1.4318260000000    -4.0133991200000    -5.4326710700000
 SI          14.0     6.2517380700000     3.7466669100000    -4.7811422300000
 SI          14.0    -9.0464630100000     3.7234048800000    -6.4545798300000
 SI          14.0     5.5374169300000     4.0471320200000     0.7060440200000
 SI          14.0    -9.3025665300000     4.0416321800000    -0.9400339700000
 SI          14.0     6.2044148400000    -3.9955370400000    -4.4406437900000
 SI          14.0    -9.0932588600000    -3.9326229100000    -6.1178698500000
 SI          14.0     5.4894280400000    -3.8044068800000     1.0513509500000
 SI          14.0    -9.3502683600000    -3.7623729700000    -0.5968170200000
 SI          14.0     2.4295699600000    -0.1227340000000    -5.1001339000000
 SI          14.0     3.0885829900000    -0.3626669900000   -10.4640913000000
 SI          14.0     1.7125899800000     7.9491949100000    -0.1616880000000
 SI          14.0     1.6168110400000    -7.7206249200000     0.5274630200000
 SI          14.0    10.0592422500000    -0.1202160000000    -3.9825110400000
 SI          14.0    -5.2106308900000    -0.1134370000000    -5.9505839300000
 SI          14.0     8.9768953300000     0.1259120000000     1.4635030000000
 SI          14.0    -4.6406488400000    -0.3524250100000   -11.3054180100000
 SI          14.0    -5.8090138400000     0.1325700000000    -0.4401069900000
 SI          14.0     9.1099424400000     7.8959708200000     0.9431020000000
 SI          14.0     9.0148544300000    -7.6608758000000     1.6272840500000
 SI          14.0    -5.7454781500000     7.9324431400000    -0.9934240000000
 SI          14.0    -5.8409428600000    -7.6859569500000    -0.3065320000000
 SI          14.0    -1.4069750300000    -0.1195580000000    -5.5611338600000
 SI          14.0    -0.7768980300000    -0.3594680100000   -10.9285688400000
 SI          14.0    -1.8671510200000     7.9521598800000    -0.5918319800000
 SI          14.0    -1.9629299600000    -7.7176609000000     0.0973210000000
 SI          14.0     6.2172169700000    -0.1228960000000    -4.5774111700000
 SI          14.0    -9.0842123000000    -0.1043710000000    -6.2827949500000
 SI          14.0     6.9316301300000    -0.3620030000000    -9.9148902900000
 SI          14.0     5.4935321800000     0.1232130000000     0.9180100000000
 SI          14.0    -9.3224363300000     0.1410599900000    -0.7353510300000
 SI          14.0     5.5756149300000     7.9230709100000     0.3669239900000
 SI          14.0     5.4801521300000    -7.6953291900000     1.0538129800000
 SI          14.0    -9.3157320000000     7.9112238900000    -1.2709350600000
 SI          14.0    -9.4108209600000    -7.6456232100000    -0.5867499700000
 SI          14.0     2.9415059100000     1.6308510300000    -9.2194442700000
 SI          14.0     2.2556879500000    -5.8877301200000    -3.5569300700000
 SI          14.0     9.8793897600000     1.8548749700000    -2.7155659200000
 SI          14.0    -5.3051290500000     1.8871749600000    -4.6856222200000
 SI          14.0     8.2342166900000     2.1403241200000     2.4374198900000
 SI          14.0    -4.8243680000000     1.6135059600000   -10.0677270900000
 SI          14.0    -6.4552302400000     2.1587140600000     0.5751220000000
 SI          14.0     9.8672628400000    -5.7863421400000    -2.3976509600000
 SI          14.0    -5.3614888200000    -5.8564100300000    -4.4012789700000
 SI          14.0     8.2210435900000    -5.7317061400000     2.7029430900000
 SI          14.0    -6.5060849200000    -5.7463140500000     0.8340420100000
 SI          14.0    -0.9256119700000     1.6340520400000    -9.6841182700000
 SI          14.0    -1.6130369900000    -5.8845281600000    -4.0217971800000
 SI          14.0     6.0126199700000     1.8778070200000    -3.3256790600000
 SI          14.0    -9.2063961000000     1.8706729400000    -5.0089211500000
 SI          14.0     6.8201179500000     1.6038680100000    -8.6685218800000
 SI          14.0     5.8841509800000     2.1484980600000     2.0578260400000
 SI          14.0    -8.8283348100000     2.1544489900000     0.3871780000000
 SI          14.0     5.9873781200000    -5.8658042000000    -3.0375969400000
 SI          14.0    -9.2823972700000    -5.7704911200000    -4.6986789700000
 SI          14.0     5.8593220700000    -5.7565498400000     2.3198719000000
 SI          14.0    -8.8912839900000    -5.7175397900000     0.6467220200000
 SI          14.0     2.9178628900000    -2.2372829900000    -9.0493249900000
 SI          14.0     2.3268659100000     5.7571687700000    -4.0690689100000
 SI          14.0     9.8559856400000    -1.9741200200000    -2.5471689700000
 SI          14.0    -5.3288521800000    -1.9939760000000    -4.5149297700000
 SI          14.0     8.2102184300000    -1.7860150300000     2.6100978900000
 SI          14.0    -4.8476748500000    -2.1997261000000    -9.9000215500000
 SI          14.0    -6.4793567700000    -1.7885930500000     0.7487239800000
 SI          14.0     9.9372568100000     5.6650819800000    -2.9012789700000
 SI          14.0    -5.2905778900000     5.7447838800000    -4.9114952100000
 SI          14.0     8.2932300600000     6.0785059900000     2.1835360500000
 SI          14.0    -6.4336228400000     6.1086750000000     0.3126629900000
 SI          14.0    -0.9492549900000    -2.2340819800000    -9.5139980300000
 SI          14.0    -1.5418590300000     5.7603712100000    -4.5339360200000
 SI          14.0     5.9888968500000    -2.0033450100000    -3.1549871000000
 SI          14.0    -9.2298002200000    -1.9583220500000    -4.8405227700000
 SI          14.0     6.7968101500000    -2.2093639400000    -8.5008173000000
 SI          14.0     5.8600239800000    -1.7988079800000     2.2314260000000
 SI          14.0    -8.8523340200000    -1.7718910000000     0.5598570100000
 SI          14.0     6.0582871400000     5.7353892300000    -3.5478110300000
 SI          14.0    -9.2124023400000     5.6809330000000    -5.2023091300000
 SI          14.0     5.9317817700000     6.0984377900000     1.7984950500000
 SI          14.0    -8.8190956100000     6.0926709200000     0.1273120000000
 SI          14.0     0.8498420100000     1.7104430200000    -8.1354541800000
 SI          14.0     7.7304558800000     1.9382760500000    -1.7277250300000
 SI          14.0    -7.3525209400000     1.9507620300000    -3.5401010500000
 SI          14.0     8.5112161600000     1.6848770400000    -7.0578441600000
 SI          14.0    -6.8487620400000     1.6975909500000    -8.9035043700000
 SI          14.0     7.7140669800000    -5.8588838600000    -1.4617029400000
 SI          14.0    -7.4123420700000    -5.8463630700000    -3.2792949700000
 SI          14.0    11.4127321200000     1.9068009900000    -0.9138940000000
 SI          14.0    -3.5728900400000     1.9483130000000    -3.0532169300000
 SI          14.0    -3.0050139400000     1.7097009400000    -8.5759773300000
 SI          14.0    11.3969106700000    -5.6592202200000    -0.6367719800000
 SI          14.0    -3.6275091200000    -5.7992091200000    -2.8006870700000
 SI          14.0     3.9430759000000     1.9420909900000    -2.1500980900000
 SI          14.0   -11.1228189500000     1.9254549700000    -3.6217739600000
 SI          14.0     4.6993179300000     1.7033239600000    -7.6502218200000
 SI          14.0     3.9236729100000    -5.8054609300000    -1.8933360600000
 SI          14.0   -11.1854457900000    -5.6405267700000    -3.3502750400000
 SI          14.0     0.8259649900000    -2.1958830400000    -7.9636549900000
 SI          14.0     7.7067260700000    -1.9442570200000    -1.5569729800000
 SI          14.0    -7.3762521700000    -1.9317719900000    -3.3693480500000
 SI          14.0     8.4876575500000    -2.1692910200000    -6.8883400000000
 SI          14.0    -6.8723201800000    -2.1565771100000    -8.7339992500000
 SI          14.0     7.7856087700000     5.8457708400000    -1.9764670100000
 SI          14.0    -7.3407988500000     5.8582921000000    -3.7940619000000
 SI          14.0    11.3895473500000    -1.8863890200000    -0.7470719800000
 SI          14.0    -3.5966119800000    -1.9327050400000    -2.8825309300000
 SI          14.0    -3.0288300500000    -2.1867840300000    -8.4046096800000
 SI          14.0    11.4661846200000     5.6743779200000    -1.1352180200000
 SI          14.0    -3.5565669500000     5.8071627600000    -3.3111310000000
 SI          14.0     3.9193539600000    -1.9389270500000    -1.9794119600000
 SI          14.0   -11.1460046800000    -1.8677350300000    -3.4549510500000
 SI          14.0     4.6755008700000    -2.1931610100000    -7.4788560900000
 SI          14.0     3.9946138900000     5.8009119000000    -2.4037780800000
 SI          14.0   -11.1161708800000     5.6930699300000    -3.8487229300000
 SI          14.0     0.6998860200000     3.6912739300000    -6.8738508200000
 SI          14.0     0.6525300100000    -4.0563359300000    -6.5331130000000
 SI          14.0     7.5214891400000     3.9674840000000    -0.5511459700000
 SI          14.0    -7.4249229400000     3.9798569700000    -2.3471119400000
 SI          14.0     8.3857631700000     3.6337189700000    -5.7809071500000
 SI          14.0    -7.0262060200000     3.6464760300000    -7.6328148800000
 SI          14.0     7.4736490200000    -3.8596429800000    -0.2069129900000
 SI          14.0    -7.4727649700000    -3.8472709700000    -2.0028779500000
 SI          14.0     8.3391227700000    -3.9968359500000    -5.4453191800000
 SI          14.0    -7.0728459400000    -3.9840779300000    -7.2972250000000
 SI          14.0    11.1531038300000     3.8755629100000     0.3187290100000
 SI          14.0    -3.1499779200000     3.6902670900000    -7.3245368000000
 SI          14.0    11.1065797800000    -3.7360279600000     0.6534829700000
 SI          14.0    -3.1972761200000    -4.0479259500000    -6.9842128800000
 SI          14.0   -11.1593780500000     3.8940329600000    -2.3623468900000
 SI          14.0     4.5469207800000     3.6838960600000    -6.3996748900000
 SI          14.0   -11.2059030500000    -3.7175591000000    -2.0275919400000
 SI          14.0     4.4996218700000    -4.0542979200000    -6.0593519200000
 SI          14.0     1.3149850400000    -0.4203050100000   -12.0211572600000
 SI          14.0     0.6752110100000    -0.1821600000000    -6.6951761200000
 SI          14.0     0.0994900000000     7.9365119900000    -1.8479780000000
 SI          14.0     0.0030810000000    -7.8363418600000    -1.1542940100000
 SI          14.0     7.4780697800000     0.0558040000000    -0.3389140100000
 SI          14.0    -7.4394011500000     0.0681530000000    -2.1314010600000
 SI          14.0     8.3569984400000    -0.1821220100000    -5.6266861000000
 SI          14.0    -7.0410218200000    -0.1693770000000    -7.4769167900000
 SI          14.0     7.5865230600000     7.8821439700000    -0.8172339800000
 SI          14.0     7.4907732000000    -7.7830500600000    -0.1282860000000
 SI          14.0    -7.4186801900000     7.8945651100000    -2.6202650100000
 SI          14.0    -7.5144310000000    -7.7706289300000    -1.9313149500000
 SI          14.0    11.1156444500000     0.0706640000000     0.5045189900000
 SI          14.0    -2.5941889300000    -0.4141820100000   -12.4252214400000
 SI          14.0    -3.1632969400000    -0.1781470000000    -7.1374139800000
 SI          14.0    11.2623081200000     7.6209878900000     0.1244980000000
 SI          14.0    11.1699762300000    -7.4850959800000     0.7888560300000
 SI          14.0    -3.6780469400000     7.7862668000000    -2.0359699700000
 SI          14.0    -3.7724421000000    -7.6571021100000    -1.3567760000000
 SI          14.0     5.2086081500000    -0.4206399900000   -11.4876337100000
 SI          14.0   -11.1732082400000     0.0891140000000    -2.1737170200000
 SI          14.0     4.5092191700000    -0.1844980000000    -6.2154822300000
 SI          14.0     3.8137791200000     7.7800650600000    -1.1357489800000
 SI          14.0     3.7193849100000    -7.6633038500000    -0.4565570100000
 SI          14.0   -11.2133483900000     7.6395921700000    -2.5761859400000
 SI          14.0   -11.3056812300000    -7.4664921800000    -1.9118249400000
 H            1.0    -9.3851404200000     9.1659984600000    -0.4871949900000
 H            1.0    -5.8357338900000     9.1840667700000    -0.2054740000000
 H            1.0    -1.9521000400000     9.2034397100000     0.1972120000000
 H            1.0     1.6102370000000     9.2004900000000     0.6252650000000
 H            1.0     5.4786791800000     9.1747007400000     1.1540709700000
 H            1.0     8.9937534300000     9.1507835400000     1.7212209700000
 H            1.0    -9.4951133700000    -8.8258113900000     0.3040790000000
 H            1.0    -5.9460401500000    -8.8623828900000     0.5882030100000
 H            1.0    -2.0627150500000    -8.8937139500000     0.9931179900000
 H            1.0     1.4996219900000    -8.8966636700000     1.4211690400000
 H            1.0     5.3683748200000    -8.8717498800000     1.9477449700000
 H            1.0     8.8837833400000    -8.8410253500000     2.5124909900000
 H            1.0    12.1333236700000    -7.3631482100000     1.9090590500000
 H            1.0    11.5191955600000    -8.7273960100000     0.0588730000000
 H            1.0    11.6262674300000     8.7900562300000    -0.7115349800000
 H            1.0    12.2246980700000     7.5861039200000     1.2515989500000
 H            1.0   -12.4154081300000     7.6065001500000    -1.7091660500000
 H            1.0   -11.3669824600000     8.8090887100000    -3.4744141100000
 H            1.0   -11.4740552900000    -8.7083635300000    -2.7040019000000
 H            1.0   -12.5067825300000    -7.3427519800000    -1.0517029800000
 H            1.0    -7.3558850300000     9.0630254700000    -3.5246849100000
 H            1.0    -3.5849809600000     8.9223947500000    -2.9881110200000
 H            1.0     0.2079830000000     9.1090879400000    -2.7427980900000
 H            1.0     3.9507799100000     8.9161567700000    -2.0826110800000
 H            1.0     7.7416791900000     9.0505275700000    -1.7105560300000
 H            1.0    -7.4663820300000    -9.0146522500000    -2.7296350000000
 H            1.0    -3.6937570600000    -8.8734788900000    -2.2054550600000
 H            1.0     0.0967790000000    -9.0841789200000    -1.9426670100000
 H            1.0     3.8420059700000    -8.8797178300000    -1.2999559600000
 H            1.0     7.6311841000000    -9.0271501500000    -0.9155089900000
 H            1.0   -12.3178529700000     5.6226139100000    -4.7152891200000
 H            1.0   -12.4020290400000     3.9440910800000    -1.5558060400000
 H            1.0   -12.3275928500000     1.8866629600000    -4.4861378700000
 H            1.0   -12.4169893300000     0.1321480000000    -1.3680789500000
 H            1.0   -12.3506794000000    -1.8902759600000    -4.3200302100000
 H            1.0   -12.4486389200000    -3.6814560900000    -1.2204370500000
 H            1.0   -12.3866434100000    -5.6317591700000    -4.2203249900000
 H            1.0    12.8388328600000     5.6017899500000    -1.6924519500000
 H            1.0    12.1693906800000     3.9237511200000     1.3967050300000
 H            1.0    12.7879142800000     1.8658740500000    -1.4682489600000
 H            1.0    12.1332321200000     0.1118260000000     1.5818840300000
 H            1.0    12.7648277300000    -1.9110649800000    -1.3021420200000
 H            1.0    12.1227827100000    -3.7017951000000     1.7320729500000
 H            1.0    12.7700443300000    -5.6525821700000    -1.1974899800000
 H            1.0    10.1025323900000    -7.0298481000000    -3.1697499800000
 H            1.0    10.1872654000000     6.8330440500000    -3.7794330100000
 H            1.0    11.3443174400000    -3.9680919600000    -4.4934449200000
 H            1.0    11.3835496900000    -0.1575660000000    -4.6477131800000
 H            1.0    11.3908939400000     3.6519849300000    -4.8285708400000
 H            1.0     8.4806013100000    -5.2422528300000    -6.2387027700000
 H            1.0     8.5419998200000     4.8028612100000    -6.6804828600000
 H            1.0     9.8264446300000     1.6447140000000    -7.7423849100000
 H            1.0     9.8029108000000    -2.2054250200000    -7.5730581300000
 H            1.0     6.9265132000000    -3.4477009800000    -9.3064193700000
 H            1.0     6.9644870800000     2.7650289500000    -9.5796527900000
 H            1.0     8.2326402700000    -0.4012360000000   -10.6261262900000
 H            1.0     5.3249177900000    -1.6494330200000   -12.3088998800000
 H            1.0     5.3394608500000     0.7298020100000   -12.4135379800000
 H            1.0     1.4272060400000     0.7318739900000   -12.9471454600000
 H            1.0     1.4126429600000    -1.6506090200000   -12.8423643100000
 H            1.0    -2.5146360400000    -1.6429439800000   -13.2509031300000
 H            1.0    -2.5000929800000     0.7362899800000   -13.3555412300000
 H            1.0    -9.3300867100000    -7.0137629500000    -5.5047788600000
 H            1.0    -9.2453527500000     6.8491292000000    -6.1144638100000
 H            1.0   -10.1713666900000     3.6698319900000    -7.4195008300000
 H            1.0   -10.2132949800000    -0.1396900000000    -7.2427969000000
 H            1.0   -10.2179431900000    -3.9502439500000    -7.0843720400000
 H            1.0    -6.9629769300000     4.8156948100000    -8.5435657500000
 H            1.0    -7.0243759200000    -5.2294192300000    -8.1017847100000
 H            1.0    -7.9644470200000     1.6594389700000    -9.8801441200000
 H            1.0    -7.9879798900000    -2.1906991000000    -9.7108163800000
 H            1.0    -4.7468848200000     2.7747230500000   -10.9868946100000
 H            1.0    -4.7848591800000    -3.4380080700000   -10.7136602400000
 H            1.0    -5.7361950900000    -0.3896729900000   -12.3046245600000
 H            1.0     6.0636582400000    -7.1032791100000    -3.8501029000000
 H            1.0     2.4230320500000    -7.1233801800000    -4.3587088600000
 H            1.0    -1.5876920200000    -7.1200599700000    -4.8406381600000
 H            1.0    -5.2451348300000    -7.0939178500000    -5.2089691200000
 H            1.0     4.6178298000000    -5.2981128700000    -6.8568840000000
 H            1.0     0.7483149800000    -5.2974438700000    -7.3388090100000
 H            1.0    -3.1252141000000    -5.2917041800000    -7.7872901000000
 H            1.0    -0.8591079700000    -3.4703989000000   -10.3273630100000
 H            1.0     3.0209500800000    -3.4736111200000    -9.8611335800000
 H            1.0     6.1492238000000     6.8957371700000    -4.4657721500000
 H            1.0     2.5088429500000     6.9155287700000    -4.9761338200000
 H            1.0    -1.5018819600000     6.9188489900000    -5.4580650300000
 H            1.0    -5.1595678300000     6.9050979600000    -5.8246412300000
 H            1.0     4.6798691700000     4.8513622300000    -7.3032550800000
 H            1.0     0.8103749800000     4.8555998800000    -7.7853379200000
 H            1.0    -3.0631780600000     4.8577709200000    -8.2336616500000
 H            1.0     3.0592351000000     2.7897911100000   -10.1365966800000
 H            1.0    -0.8208240300000     2.7930018900000   -10.6028261200000
 STOP
 PARAMETERS       MASS         Q      POL   RMIN/2  EPSILON   RMIN/2  EPSILON
 SI          27.976930   0.00000 3.000000 2.000000 0.100000 0.000000 0.000000
 SI          27.976930   0.00000 3.000000 2.000000 0.100000 0.000000 0.000000
 SI          27.976930   0.00000 3.000000 2.000000 0.100000 0.000000 0.000000
 SI          27.976930   0.00000 3.000000 2.000000 0.100000 0.000000 0.000000
 SI          27.976930   0.00000 3.000000 2.000000 0.100000 0.000000 0.000000
 SI          27.976930   0.00000 3.000000 2.000000 0.100000 0.000000 0.000000
 SI          27.976930   0.00000 3.000000 2.000000 0.100000 0.000000 0.000000
 SI          27.976930   0.00000 3.000000 2.000000 0.100000 0.000000 0.000000
 SI          27.976930   0.00000 3.000000 2.000000 0.100000 0.000000 0.000000
 SI          27.976930   0.00000 3.000000 2.000000 0.100000 0.000000 0.000000
 SI          27.976930   0.00000 3.000000 2.000000 0.100000 0.000000 0.000000
 SI          27.976930   0.00000 3.000000 2.000000 0.100000 0.000000 0.000000
 SI          27.976930   0.00000 3.000000 2.000000 0.100000 0.000000 0.000000
 SI          27.976930   0.00000 3.000000 2.000000 0.100000 0.000000 0.000000
 SI          27.976930   0.00000 3.000000 2.000000 0.100000 0.000000 0.000000
 SI          27.976930   0.00000 3.000000 2.000000 0.100000 0.000000 0.000000
 SI          27.976930   0.00000 3.000000 2.000000 0.100000 0.000000 0.000000
 SI          27.976930   0.00000 3.000000 2.000000 0.100000 0.000000 0.000000
 SI          27.976930   0.00000 3.000000 2.000000 0.100000 0.000000 0.000000
 SI          27.976930   0.00000 3.000000 2.000000 0.100000 0.000000 0.000000
 SI          27.976930   0.00000 3.000000 2.000000 0.100000 0.000000 0.000000
 SI          27.976930   0.00000 3.000000 2.000000 0.100000 0.000000 0.000000
 SI          27.976930   0.00000 3.000000 2.000000 0.100000 0.000000 0.000000
 SI          27.976930   0.00000 3.000000 2.000000 0.100000 0.000000 0.000000
 SI          27.976930   0.00000 3.000000 2.000000 0.100000 0.000000 0.000000
 SI          27.976930   0.00000 3.000000 2.000000 0.100000 0.000000 0.000000
 SI          27.976930   0.00000 3.000000 2.000000 0.100000 0.000000 0.000000
 SI          27.976930   0.00000 3.000000 2.000000 0.100000 0.000000 0.000000
 SI          27.976930   0.00000 3.000000 2.000000 0.100000 0.000000 0.000000
 SI          27.976930   0.00000 3.000000 2.000000 0.100000 0.000000 0.000000
 SI          27.976930   0.00000 3.000000 2.000000 0.100000 0.000000 0.000000
 SI          27.976930   0.00000 3.000000 2.000000 0.100000 0.000000 0.000000
 SI          27.976930   0.00000 3.000000 2.000000 0.100000 0.000000 0.000000
 SI          27.976930   0.00000 3.000000 2.000000 0.100000 0.000000 0.000000
 SI          27.976930   0.00000 3.000000 2.000000 0.100000 0.000000 0.000000
 SI          27.976930   0.00000 3.000000 2.000000 0.100000 0.000000 0.000000
 SI          27.976930   0.00000 3.000000 2.000000 0.100000 0.000000 0.000000
 SI          27.976930   0.00000 3.000000 2.000000 0.100000 0.000000 0.000000
 SI          27.976930   0.00000 3.000000 2.000000 0.100000 0.000000 0.000000
 SI          27.976930   0.00000 3.000000 2.000000 0.100000 0.000000 0.000000
 SI          27.976930   0.00000 3.000000 2.000000 0.100000 0.000000 0.000000
 SI          27.976930   0.00000 3.000000 2.000000 0.100000 0.000000 0.000000
 SI          27.976930   0.00000 3.000000 2.000000 0.100000 0.000000 0.000000
 SI          27.976930   0.00000 3.000000 2.000000 0.100000 0.000000 0.000000
 SI          27.976930   0.00000 3.000000 2.000000 0.100000 0.000000 0.000000
 SI          27.976930   0.00000 3.000000 2.000000 0.100000 0.000000 0.000000
 SI          27.976930   0.00000 3.000000 2.000000 0.100000 0.000000 0.000000
 SI          27.976930   0.00000 3.000000 2.000000 0.100000 0.000000 0.000000
 SI          27.976930   0.00000 3.000000 2.000000 0.100000 0.000000 0.000000
 SI          27.976930   0.00000 3.000000 2.000000 0.100000 0.000000 0.000000
 SI          27.976930   0.00000 3.000000 2.000000 0.100000 0.000000 0.000000
 SI          27.976930   0.00000 3.000000 2.000000 0.100000 0.000000 0.000000
 SI          27.976930   0.00000 3.000000 2.000000 0.100000 0.000000 0.000000
 SI          27.976930   0.00000 3.000000 2.000000 0.100000 0.000000 0.000000
 SI          27.976930   0.00000 3.000000 2.000000 0.100000 0.000000 0.000000
 SI          27.976930   0.00000 3.000000 2.000000 0.100000 0.000000 0.000000
 SI          27.976930   0.00000 3.000000 2.000000 0.100000 0.000000 0.000000
 SI          27.976930   0.00000 3.000000 2.000000 0.100000 0.000000 0.000000
 SI          27.976930   0.00000 3.000000 2.000000 0.100000 0.000000 0.000000
 SI          27.976930   0.00000 3.000000 2.000000 0.100000 0.000000 0.000000
 SI          27.976930   0.00000 3.000000 2.000000 0.100000 0.000000 0.000000
 SI          27.976930   0.00000 3.000000 2.000000 0.100000 0.000000 0.000000
 SI          27.976930   0.00000 3.000000 2.000000 0.100000 0.000000 0.000000
 SI          27.976930   0.00000 3.000000 2.000000 0.100000 0.000000 0.000000
 SI          27.976930   0.00000 3.000000 2.000000 0.100000 0.000000 0.000000
 SI          27.976930   0.00000 3.000000 2.000000 0.100000 0.000000 0.000000