! This is to use LOUT=1 to generate a simple force field 
! for the molecule given in $FFDATA.
! The results are in the .dat file, and may require manual changes.
!
 $CONTRL RUNTYP=MD COORD=FRAGONLY $END
 $SYSTEM TIMLIM=9 MWORDS=50 $END
 $QUANPO LOUT=1 NFFTYP=0 TEMP0=298.15 $END
 $FFDATA
 COORDINATES
Si    14.0    -1.94291198    -3.83073592     0.10661200
Si    14.0     1.60150599    -3.83367205     0.53251100
Si    14.0    -1.89455104     4.08110189    -0.24134700
Si    14.0     1.64986205     4.07816601     0.18455200
Si    14.0     0.01583200    -3.93364310    -1.23352599
Si    14.0     0.06458100     4.04205990    -1.58429897
Si    14.0    -1.43824804    -1.81893897     1.25661099
Si    14.0     0.84206599    -1.82082605     1.53061795
Si    14.0    -1.41385496     2.17201996     1.08109105
Si    14.0     0.86645901     2.17013001     1.35510397
Si    14.0     0.18270700    -1.98220098    -2.60885000
Si    14.0     0.20689900     1.97553205    -2.78291512
Si    14.0    -1.89496195     0.12785400    -0.00336700
Si    14.0     1.58742905     0.12497100     0.41506800
Si    14.0     0.03697400     0.05541400    -1.38206196
Si    14.0     0.95098603     6.13224411     1.11358702
Si    14.0    -1.43230700     6.13421822     0.82720900
Si    14.0     0.87811798    -5.78958082     1.63790405
Si    14.0    -1.50517702    -5.78760719     1.35152698
Si    14.0     3.71728611     0.06534200    -0.64472902
Si    14.0    -3.71321392     0.07149300    -1.53757703
Si    14.0     3.76858997     3.96292591    -0.86113203
Si    14.0    -3.70543003     3.96911407    -1.75921297
Si    14.0     3.72091889    -3.83652902    -0.51811600
Si    14.0    -3.75310302    -3.83034110    -1.41619503
Si    14.0     0.23945200     5.90793514    -3.02675009
Si    14.0     0.16715001    -5.92093420    -2.50652003
Si    14.0     2.28808594     1.89115298    -3.85417390
Si    14.0    -1.56140006     1.89434004    -4.31672907
Si    14.0     2.26419306    -2.01759100    -3.68226600
Si    14.0    -1.58529103    -2.01440406    -4.14482117
Si    14.0     2.46450496     3.76735401    -5.31254101
Si    14.0     2.41692591    -4.01658487    -4.97020388
Si    14.0    10.06951046     3.70758200    -4.15759706
Si    14.0    -5.18959093     3.75613689    -6.15593576
Si    14.0     9.01244640     4.02647114     1.26070499
Si    14.0    -5.79503107     4.05651283    -0.65566701
Si    14.0    10.02271366    -3.94844604    -3.82088900
Si    14.0    -5.23691416    -3.98606610    -5.81543589
Si    14.0     8.96474648    -3.77753305     1.60392106
Si    14.0    -5.84302187    -3.79502511    -0.31035900
Si    14.0    -1.38424802     3.77054000    -5.77500820
Si    14.0    -1.43182600    -4.01339912    -5.43267107
Si    14.0     6.25173807     3.74666691    -4.78114223
Si    14.0    -9.04646301     3.72340488    -6.45457983
Si    14.0     5.53741693     4.04713202     0.70604402
Si    14.0    -9.30256653     4.04163218    -0.94003397
Si    14.0     6.20441484    -3.99553704    -4.44064379
Si    14.0    -9.09325886    -3.93262291    -6.11786985
Si    14.0     5.48942804    -3.80440688     1.05135095
Si    14.0    -9.35026836    -3.76237297    -0.59681702
Si    14.0     2.42956996    -0.12273400    -5.10013390
Si    14.0     3.08858299    -0.36266699   -10.46409130
Si    14.0     1.71258998     7.94919491    -0.16168800
Si    14.0     1.61681104    -7.72062492     0.52746302
Si    14.0    10.05924225    -0.12021600    -3.98251104
Si    14.0    -5.21063089    -0.11343700    -5.95058393
Si    14.0     8.97689533     0.12591200     1.46350300
Si    14.0    -4.64064884    -0.35242501   -11.30541801
Si    14.0    -5.80901384     0.13257000    -0.44010699
Si    14.0     9.10994244     7.89597082     0.94310200
Si    14.0     9.01485443    -7.66087580     1.62728405
Si    14.0    -5.74547815     7.93244314    -0.99342400
Si    14.0    -5.84094286    -7.68595695    -0.30653200
Si    14.0    -1.40697503    -0.11955800    -5.56113386
Si    14.0    -0.77689803    -0.35946801   -10.92856884
Si    14.0    -1.86715102     7.95215988    -0.59183198
Si    14.0    -1.96292996    -7.71766090     0.09732100
Si    14.0     6.21721697    -0.12289600    -4.57741117
Si    14.0    -9.08421230    -0.10437100    -6.28279495
Si    14.0     6.93163013    -0.36200300    -9.91489029
Si    14.0     5.49353218     0.12321300     0.91801000
Si    14.0    -9.32243633     0.14105999    -0.73535103
Si    14.0     5.57561493     7.92307091     0.36692399
Si    14.0     5.48015213    -7.69532919     1.05381298
Si    14.0    -9.31573200     7.91122389    -1.27093506
Si    14.0    -9.41082096    -7.64562321    -0.58674997
Si    14.0     2.94150591     1.63085103    -9.21944427
Si    14.0     2.25568795    -5.88773012    -3.55693007
Si    14.0     9.87938976     1.85487497    -2.71556592
Si    14.0    -5.30512905     1.88717496    -4.68562222
Si    14.0     8.23421669     2.14032412     2.43741989
Si    14.0    -4.82436800     1.61350596   -10.06772709
Si    14.0    -6.45523024     2.15871406     0.57512200
Si    14.0     9.86726284    -5.78634214    -2.39765096
Si    14.0    -5.36148882    -5.85641003    -4.40127897
Si    14.0     8.22104359    -5.73170614     2.70294309
Si    14.0    -6.50608492    -5.74631405     0.83404201
Si    14.0    -0.92561197     1.63405204    -9.68411827
Si    14.0    -1.61303699    -5.88452816    -4.02179718
Si    14.0     6.01261997     1.87780702    -3.32567906
Si    14.0    -9.20639610     1.87067294    -5.00892115
Si    14.0     6.82011795     1.60386801    -8.66852188
Si    14.0     5.88415098     2.14849806     2.05782604
Si    14.0    -8.82833481     2.15444899     0.38717800
Si    14.0     5.98737812    -5.86580420    -3.03759694
Si    14.0    -9.28239727    -5.77049112    -4.69867897
Si    14.0     5.85932207    -5.75654984     2.31987190
Si    14.0    -8.89128399    -5.71753979     0.64672202
Si    14.0     2.91786289    -2.23728299    -9.04932499
Si    14.0     2.32686591     5.75716877    -4.06906891
Si    14.0     9.85598564    -1.97412002    -2.54716897
Si    14.0    -5.32885218    -1.99397600    -4.51492977
Si    14.0     8.21021843    -1.78601503     2.61009789
Si    14.0    -4.84767485    -2.19972610    -9.90002155
Si    14.0    -6.47935677    -1.78859305     0.74872398
Si    14.0     9.93725681     5.66508198    -2.90127897
Si    14.0    -5.29057789     5.74478388    -4.91149521
Si    14.0     8.29323006     6.07850599     2.18353605
Si    14.0    -6.43362284     6.10867500     0.31266299
Si    14.0    -0.94925499    -2.23408198    -9.51399803
Si    14.0    -1.54185903     5.76037121    -4.53393602
Si    14.0     5.98889685    -2.00334501    -3.15498710
Si    14.0    -9.22980022    -1.95832205    -4.84052277
Si    14.0     6.79681015    -2.20936394    -8.50081730
Si    14.0     5.86002398    -1.79880798     2.23142600
Si    14.0    -8.85233402    -1.77189100     0.55985701
Si    14.0     6.05828714     5.73538923    -3.54781103
Si    14.0    -9.21240234     5.68093300    -5.20230913
Si    14.0     5.93178177     6.09843779     1.79849505
Si    14.0    -8.81909561     6.09267092     0.12731200
Si    14.0     0.84984201     1.71044302    -8.13545418
Si    14.0     7.73045588     1.93827605    -1.72772503
Si    14.0    -7.35252094     1.95076203    -3.54010105
Si    14.0     8.51121616     1.68487704    -7.05784416
Si    14.0    -6.84876204     1.69759095    -8.90350437
Si    14.0     7.71406698    -5.85888386    -1.46170294
Si    14.0    -7.41234207    -5.84636307    -3.27929497
Si    14.0    11.41273212     1.90680099    -0.91389400
Si    14.0    -3.57289004     1.94831300    -3.05321693
Si    14.0    -3.00501394     1.70970094    -8.57597733
Si    14.0    11.39691067    -5.65922022    -0.63677198
Si    14.0    -3.62750912    -5.79920912    -2.80068707
Si    14.0     3.94307590     1.94209099    -2.15009809
Si    14.0   -11.12281895     1.92545497    -3.62177396
Si    14.0     4.69931793     1.70332396    -7.65022182
Si    14.0     3.92367291    -5.80546093    -1.89333606
Si    14.0   -11.18544579    -5.64052677    -3.35027504
Si    14.0     0.82596499    -2.19588304    -7.96365499
Si    14.0     7.70672607    -1.94425702    -1.55697298
Si    14.0    -7.37625217    -1.93177199    -3.36934805
Si    14.0     8.48765755    -2.16929102    -6.88834000
Si    14.0    -6.87232018    -2.15657711    -8.73399925
Si    14.0     7.78560877     5.84577084    -1.97646701
Si    14.0    -7.34079885     5.85829210    -3.79406190
Si    14.0    11.38954735    -1.88638902    -0.74707198
Si    14.0    -3.59661198    -1.93270504    -2.88253093
Si    14.0    -3.02883005    -2.18678403    -8.40460968
Si    14.0    11.46618462     5.67437792    -1.13521802
Si    14.0    -3.55656695     5.80716276    -3.31113100
Si    14.0     3.91935396    -1.93892705    -1.97941196
Si    14.0   -11.14600468    -1.86773503    -3.45495105
Si    14.0     4.67550087    -2.19316101    -7.47885609
Si    14.0     3.99461389     5.80091190    -2.40377808
Si    14.0   -11.11617088     5.69306993    -3.84872293
Si    14.0     0.69988602     3.69127393    -6.87385082
Si    14.0     0.65253001    -4.05633593    -6.53311300
Si    14.0     7.52148914     3.96748400    -0.55114597
Si    14.0    -7.42492294     3.97985697    -2.34711194
Si    14.0     8.38576317     3.63371897    -5.78090715
Si    14.0    -7.02620602     3.64647603    -7.63281488
Si    14.0     7.47364902    -3.85964298    -0.20691299
Si    14.0    -7.47276497    -3.84727097    -2.00287795
Si    14.0     8.33912277    -3.99683595    -5.44531918
Si    14.0    -7.07284594    -3.98407793    -7.29722500
Si    14.0    11.15310383     3.87556291     0.31872901
Si    14.0    -3.14997792     3.69026709    -7.32453680
Si    14.0    11.10657978    -3.73602796     0.65348297
Si    14.0    -3.19727612    -4.04792595    -6.98421288
Si    14.0   -11.15937805     3.89403296    -2.36234689
Si    14.0     4.54692078     3.68389606    -6.39967489
Si    14.0   -11.20590305    -3.71755910    -2.02759194
Si    14.0     4.49962187    -4.05429792    -6.05935192
Si    14.0     1.31498504    -0.42030501   -12.02115726
Si    14.0     0.67521101    -0.18216000    -6.69517612
Si    14.0     0.09949000     7.93651199    -1.84797800
Si    14.0     0.00308100    -7.83634186    -1.15429401
Si    14.0     7.47806978     0.05580400    -0.33891401
Si    14.0    -7.43940115     0.06815300    -2.13140106
Si    14.0     8.35699844    -0.18212201    -5.62668610
Si    14.0    -7.04102182    -0.16937700    -7.47691679
Si    14.0     7.58652306     7.88214397    -0.81723398
Si    14.0     7.49077320    -7.78305006    -0.12828600
Si    14.0    -7.41868019     7.89456511    -2.62026501
Si    14.0    -7.51443100    -7.77062893    -1.93131495
Si    14.0    11.11564445     0.07066400     0.50451899
Si    14.0    -2.59418893    -0.41418201   -12.42522144
Si    14.0    -3.16329694    -0.17814700    -7.13741398
Si    14.0    11.26230812     7.62098789     0.12449800
Si    14.0    11.16997623    -7.48509598     0.78885603
Si    14.0    -3.67804694     7.78626680    -2.03596997
Si    14.0    -3.77244210    -7.65710211    -1.35677600
Si    14.0     5.20860815    -0.42063999   -11.48763371
Si    14.0   -11.17320824     0.08911400    -2.17371702
Si    14.0     4.50921917    -0.18449800    -6.21548223
Si    14.0     3.81377912     7.78006506    -1.13574898
Si    14.0     3.71938491    -7.66330385    -0.45655701
Si    14.0   -11.21334839     7.63959217    -2.57618594
Si    14.0   -11.30568123    -7.46649218    -1.91182494
H     1.0    -9.38514042     9.16599846    -0.48719499
H     1.0    -5.83573389     9.18406677    -0.20547400
H     1.0    -1.95210004     9.20343971     0.19721200
H     1.0     1.61023700     9.20049000     0.62526500
H     1.0     5.47867918     9.17470074     1.15407097
H     1.0     8.99375343     9.15078354     1.72122097
H     1.0    -9.49511337    -8.82581139     0.30407900
H     1.0    -5.94604015    -8.86238289     0.58820301
H     1.0    -2.06271505    -8.89371395     0.99311799
H     1.0     1.49962199    -8.89666367     1.42116904
H     1.0     5.36837482    -8.87174988     1.94774497
H     1.0     8.88378334    -8.84102535     2.51249099
H     1.0    12.13332367    -7.36314821     1.90905905
H     1.0    11.51919556    -8.72739601     0.05887300
H     1.0    11.62626743     8.79005623    -0.71153498
H     1.0    12.22469807     7.58610392     1.25159895
H     1.0   -12.41540813     7.60650015    -1.70916605
H     1.0   -11.36698246     8.80908871    -3.47441411
H     1.0   -11.47405529    -8.70836353    -2.70400190
H     1.0   -12.50678253    -7.34275198    -1.05170298
H     1.0    -7.35588503     9.06302547    -3.52468491
H     1.0    -3.58498096     8.92239475    -2.98811102
H     1.0     0.20798300     9.10908794    -2.74279809
H     1.0     3.95077991     8.91615677    -2.08261108
H     1.0     7.74167919     9.05052757    -1.71055603
H     1.0    -7.46638203    -9.01465225    -2.72963500
H     1.0    -3.69375706    -8.87347889    -2.20545506
H     1.0     0.09677900    -9.08417892    -1.94266701
H     1.0     3.84200597    -8.87971783    -1.29995596
H     1.0     7.63118410    -9.02715015    -0.91550899
H     1.0   -12.31785297     5.62261391    -4.71528912
H     1.0   -12.40202904     3.94409108    -1.55580604
H     1.0   -12.32759285     1.88666296    -4.48613787
H     1.0   -12.41698933     0.13214800    -1.36807895
H     1.0   -12.35067940    -1.89027596    -4.32003021
H     1.0   -12.44863892    -3.68145609    -1.22043705
H     1.0   -12.38664341    -5.63175917    -4.22032499
H     1.0    12.83883286     5.60178995    -1.69245195
H     1.0    12.16939068     3.92375112     1.39670503
H     1.0    12.78791428     1.86587405    -1.46824896
H     1.0    12.13323212     0.11182600     1.58188403
H     1.0    12.76482773    -1.91106498    -1.30214202
H     1.0    12.12278271    -3.70179510     1.73207295
H     1.0    12.77004433    -5.65258217    -1.19748998
H     1.0    10.10253239    -7.02984810    -3.16974998
H     1.0    10.18726540     6.83304405    -3.77943301
H     1.0    11.34431744    -3.96809196    -4.49344492
H     1.0    11.38354969    -0.15756600    -4.64771318
H     1.0    11.39089394     3.65198493    -4.82857084
H     1.0     8.48060131    -5.24225283    -6.23870277
H     1.0     8.54199982     4.80286121    -6.68048286
H     1.0     9.82644463     1.64471400    -7.74238491
H     1.0     9.80291080    -2.20542502    -7.57305813
H     1.0     6.92651320    -3.44770098    -9.30641937
H     1.0     6.96448708     2.76502895    -9.57965279
H     1.0     8.23264027    -0.40123600   -10.62612629
H     1.0     5.32491779    -1.64943302   -12.30889988
H     1.0     5.33946085     0.72980201   -12.41353798
H     1.0     1.42720604     0.73187399   -12.94714546
H     1.0     1.41264296    -1.65060902   -12.84236431
H     1.0    -2.51463604    -1.64294398   -13.25090313
H     1.0    -2.50009298     0.73628998   -13.35554123
H     1.0    -9.33008671    -7.01376295    -5.50477886
H     1.0    -9.24535275     6.84912920    -6.11446381
H     1.0   -10.17136669     3.66983199    -7.41950083
H     1.0   -10.21329498    -0.13969000    -7.24279690
H     1.0   -10.21794319    -3.95024395    -7.08437204
H     1.0    -6.96297693     4.81569481    -8.54356575
H     1.0    -7.02437592    -5.22941923    -8.10178471
H     1.0    -7.96444702     1.65943897    -9.88014412
H     1.0    -7.98797989    -2.19069910    -9.71081638
H     1.0    -4.74688482     2.77472305   -10.98689461
H     1.0    -4.78485918    -3.43800807   -10.71366024
H     1.0    -5.73619509    -0.38967299   -12.30462456
H     1.0     6.06365824    -7.10327911    -3.85010290
H     1.0     2.42303205    -7.12338018    -4.35870886
H     1.0    -1.58769202    -7.12005997    -4.84063816
H     1.0    -5.24513483    -7.09391785    -5.20896912
H     1.0     4.61782980    -5.29811287    -6.85688400
H     1.0     0.74831498    -5.29744387    -7.33880901
H     1.0    -3.12521410    -5.29170418    -7.78729010
H     1.0    -0.85910797    -3.47039890   -10.32736301
H     1.0     3.02095008    -3.47361112    -9.86113358
H     1.0     6.14922380     6.89573717    -4.46577215
H     1.0     2.50884295     6.91552877    -4.97613382
H     1.0    -1.50188196     6.91884899    -5.45806503
H     1.0    -5.15956783     6.90509796    -5.82464123
H     1.0     4.67986917     4.85136223    -7.30325508
H     1.0     0.81037498     4.85559988    -7.78533792
H     1.0    -3.06317806     4.85777092    -8.23366165
H     1.0     3.05923510     2.78979111   -10.13659668
H     1.0    -0.82082403     2.79300189   -10.60282612
 STOP
 $END

! TRAVIS-CI SMALL

