!   CF3I...test of 2nd order DK transformation...deliberately not 3rd!
!   the basis set might be related to 6-311G?  It contains L shells.
!   there are 143 AOs, 134 MOs, 43 occupied MOs
!
!       NSERCH:   0  E=    -7405.3771209539  R.M.S.=  0.0001199
!       NSERCH:   1  E=    -7405.3771201641  R.M.S.=  0.0002491
!       NSERCH:   2  E=    -7405.3771212856  R.M.S.=  0.0000124
!       NSERCH:   3  E=    -7405.3771212820  R.M.S.=  0.0000033
!       NSERCH:   4  E=    -7405.3771212894  R.M.S.=  0.0000018
!
!   This run takes 27 seconds on a 2.66 GHz Cloverton (10 Aug 2015)
!     results more or less the same ever since 2005,
!     except after RI q-matrix tolerance change in 2015.
!
 $contrl scftyp=rhf runtyp=optimize relwfn=dk ispher=1 $end
 $system mwords=3 $end
 $relwfn norder=2 $end
 $guess  guess=huckel $end
 $statpt opttol=1d-5 $end
 $data
CF3I...unknown basis set
Cnv 3

I          53.0    .0000000000    .0000000000    .8940236864
 S   5
  1        444750.0000         0.8900000000E-03
  2        66127.00000         0.6940000000E-02
  3        14815.00000         0.3609000000E-01
  4        4144.900000         0.1356800000
  5        1361.200000         0.3387800000
 S   2
  1        508.4400000         0.4365900000
  2        209.5900000         0.1837500000
 S   1
  1        81.95900000          1.000000000
 S   1
  1        36.80500000          1.000000000
 S   1
  1        13.49500000          1.000000000
 S   1
  1        6.885900000          1.000000000
 S   1
  1        2.552000000          1.000000000
 S   1
  1        1.208800000          1.000000000
 S   1
  1       0.2734000000          1.000000000
 S   1
  1       0.1009000000          1.000000000
 P   4
  1        2953.600000         0.1221000000E-01
  2        712.6100000         0.8587000000E-01
  3        236.7100000         0.2949300000
  4        92.63100000         0.4784900000
 P   1
  1        39.73200000          1.000000000
 P   1
  1        17.27300000          1.000000000
 P   1
  1        7.957000000          1.000000000
 P   1
  1        3.152900000          1.000000000
 P   1
  1        1.332800000          1.000000000
 P   1
  1       0.4947000000          1.000000000
 P   1
  1       0.2160000000          1.000000000
 P   1
  1       0.8293000000E-01      1.000000000
 D   3
  1        261.9500000         0.3144000000E-01
  2        76.73400000         0.1902800000
  3        27.55100000         0.4724700000
 D   1
  1        10.60600000          1.000000000
 D   1
  1        3.421700000          1.000000000
 D   1
  1        1.137000000          1.000000000
 D   1
  1       0.302000000          1.00000000

C           6.0    .0000000000    .0000000000  -1.2454284467
 S   6
  1        4563.240000         0.1966650000E-02
  2        682.0240000         0.1523060000E-01
  3        154.9730000         0.7612690000E-01
  4        44.45530000         0.2608010000
  5        13.02900000         0.6164620000
  6        1.827730000         0.2210060000
 L   3
  1        20.96420000         0.1146600000         0.4024870000E-01
  2        4.803310000         0.9199990000         0.2375940000
  3        1.459330000        -0.3030680000E-02     0.8158540000
 L   1
  1       0.4834560000          1.000000000          1.000000000
 L   1
  1       0.1455850000          1.000000000          1.000000000
 D   1
  1       0.626000000          1.00000000

F           9.0    1.2223149107  0 -1.7024707466
 S   6
  1        11427.10000         0.1800930000E-02
  2        1722.350000         0.1374190000E-01
  3        395.7460000         0.6813340000E-01
  4        115.1390000         0.2333250000
  5        33.60260000         0.5890860000
  6        4.919010000         0.2995050000
 L   3
  1        55.44410000         0.1145360000         0.3546090000E-01
  2        12.63230000         0.9205120000         0.2374510000
  3        3.717560000        -0.3378040000E-02     0.8204580000
 L   1
  1        1.165450000          1.000000000          1.000000000
 L   1
  1       0.3218920000          1.000000000          1.000000000
 D   1
  1        1.75000000          1.00000000

 $end

! TRAVIS-CI SMALL
! TRAVIS-CI SKIP
! ACCURACY BETWEEN INTEL AND GNU DOES NOT MATCH
