!   (SnH3)(SeH)(At)Bi=S...random molecule with many heavy atoms.
!   The test is energy at 3rd order Douglas/Kroll, created in 2004.
!   Energy will fluctuate somewhat, reflecting RI accuracy levels.
!   Gradient is skipped, because that takes an immense time when
!   using q.p. arithmetic.  Because of not doing a gradient, the
!   spherical harmonic RI basis set option is invoked.
!
!   Basis set is a general contraction of the University of Tokyo
!   relativistic exponents.  Exponent range is very large,
!   so the use of q.p. in resolution of identity is de riguer.
!   There are 225 AOs, 205 MOs, and the RI step has 842 spherical
!   harmonics kept, from a total of 958 primitive GTOs.
!   Using sph.har. RI is stabilizing for the energy calculation,
!   but should not be used for gradient runs.
!
!          FINAL E= -53418.3120967664, 19 iters on ifort/linux64
!                   -53418.3120967853 on Solaris
!                    53418.3120967847 on HPUX
!
!   The run takes 8,528 seconds on 2.66 GHz Cloverton (17 Apr 2015)
!
!   because of the q.p. RI, relativistic 1e- integrals take long: 2020 secs
!   because of the general contraction,  2e- integrals take long: 6462
!                                              SCF is not so bad:   46
!            ...so it is easy to guess why this test is not direct SCF.
!   disk space for integrals is modest: 1.60 GBytes
!    HP times: rel. 1e-=  5,747, 2e-= 25,237, SCF= 260 (31,136 total)
!   Sun times: rel. 1e-= 17,264, 2e-= 33,861, SCF= 617 (51,833 total)
!
 $contrl scftyp=rhf runtyp=energy nzvar=21 relwfn=dk ispher=1 $end
 $system mwords=40 $end
!            11 = 1+2+8 = uncontract + spherical harmonic + q.p.
 $relwfn norder=3 modeqr=11 $end
 $guess  guess=huckel $end
 $basis  basnam(1)=BiBas,SnBas,HBas,HBas,HBas,SeBas,HBas,AtBas,SBas $end
 $data
relativity test on artificial molecule...(SnH3)(SeH)(At)Bi=S
C1
BI    83.0    .4070872775    .7782398266   -.3936725280
SN    50.0   1.1414728458   1.1356145862   2.3848588864
H      1.0   1.2527257999   -.4214651586   3.0224606970
H      1.0   2.6177043590   1.9484947995   2.3495726821
H      1.0   -.1127047214   2.0405969627   3.0535321693
SE    34.0   2.0684890776  -1.1125182760  -1.2134154093
H      1.0   2.1422107340   -.5803659875  -2.5852472725
AT    85.0  -2.1302318016   -.6171154150   -.2143212107
S     16.0    .3754817088   2.6319401078  -1.8885256240
 $end
 $zmat izmat(1)=1,1,2,  1,2,3,  1,2,4,  1,2,5,
           1,1,6,  1,6,7,  1,1,8,  1,1,9
           2,2,1,6,  2,8,1,6,  2,9,1,6,
           3,2,1,6,7,  3,8,1,6,7,  3,9,1,6,7
           2,3,2,1,  2,4,2,1,  2,5,2,1,   2,7,6,1,
           3,3,2,1,6,  3,4,2,1,6,  3,5,2,1,6  $end

The basis sets below are general contractions of 3rd order DKH
atomic calculations, using GTOs from
        T.Tsuchiya, M.Abe, T.Nakajima, K.Hirao
        J.Chem.Phys. 115, 4463-4472(2001).
and the utility program dk3.f provided with GAMESS to prepare these.

 $HBas
  s   6
     1 8.2932759E+01  2.00426027E-03
     2 1.2452437E+01  1.52888008E-02
     3 2.8330596E+00  7.53170107E-02
     4 8.0001038E-01  2.56334672E-01
     5 2.5859498E-01  4.97620777E-01
     6 8.9969184E-02  2.96753466E-01
   s  1
     1 8.9969184E-02  1.0
   p 1 ; 1 1.0 1.0

 $end
 $SBas
  s  16
     1 1.4624900E+06  9.49179978E-05
     2 1.8318600E+05  3.54736139E-04
     3 3.7362930E+04  1.16685052E-03
     4 9.8356230E+03  3.74623572E-03
     5 3.0561810E+03  1.19436261E-02
     6 1.0666020E+03  3.63168294E-02
     7 4.0570210E+02  9.82349393E-02
     8 1.6515130E+02  2.19376742E-01
     9 7.0536460E+01  3.59790528E-01
    10 3.1093080E+01  3.24901243E-01
    11 1.3786740E+01  9.62670071E-02
    12 5.6284700E+00  3.08130918E-03
    13 2.4316130E+00  1.19353372E-03
    14 1.0160220E+00 -3.57130967E-04
    15 3.8879040E-01  1.15850121E-04
    16 1.4182360E-01 -4.21637643E-05
  s  16
     1 1.4624900E+06 -2.63673001E-05
     2 1.8318600E+05 -9.86440057E-05
     3 3.7362930E+04 -3.24626665E-04
     4 9.8356230E+03 -1.04730917E-03
     5 3.0561810E+03 -3.35115724E-03
     6 1.0666020E+03 -1.04018418E-02
     7 4.0570210E+02 -2.90824794E-02
     8 1.6515130E+02 -7.14582406E-02
     9 7.0536460E+01 -1.40673748E-01
    10 3.1093080E+01 -1.89586549E-01
    11 1.3786740E+01 -1.32518204E-02
    12 5.6284700E+00  4.72735259E-01
    13 2.4316130E+00  5.59334894E-01
    14 1.0160220E+00  1.01369339E-01
    15 3.8879040E-01 -1.29761279E-03
    16 1.4182360E-01  1.04330749E-03
  p  11
     1 2.0282170E+03  3.64148422E-04
     2 4.6207420E+02  2.78228708E-03
     3 1.4752100E+02  1.45341923E-02
     4 5.5026120E+01  5.65752828E-02
     5 2.2478250E+01  1.62315563E-01
     6 9.6724070E+00  3.20472012E-01
     7 4.2437700E+00  4.00396188E-01
     8 1.8672210E+00  2.30163960E-01
     9 6.8571640E-01  2.68263337E-02
    10 2.6217470E-01 -1.64916513E-03
    11 9.5072720E-02  9.41461177E-04
  s  16
     1 1.4624900E+06  7.65590001E-06
     2 1.8318600E+05  2.86575770E-05
     3 3.7362930E+04  9.41937053E-05
     4 9.8356230E+03  3.04807320E-04
     5 3.0561810E+03  9.71518603E-04
     6 1.0666020E+03  3.03929010E-03
     7 4.0570210E+02  8.45631961E-03
     8 1.6515130E+02  2.11812611E-02
     9 7.0536460E+01  4.18334033E-02
    10 3.1093080E+01  6.01226389E-02
    11 1.3786740E+01  1.77049543E-03
    12 5.6284700E+00 -1.78391431E-01
    13 2.4316130E+00 -3.80590306E-01
    14 1.0160220E+00 -1.26383971E-02
    15 3.8879040E-01  7.17013614E-01
    16 1.4182360E-01  4.55310577E-01
  p  11
     1 2.0282170E+03 -9.34682119E-05
     2 4.6207420E+02 -7.04292553E-04
     3 1.4752100E+02 -3.76634589E-03
     4 5.5026120E+01 -1.45733359E-02
     5 2.2478250E+01 -4.38971039E-02
     6 9.6724070E+00 -8.64363717E-02
     7 4.2437700E+00 -1.22335174E-01
     8 1.8672210E+00 -2.95493228E-02
     9 6.8571640E-01  3.27070702E-01
    10 2.6217470E-01  5.43919412E-01
    11 9.5072720E-02  2.79248066E-01
  s 1
     1 1.4182360E-01  1.0
  p 1
     1 9.5072720E-02  1.0
  d 1 ; 1 0.65 1.0

 $end
 $SeBas
  s  20
     1 7.0126910E+07  4.55201365E-05
     2 7.6150590E+06  1.71966427E-04
     3 1.3399940E+06  5.25021005E-04
     4 3.0471930E+05  1.43490183E-03
     5 8.3264650E+04  3.67884793E-03
     6 2.6000940E+04  9.30962606E-03
     7 8.9882070E+03  2.36335467E-02
     8 3.3653010E+03  5.95913858E-02
     9 1.3451580E+03  1.39253711E-01
    10 5.6764000E+02  2.72057350E-01
    11 2.4958650E+02  3.68160008E-01
    12 1.1248470E+02  2.48766808E-01
    13 4.5767340E+01  4.23480361E-02
    14 2.2295360E+01 -6.00382164E-03
    15 1.0805420E+01  2.94593706E-03
    16 4.4801370E+00 -1.40942839E-03
    17 2.0468810E+00  7.47737931E-04
    18 8.6721290E-01 -3.49197725E-04
    19 3.4341860E-01  1.37127207E-04
    20 1.2788100E-01 -3.52044074E-05
  s  20
     1 7.0126910E+07 -1.46262271E-05
     2 7.6150590E+06 -5.52718281E-05
     3 1.3399940E+06 -1.68975676E-04
     4 3.0471930E+05 -4.62427813E-04
     5 8.3264650E+04 -1.19157780E-03
     6 2.6000940E+04 -3.02994293E-03
     7 8.9882070E+03 -7.81776312E-03
     8 3.3653010E+03 -2.01592085E-02
     9 1.3451580E+03 -5.01139450E-02
    10 5.6764000E+02 -1.09641246E-01
    11 2.4958650E+02 -1.92720515E-01
    12 1.1248470E+02 -1.71676640E-01
    13 4.5767340E+01  2.15991002E-01
    14 2.2295360E+01  6.04527867E-01
    15 1.0805420E+01  3.28438954E-01
    16 4.4801370E+00  3.08117907E-02
    17 2.0468810E+00 -1.83435046E-03
    18 8.6721290E-01  1.14448990E-03
    19 3.4341860E-01 -4.10395883E-04
    20 1.2788100E-01  8.80483780E-05
  p  15
     1 4.8566150E+04  1.28126583E-04
     2 8.4316000E+03  7.29227332E-04
     3 2.2946350E+03  3.64966972E-03
     4 7.8377970E+02  1.59025474E-02
     5 3.0586350E+02  5.76125786E-02
     6 1.3060430E+02  1.61204645E-01
     7 5.9465130E+01  3.17366440E-01
     8 2.8363770E+01  3.82068064E-01
     9 1.3896050E+01  2.14279802E-01
    10 6.6186080E+00  3.78358077E-02
    11 3.1194380E+00  1.23331982E-03
    12 1.4491170E+00  6.47181397E-04
    13 5.3959100E-01 -9.85825441E-05
    14 2.1459710E-01  3.89662137E-05
    15 8.0700040E-02 -1.61845937E-05
  s  20
     1 7.0126910E+07  5.77493575E-06
     2 7.6150590E+06  2.18212109E-05
     3 1.3399940E+06  6.67441320E-05
     4 3.0471930E+05  1.82565569E-04
     5 8.3264650E+04  4.71304644E-04
     6 2.6000940E+04  1.19683526E-03
     7 8.9882070E+03  3.10320717E-03
     8 3.3653010E+03  7.99569454E-03
     9 1.3451580E+03  2.01312111E-02
    10 5.6764000E+02  4.44563057E-02
    11 2.4958650E+02  8.17185691E-02
    12 1.1248470E+02  7.58044366E-02
    13 4.5767340E+01 -1.15453856E-01
    14 2.2295360E+01 -4.68075536E-01
    15 1.0805420E+01 -2.94907804E-01
    16 4.4801370E+00  5.68021907E-01
    17 2.0468810E+00  6.60203944E-01
    18 8.6721290E-01  9.07909012E-02
    19 3.4341860E-01 -1.99620710E-03
    20 1.2788100E-01  7.76750500E-04
  p  15
     1 4.8566150E+04 -5.09678031E-05
     2 8.4316000E+03 -2.90928606E-04
     3 2.2946350E+03 -1.45957661E-03
     4 7.8377970E+02 -6.42802207E-03
     5 3.0586350E+02 -2.36965693E-02
     6 1.3060430E+02 -6.90313291E-02
     7 5.9465130E+01 -1.42741000E-01
     8 2.8363770E+01 -1.81584208E-01
     9 1.3896050E+01 -1.29187244E-02
    10 6.6186080E+00  3.53992342E-01
    11 3.1194380E+00  5.07514146E-01
    12 1.4491170E+00  2.45071403E-01
    13 5.3959100E-01  2.06207162E-02
    14 2.1459710E-01 -1.30500737E-03
    15 8.0700040E-02  6.31946565E-04
  d   9
     1 6.5851230E+02  4.98732973E-04
     2 2.0180170E+02  3.94841965E-03
     3 8.0065640E+01  1.95764558E-02
     4 3.4777660E+01  7.05179809E-02
     5 1.5742740E+01  1.84293803E-01
     6 7.2754480E+00  3.19268152E-01
     7 3.3192220E+00  3.71175610E-01
     8 1.4637820E+00  2.62486095E-01
     9 5.8195150E-01  7.32441851E-02
  s  20
     1 7.0126910E+07 -1.69486821E-06
     2 7.6150590E+06 -6.40316509E-06
     3 1.3399940E+06 -1.95940634E-05
     4 3.0471930E+05 -5.35499226E-05
     5 8.3264650E+04 -1.38477833E-04
     6 2.6000940E+04 -3.50770197E-04
     7 8.9882070E+03 -9.13189146E-04
     8 3.3653010E+03 -2.34230019E-03
     9 1.3451580E+03 -5.94122829E-03
    10 5.6764000E+02 -1.30457469E-02
    11 2.4958650E+02 -2.43779336E-02
    12 1.1248470E+02 -2.22994523E-02
    13 4.5767340E+01  3.44350462E-02
    14 2.2295360E+01  1.54964012E-01
    15 1.0805420E+01  9.35848266E-02
    16 4.4801370E+00 -2.23010228E-01
    17 2.0468810E+00 -4.66080834E-01
    18 8.6721290E-01 -2.05323324E-02
    19 3.4341860E-01  7.60374218E-01
    20 1.2788100E-01  4.41962328E-01
  p  15
     1 4.8566150E+04  1.22861719E-05
     2 8.4316000E+03  7.03665923E-05
     3 2.2946350E+03  3.51361649E-04
     4 7.8377970E+02  1.55920861E-03
     5 3.0586350E+02  5.71915412E-03
     6 1.3060430E+02  1.68844522E-02
     7 5.9465130E+01  3.47406163E-02
     8 2.8363770E+01  4.55139940E-02
     9 1.3896050E+01 -2.60854384E-03
    10 6.6186080E+00 -1.02564474E-01
    11 3.1194380E+00 -1.73242400E-01
    12 1.4491170E+00 -5.83368833E-02
    13 5.3959100E-01  3.41676978E-01
    14 2.1459710E-01  5.52624676E-01
    15 8.0700040E-02  2.67134668E-01
  s 1
     1 1.2788100E-01  1.0
  p 1
     1 8.0700040E-02  1.0
  d 1 ; 1 0.338 1.0

 $end
 $SnBas
  s  23
     1 1.3432880E+09  1.92471385E-05
     2 1.3851420E+08  7.51785524E-05
     3 2.2415860E+07  2.32046330E-04
     4 4.7773820E+06  6.15428508E-04
     5 1.2109210E+06  1.51183470E-03
     6 3.4915710E+05  3.48641948E-03
     7 1.1212160E+05  7.77725355E-03
     8 3.9180990E+04  1.71050738E-02
     9 1.4787450E+04  3.71189553E-02
    10 5.9629570E+03  7.92429519E-02
    11 2.5404210E+03  1.59561169E-01
    12 1.1309210E+03  2.75193080E-01
    13 5.2262180E+02  3.37866908E-01
    14 2.4750390E+02  2.20450813E-01
    15 1.1172140E+02  4.16297825E-02
    16 5.5480780E+01 -2.76522024E-03
    17 2.7527550E+01  1.53831885E-03
    18 1.1957690E+01 -7.71012866E-04
    19 5.9659470E+00  3.51901344E-04
    20 2.2137980E+00 -1.29109633E-04
    21 9.9637830E-01  5.49768056E-05
    22 2.0585600E-01 -1.31185677E-05
    23 7.7917830E-02  5.35093919E-06
  s  23
     1 1.3432880E+09 -6.60344422E-06
     2 1.3851420E+08 -2.57880853E-05
     3 2.2415860E+07 -7.96221997E-05
     4 4.7773820E+06 -2.11346516E-04
     5 1.2109210E+06 -5.20243009E-04
     6 3.4915710E+05 -1.20371763E-03
     7 1.1212160E+05 -2.70295510E-03
     8 3.9180990E+04 -6.00593637E-03
     9 1.4787450E+04 -1.32926135E-02
    10 5.9629570E+03 -2.93255680E-02
    11 2.5404210E+03 -6.30712952E-02
    12 1.1309210E+03 -1.22947263E-01
    13 5.2262180E+02 -1.91119706E-01
    14 2.4750390E+02 -1.50801342E-01
    15 1.1172140E+02  2.09312104E-01
    16 5.5480780E+01  5.86406732E-01
    17 2.7527550E+01  3.51824664E-01
    18 1.1957690E+01  3.71128483E-02
    19 5.9659470E+00 -3.13789253E-03
    20 2.2137980E+00  7.60383564E-04
    21 9.9637830E-01 -3.85288581E-04
    22 2.0585600E-01  7.89207865E-05
    23 7.7917830E-02 -3.16587975E-05
  p  19
     1 1.5547130E+06  2.63031126E-05
     2 2.2268520E+05  1.05885990E-04
     3 4.8836280E+04  3.88748960E-04
     4 1.3824970E+04  1.38997019E-03
     5 4.7004290E+03  4.84436611E-03
     6 1.8316950E+03  1.60466774E-02
     7 7.8288450E+02  4.92795094E-02
     8 3.5550190E+02  1.30904981E-01
     9 1.6834000E+02  2.71582963E-01
    10 8.2183830E+01  3.76883350E-01
    11 4.0912480E+01  2.70163568E-01
    12 2.0014470E+01  6.79450572E-02
    13 1.0006760E+01  1.28439871E-03
    14 5.0146660E+00  1.13808588E-03
    15 2.4031970E+00 -5.92866897E-04
    16 1.1036420E+00  1.83506180E-04
    17 4.5817940E-01 -8.87168722E-05
    18 1.6309450E-01  3.02239859E-05
    19 5.6755960E-02 -8.82997383E-06
  s  23
     1 1.3432880E+09  2.91652610E-06
     2 1.3851420E+08  1.13886506E-05
     3 2.2415860E+07  3.51704586E-05
     4 4.7773820E+06  9.33350787E-05
     5 1.2109210E+06  2.29962991E-04
     6 3.4915710E+05  5.31745257E-04
     7 1.1212160E+05  1.19732843E-03
     8 3.9180990E+04  2.65709985E-03
     9 1.4787450E+04  5.92086107E-03
    10 5.9629570E+03  1.30558061E-02
    11 2.5404210E+03  2.85554497E-02
    12 1.1309210E+03  5.62029967E-02
    13 5.2262180E+02  9.20370253E-02
    14 2.4750390E+02  7.41344248E-02
    15 1.1172140E+02 -1.31810503E-01
    16 5.5480780E+01 -5.24176756E-01
    17 2.7527550E+01 -3.47173225E-01
    18 1.1957690E+01  6.61355860E-01
    19 5.9659470E+00  6.57448016E-01
    20 2.2137980E+00  6.00605063E-02
    21 9.9637830E-01 -6.54299701E-03
    22 2.0585600E-01  1.48474506E-03
    23 7.7917830E-02 -5.91339034E-04
  p  19
     1 1.5547130E+06 -1.21352082E-05
     2 2.2268520E+05 -4.89178399E-05
     3 4.8836280E+04 -1.79869664E-04
     4 1.3824970E+04 -6.45626233E-04
     5 4.7004290E+03 -2.25897009E-03
     6 1.8316950E+03 -7.56712708E-03
     7 7.8288450E+02 -2.36248650E-02
     8 3.5550190E+02 -6.51079062E-02
     9 1.6834000E+02 -1.41747119E-01
    10 8.2183830E+01 -2.08641956E-01
    11 4.0912480E+01 -8.21923866E-02
    12 2.0014470E+01  3.24197664E-01
    13 1.0006760E+01  5.54890989E-01
    14 5.0146660E+00  2.39643984E-01
    15 2.4031970E+00  2.05748000E-02
    16 1.1036420E+00  1.44451428E-03
    17 4.5817940E-01 -1.03200166E-04
    18 1.6309450E-01  5.68240929E-05
    19 5.6755960E-02 -2.36487088E-05
  d  12
     1 2.9981590E+03  2.39312611E-04
     2 8.4131040E+02  2.01916133E-03
     3 3.1774710E+02  1.11409692E-02
     4 1.3890840E+02  4.40334908E-02
     5 6.5247370E+01  1.29484183E-01
     6 3.2196210E+01  2.65638837E-01
     7 1.6222610E+01  3.72760033E-01
     8 8.1605430E+00  3.07719747E-01
     9 3.9382840E+00  9.90936591E-02
    10 1.8140800E+00  5.97581093E-03
    11 7.8774250E-01  6.46559171E-04
    12 3.0855790E-01 -1.66684876E-04
  s  23
     1 1.3432880E+09 -1.26886502E-06
     2 1.3851420E+08 -4.95520396E-06
     3 2.2415860E+07 -1.52994079E-05
     4 4.7773820E+06 -4.06213172E-05
     5 1.2109210E+06 -1.00002364E-04
     6 3.4915710E+05 -2.31616401E-04
     7 1.1212160E+05 -5.20320101E-04
     8 3.9180990E+04 -1.15945662E-03
     9 1.4787450E+04 -2.57108320E-03
    10 5.9629570E+03 -5.71714053E-03
    11 2.5404210E+03 -1.24087446E-02
    12 1.1309210E+03 -2.48360333E-02
    13 5.2262180E+02 -4.02247608E-02
    14 2.4750390E+02 -3.42548146E-02
    15 1.1172140E+02  6.50472857E-02
    16 5.5480780E+01  2.56061618E-01
    17 2.7527550E+01  2.03230308E-01
    18 1.1957690E+01 -5.38932799E-01
    19 5.9659470E+00 -7.28717121E-01
    20 2.2137980E+00  7.38462181E-01
    21 9.9637830E-01  6.93435638E-01
    22 2.0585600E-01  2.60772350E-02
    23 7.7917830E-02 -6.42793764E-03
  p  19
     1 1.5547130E+06  5.05314760E-06
     2 2.2268520E+05  2.03808669E-05
     3 4.8836280E+04  7.49021509E-05
     4 1.3824970E+04  2.69462425E-04
     5 4.7004290E+03  9.41286429E-04
     6 1.8316950E+03  3.16979462E-03
     7 7.8288450E+02  9.89101344E-03
     8 3.5550190E+02  2.75687605E-02
     9 1.6834000E+02  6.03085615E-02
    10 8.2183830E+01  9.06839582E-02
    11 4.0912480E+01  2.59840677E-02
    12 2.0014470E+01 -1.89065723E-01
    13 1.0006760E+01 -3.76691786E-01
    14 5.0146660E+00 -2.24208587E-02
    15 2.4031970E+00  5.71686222E-01
    16 1.1036420E+00  5.02737067E-01
    17 4.5817940E-01  8.67961373E-02
    18 1.6309450E-01 -9.06026997E-04
    19 5.6755960E-02  9.40443528E-04
  d  12
     1 2.9981590E+03 -8.91472077E-05
     2 8.4131040E+02 -7.49882009E-04
     3 3.1774710E+02 -4.17973506E-03
     4 1.3890840E+02 -1.65687083E-02
     5 6.5247370E+01 -4.97447215E-02
     6 3.2196210E+01 -1.01485465E-01
     7 1.6222610E+01 -1.37369100E-01
     8 8.1605430E+00 -6.19979147E-02
     9 3.9382840E+00  2.25933008E-01
    10 1.8140800E+00  4.62671505E-01
    11 7.8774250E-01  3.88359478E-01
    12 3.0855790E-01  1.22828147E-01
  s  23
     1 1.3432880E+09  3.80693532E-07
     2 1.3851420E+08  1.48672457E-06
     3 2.2415860E+07  4.59010141E-06
     4 4.7773820E+06  1.21885001E-05
     5 1.2109210E+06  3.00000619E-05
     6 3.4915710E+05  6.95097091E-05
     7 1.1212160E+05  1.56065452E-04
     8 3.9180990E+04  3.48097894E-04
     9 1.4787450E+04  7.71003729E-04
    10 5.9629570E+03  1.71769219E-03
    11 2.5404210E+03  3.72111002E-03
    12 1.1309210E+03  7.47541011E-03
    13 5.2262180E+02  1.20710745E-02
    14 2.4750390E+02  1.04072762E-02
    15 1.1172140E+02 -2.00129942E-02
    16 5.5480780E+01 -7.83185273E-02
    17 2.7527550E+01 -6.48917325E-02
    18 1.1957690E+01  1.83310541E-01
    19 5.9659470E+00  2.58988062E-01
    20 2.2137980E+00 -3.58081762E-01
    21 9.9637830E-01 -4.66767340E-01
    22 2.0585600E-01  7.00065062E-01
    23 7.7917830E-02  5.24124911E-01
  p  19
     1 1.5547130E+06 -1.18141564E-06
     2 2.2268520E+05 -4.76831504E-06
     3 4.8836280E+04 -1.74956483E-05
     4 1.3824970E+04 -6.31452017E-05
     5 4.7004290E+03 -2.19551412E-04
     6 1.8316950E+03 -7.44191599E-04
     7 7.8288450E+02 -2.30634026E-03
     8 3.5550190E+02 -6.48807611E-03
     9 1.6834000E+02 -1.40736977E-02
    10 8.2183830E+01 -2.15237913E-02
    11 4.0912480E+01 -5.33132485E-03
    12 2.0014470E+01  4.53879766E-02
    13 1.0006760E+01  9.70024661E-02
    14 5.0146660E+00 -7.55647447E-03
    15 2.4031970E+00 -1.68833281E-01
    16 1.1036420E+00 -1.93560254E-01
    17 4.5817940E-01  1.05835268E-01
    18 1.6309450E-01  6.00118941E-01
    19 5.6755960E-02  4.51336509E-01
   s 1
     1 7.7917830E-02  1.0
   p 1
     1 5.6755960E-02  1.0
   d 1 ; 1 0.183 1.0

 $end
 $BiBas
  s  27
     1 2.4062858E+11  5.18229763E-06
     2 2.2809639E+10  2.09368383E-05
     3 3.4462821E+09  6.40519317E-05
     4 6.7450223E+08  1.69730393E-04
     5 1.5569479E+08  4.08173737E-04
     6 4.0651160E+07  9.16622012E-04
     7 1.1560254E+07  1.97319149E-03
     8 3.5127552E+06  4.09462136E-03
     9 1.1280140E+06  8.26466445E-03
    10 3.8096930E+05  1.62363264E-02
    11 1.3537905E+05  3.11600527E-02
    12 5.0527834E+04  5.87189619E-02
    13 1.9697323E+04  1.08769772E-01
    14 7.9790262E+03  1.91671139E-01
    15 3.3497459E+03  2.95526764E-01
    16 1.4574575E+03  3.21795520E-01
    17 6.5841402E+02  1.70679943E-01
    18 2.8409184E+02  2.12339449E-02
    19 1.3178503E+02 -1.44433668E-03
    20 5.4629074E+01  6.57147209E-04
    21 2.8745817E+01 -4.48126707E-04
    22 1.2110242E+01  2.29568955E-04
    23 6.3011136E+00 -1.19360251E-04
    24 2.1494104E+00  4.68682330E-05
    25 1.0677106E+00 -2.38130891E-05
    26 2.6714109E-01  5.92368822E-06
    27 1.0206999E-01 -2.21422669E-06
  s  27
     1 2.4062858E+11 -2.07554448E-06
     2 2.2809639E+10 -8.35323619E-06
     3 3.4462821E+09 -2.54891496E-05
     4 6.7450223E+08 -6.74241990E-05
     5 1.5569479E+08 -1.61923141E-04
     6 4.0651160E+07 -3.63493181E-04
     7 1.1560254E+07 -7.82444647E-04
     8 3.5127552E+06 -1.62746307E-03
     9 1.1280140E+06 -3.29452342E-03
    10 3.8096930E+05 -6.53042556E-03
    11 1.3537905E+05 -1.26676562E-02
    12 5.0527834E+04 -2.44858764E-02
    13 1.9697323E+04 -4.68540171E-02
    14 7.9790262E+03 -8.86637347E-02
    15 3.3497459E+03 -1.51118894E-01
    16 1.4574575E+03 -1.97116975E-01
    17 6.5841402E+02 -4.09299369E-02
    18 2.8409184E+02  4.52207571E-01
    19 1.3178503E+02  5.76797058E-01
    20 5.4629074E+01  1.24709783E-01
    21 2.8745817E+01 -2.10093492E-02
    22 1.2110242E+01  8.61639547E-03
    23 6.3011136E+00 -4.44562618E-03
    24 2.1494104E+00  1.66140739E-03
    25 1.0677106E+00 -8.25438459E-04
    26 2.6714109E-01  2.06425152E-04
    27 1.0206999E-01 -7.56464008E-05
  p  23
     1 5.8730496E+07  1.67402507E-05
     2 8.3144760E+06  5.49935775E-05
     3 1.6976188E+06  1.59137665E-04
     4 4.2605330E+05  4.33240780E-04
     5 1.2403012E+05  1.15850882E-03
     6 4.0689092E+04  3.09518317E-03
     7 1.4811776E+04  8.30776117E-03
     8 5.8931265E+03  2.22472534E-02
     9 2.5262925E+03  5.76899358E-02
    10 1.1517227E+03  1.35950959E-01
    11 5.5107472E+02  2.63111211E-01
    12 2.7424988E+02  3.57704060E-01
    13 1.4046722E+02  2.70886413E-01
    14 7.2494510E+01  8.05939225E-02
    15 3.8653022E+01  3.45729152E-03
    16 2.0583442E+01  9.69342167E-04
    17 1.0692111E+01 -6.17168668E-04
    18 5.5586880E+00  2.43575496E-04
    19 2.5810616E+00 -1.17940669E-04
    20 1.2386791E+00  6.52706935E-05
    21 5.5495678E-01 -2.36761908E-05
    22 1.9599244E-01  7.76591326E-06
    23 6.9345825E-02 -2.31598062E-06
  s  27
     1 2.4062858E+11  1.00219782E-06
     2 2.2809639E+10  4.03103056E-06
     3 3.4462821E+09  1.22959923E-05
     4 6.7450223E+08  3.25149602E-05
     5 1.5569479E+08  7.80790469E-05
     6 4.0651160E+07  1.75237128E-04
     7 1.1560254E+07  3.77329781E-04
     8 3.5127552E+06  7.84760933E-04
     9 1.1280140E+06  1.59067467E-03
    10 3.8096930E+05  3.15394748E-03
    11 1.3537905E+05  6.14031338E-03
    12 5.0527834E+04  1.18882653E-02
    13 1.9697323E+04  2.29632768E-02
    14 7.9790262E+03  4.37682693E-02
    15 3.3497459E+03  7.66161044E-02
    16 1.4574575E+03  1.02076551E-01
    17 6.5841402E+02  1.45830817E-02
    18 2.8409184E+02 -3.86226363E-01
    19 1.3178503E+02 -6.26463443E-01
    20 5.4629074E+01  3.62493111E-01
    21 2.8745817E+01  8.68017483E-01
    22 1.2110242E+01  1.55001492E-01
    23 6.3011136E+00 -1.95362150E-02
    24 2.1494104E+00  5.81571570E-03
    25 1.0677106E+00 -2.80808002E-03
    26 2.6714109E-01  6.52176133E-04
    27 1.0206999E-01 -2.42641640E-04
  p  23
     1 5.8730496E+07 -8.67702228E-06
     2 8.3144760E+06 -2.85280446E-05
     3 1.6976188E+06 -8.26686326E-05
     4 4.2605330E+05 -2.25586066E-04
     5 1.2403012E+05 -6.05196463E-04
     6 4.0689092E+04 -1.62550440E-03
     7 1.4811776E+04 -4.39390682E-03
     8 5.8931265E+03 -1.19115264E-02
     9 2.5262925E+03 -3.14792331E-02
    10 1.1517227E+03 -7.66639906E-02
    11 5.5107472E+02 -1.55149437E-01
    12 2.7424988E+02 -2.17926907E-01
    13 1.4046722E+02 -8.98010731E-02
    14 7.2494510E+01  3.16082267E-01
    15 3.8653022E+01  5.41420491E-01
    16 2.0583442E+01  2.53815987E-01
    17 1.0692111E+01  2.86738539E-02
    18 5.5586880E+00  1.04822440E-03
    19 2.5810616E+00 -1.73524074E-04
    20 1.2386791E+00  1.40028565E-05
    21 5.5495678E-01 -3.53923447E-05
    22 1.9599244E-01  9.82084763E-06
    23 6.9345825E-02 -2.73624962E-06
  d  15
     1 1.6038922E+04  2.05155594E-04
     2 4.1627671E+03  1.42778218E-03
     3 1.4932680E+03  7.37871965E-03
     4 6.3617893E+02  2.94442535E-02
     5 3.0019669E+02  9.11349096E-02
     6 1.5071473E+02  2.13784165E-01
     7 7.8150152E+01  3.50013364E-01
     8 4.1403834E+01  3.42636764E-01
     9 2.1913244E+01  1.57320743E-01
    10 1.1392226E+01  2.42157006E-02
    11 5.8708730E+00  1.18950056E-03
    12 2.9079721E+00  5.27146083E-05
    13 1.3928501E+00  2.97931335E-05
    14 6.3220087E-01 -1.42283264E-05
    15 2.5747463E-01  4.93934806E-06
  s  27
     1 2.4062858E+11  5.07315000E-07
     2 2.2809639E+10  2.04025055E-06
     3 3.4462821E+09  6.22277898E-06
     4 6.7450223E+08  1.64545445E-05
     5 1.5569479E+08  3.95093957E-05
     6 4.0651160E+07  8.86777337E-05
     7 1.1560254E+07  1.90927045E-04
     8 3.5127552E+06  3.97189439E-04
     9 1.1280140E+06  8.04979126E-04
    10 3.8096930E+05  1.59730887E-03
    11 1.3537905E+05  3.10930593E-03
    12 5.0527834E+04  6.03145203E-03
    13 1.9697323E+04  1.16524820E-02
    14 7.9790262E+03  2.23160346E-02
    15 3.3497459E+03  3.91539636E-02
    16 1.4574575E+03  5.28548030E-02
    17 6.5841402E+02  5.90614054E-03
    18 2.8409184E+02 -2.23518407E-01
    19 1.3178503E+02 -4.01182637E-01
    20 5.4629074E+01  3.85449934E-01
    21 2.8745817E+01  1.08714435E+00
    22 1.2110242E+01 -4.42316421E-01
    23 6.3011136E+00 -1.00079886E+00
    24 2.1494104E+00 -9.50867816E-02
    25 1.0677106E+00  1.99718151E-02
    26 2.6714109E-01 -3.84611956E-03
    27 1.0206999E-01  1.32121011E-03
  p  23
     1 5.8730496E+07  4.37741237E-06
     2 8.3144760E+06  1.43883341E-05
     3 1.6976188E+06  4.17303323E-05
     4 4.2605330E+05  1.13875039E-04
     5 1.2403012E+05  3.05878034E-04
     6 4.0689092E+04  8.22348144E-04
     7 1.4811776E+04  2.22692033E-03
     8 5.8931265E+03  6.05537576E-03
     9 2.5262925E+03  1.60738897E-02
    10 1.1517227E+03  3.94789960E-02
    11 5.5107472E+02  8.08090836E-02
    12 2.7424988E+02  1.14535669E-01
    13 1.4046722E+02  3.23402311E-02
    14 7.2494510E+01 -2.53659904E-01
    15 3.8653022E+01 -4.63732419E-01
    16 2.0583442E+01  1.44121367E-03
    17 1.0692111E+01  6.33757353E-01
    18 5.5586880E+00  4.70437976E-01
    19 2.5810616E+00  6.49286493E-02
    20 1.2386791E+00 -2.92300652E-03
    21 5.5495678E-01  1.37402030E-03
    22 1.9599244E-01 -3.98918371E-04
    23 6.9345825E-02  1.09724147E-04
  d  15
     1 1.6038922E+04 -1.09117275E-04
     2 4.1627671E+03 -7.60373358E-04
     3 1.4932680E+03 -3.96157872E-03
     4 6.3617893E+02 -1.59167556E-02
     5 3.0019669E+02 -5.02075063E-02
     6 1.5071473E+02 -1.19073990E-01
     7 7.8150152E+01 -1.90940584E-01
     8 4.1403834E+01 -1.32475125E-01
     9 2.1913244E+01  1.81115129E-01
    10 1.1392226E+01  4.78912537E-01
    11 5.8708730E+00  3.85802474E-01
    12 2.9079721E+00  1.01501953E-01
    13 1.3928501E+00  4.28000616E-03
    14 6.3220087E-01  6.32004907E-04
    15 2.5747463E-01 -1.89446951E-04
  s  27
     1 2.4062858E+11 -2.30339534E-07
     2 2.2809639E+10 -9.26315784E-07
     3 3.4462821E+09 -2.82520086E-06
     4 6.7450223E+08 -7.47041471E-06
     5 1.5569479E+08 -1.79371240E-05
     6 4.0651160E+07 -4.02594523E-05
     7 1.1560254E+07 -8.66798667E-05
     8 3.5127552E+06 -1.80328349E-04
     9 1.1280140E+06 -3.65474753E-04
    10 3.8096930E+05 -7.25291923E-04
    11 1.3537905E+05 -1.41195171E-03
    12 5.0527834E+04 -2.73978956E-03
    13 1.9697323E+04 -5.29458938E-03
    14 7.9790262E+03 -1.01488321E-02
    15 3.3497459E+03 -1.78246929E-02
    16 1.4574575E+03 -2.41235292E-02
    17 6.5841402E+02 -2.52738266E-03
    18 2.8409184E+02  1.05017748E-01
    19 1.3178503E+02  1.93602746E-01
    20 5.4629074E+01 -2.09761927E-01
    21 2.8745817E+01 -6.27618583E-01
    22 1.2110242E+01  3.98942047E-01
    23 6.3011136E+00  1.10941033E+00
    24 2.1494104E+00 -7.26210084E-01
    25 1.0677106E+00 -7.45267207E-01
    26 2.6714109E-01 -3.47060170E-02
    27 1.0206999E-01  6.29968657E-03
  f  10
     1 1.2931490E+03  2.55844067E-04
     2 4.4245050E+02  2.30025619E-03
     3 1.8992104E+02  1.27463744E-02
     4 9.1584137E+01  4.69483150E-02
     5 4.7062874E+01  1.22697139E-01
     6 2.5131198E+01  2.36857016E-01
     7 1.3357806E+01  3.32357207E-01
     8 6.9337984E+00  3.26770229E-01
     9 3.4247290E+00  1.91566397E-01
    10 1.5159795E+00  4.72213713E-02
  p  23
     1 5.8730496E+07 -1.86922903E-06
     2 8.3144760E+06 -6.14153640E-06
     3 1.6976188E+06 -1.78265070E-05
     4 4.2605330E+05 -4.85997252E-05
     5 1.2403012E+05 -1.30762701E-04
     6 4.0689092E+04 -3.50957284E-04
     7 1.4811776E+04 -9.53152498E-04
     8 5.8931265E+03 -2.58582120E-03
     9 2.5262925E+03 -6.89547037E-03
    10 1.1517227E+03 -1.68989524E-02
    11 5.5107472E+02 -3.48706362E-02
    12 2.7424988E+02 -4.90875348E-02
    13 1.4046722E+02 -1.30199687E-02
    14 7.2494510E+01  1.21887440E-01
    15 3.8653022E+01  2.19578176E-01
    16 2.0583442E+01 -2.83646812E-02
    17 1.0692111E+01 -4.54373051E-01
    18 5.5586880E+00 -3.25931090E-01
    19 2.5810616E+00  4.90744543E-01
    20 1.2386791E+00  6.26770246E-01
    21 5.5495678E-01  1.52838695E-01
    22 1.9599244E-01  3.40519191E-03
    23 6.9345825E-02  3.24378424E-04
  d  15
     1 1.6038922E+04  3.89992241E-05
     2 4.1627671E+03  2.71106549E-04
     3 1.4932680E+03  1.41899025E-03
     4 6.3617893E+02  5.69055409E-03
     5 3.0019669E+02  1.80797071E-02
     6 1.5071473E+02  4.27884418E-02
     7 7.8150152E+01  6.87868266E-02
     8 4.1403834E+01  4.15879757E-02
     9 2.1913244E+01 -8.94022051E-02
    10 1.1392226E+01 -2.19984950E-01
    11 5.8708730E+00 -1.35265975E-01
    12 2.9079721E+00  2.39775522E-01
    13 1.3928501E+00  4.96459070E-01
    14 6.3220087E-01  3.72596008E-01
    15 2.5747463E-01  1.00764053E-01
  s  27
     1 2.4062858E+11 -8.10345972E-08
     2 2.2809639E+10 -3.25880460E-07
     3 3.4462821E+09 -9.93906948E-07
     4 6.7450223E+08 -2.62809597E-06
     5 1.5569479E+08 -6.31023809E-06
     6 4.0651160E+07 -1.41633138E-05