!   protonated methanol in water...SMD/IEF-PCM using R-MP2
!
!   The 1st step is a gas-phase total energy calculation:
!   FINAL RHF E= -115.3357654974, 13 iters, E(MP2)= -115.6411768017
!
!   The 2nd step is a liquid-phase total energy calculation:
!   SURFACE AREA=    65.23794128(A**2)    CAVITY VOLUME=     42.34883410 (A**3)
!   FINAL RHF E= -115.4631894582, 10 iters, E(MP2)= -115.7693854998
!
!   The free energy of solvation is a difference between those two:
!   DELTA INTERNAL ENERGY        =     0.52 KCAL/MOL
!   ELECTROSTATIC INTERACTION    =   -84.30 KCAL/MOL
!   CDS INTERACTION              =     3.33 KCAL/MOL
!   FREE ENERGY OF SOLVATION     =   -80.45 KCAL/MOL
!   FREE ENERGY OF SOLVATION     =   -78.56 KCAL/MOL (1 ATM STANDARD STATE)
!
!   This run takes 7 seconds on 2.66 GHz Cloverton (22 Oct 2015)
!
 $mp2 code=ims $end
 $CONTRL SCFTYP=RHF mplevl=2 icharg=+1 RUNTYP=ENERGY ispher=1 $end
 $system mwords=1 $end
 $BASIS  GBASIS=N31 NGAUSS=6 NDFUNC=1 $END

 $PCM    SOLVNT=WATER SMD=.T. IEF=-3 $END
 $TESCAV MTHALL=2 NTSALL=240 $END

 $DATA
SMD/MP2/6-31G(d) solvation energy - protonated methanol CH3OH2+ in water
C1
H         1   -0.996782    1.138765    0.000000
C         6    0.038330    0.800183    0.000000
O         8    0.038330   -0.725816    0.000000
H         1    0.585508    1.066678    0.901842
H         1    0.585508    1.066678   -0.901842
H         1   -0.355429   -1.133347   -0.803114
H         1   -0.355429   -1.133347    0.803114
 $END

! TRAVIS-CI SMALL

