!   A saddle point from Takako Kudo, test case collected in January 2004.
!   At that time, the response equation didn't solve very well.
!   105 AOs, 28 filled orbitals (17 core), 8 e- in 8 active, 4900 dets
!
!   FINAL E= -964.2347333537, 2 iters.    31 response iterations
!       imag FREQ= 344.20i
!   residual FREQ= 0.52, 0.15, 0.01, 0.16, 0.40, 0.58
!       real FREQ= 38.22, 56.94, 72.54, ...  3307.54, 3334.67
!
!   This run takes 822 seconds on 2.66 GHz Cloverton (27 Apr 2015)
!   results have been stable since at least 2011
!
 $CONTRL SCFTYP=MCSCF RUNTYP=hessian  $end
 $SYSTEM mwords=10 memddi=20 $END
 $BASIS  GBASIS=n31 NGAUSS=6 ndfunc=1   $END
 $GUESS  GUESS=moread norb=105 $END
 $mcscf  cistep=aldet soscf=.true. $end
 $DET    NCORE=28 NACT=8 NELS=8 $end
 $END
 $DATA
hessian (631-S0-NMeSi3-dp7-ts) MCSCF(8,8)/6-31G* 
C1
N    7.0   1.2228763924  -0.0769526714  -0.2639143693
C    6.0   1.8592834079  -0.4032923564  -1.5808678180
SI  14.0   1.4216276670   1.3622835728   0.5011252518
SI  14.0  -0.0436383457  -1.3409143868   0.5733035550
SI  14.0  -2.9444629251   0.1848380915  -0.0563841553
H    1.0   0.8160478132   1.6562054481   1.7941143084
H    1.0   2.2679192904   2.4107300962  -0.0899592576
H    1.0  -0.8616666194  -1.4243663160  -0.7135435947
H    1.0   0.8008950158  -2.5535057083   0.2647876283
H    1.0  -1.9803538052   1.3348072406   0.2153106946
H    1.0  -2.6975049117   0.2168057403  -1.5531615484
H    1.0   2.4343897523  -1.3096703725  -1.4587242187
H    1.0   2.5047861334   0.3942432424  -1.9307183259
H    1.0   1.0711023819  -0.5783633993  -2.2986896162
 $END   

--- OPTIMIZED MCSCF MO-S --- GENERATED AT Mon Jan 12 05:50:29 2004
   631-S0-NMeSi3-dp7-ts (from 631-S0-NMeSi3-dp7-h) MCSCF(8,8)/6-31G*            
E(MCSCF)=     -964.2347333514, E(NUC)=      314.7538531934
 $VEC   
 1  1 5.50287365E-06-3.79319223E-05-1.62444923E-05-1.01231438E-04-5.35247285E-05
 1  2 4.72395941E-05 2.65361982E-06-4.94653208E-05-1.96045626E-05 2.49103642E-05
 1  3-3.33796743E-05 8.77049587E-06-1.62464877E-05 4.02603172E-06-3.35067485E-05
 1  4-6.85275013E-06-5.60969863E-05-5.38604833E-06 1.21243608E-05 1.65284255E-05
 1  5 1.22314256E-04 5.33162053E-05 5.46723528E-05-4.77199663E-05-1.96763673E-05
 1  6 2.57832753E-05 8.99531421E-06 4.04589457E-06-4.77165910E-06 4.10442577E-05
 1  7 9.96861842E-01 1.24554893E-02-4.42783339E-06 7.22163602E-06 3.84892996E-06
 1  8-1.69647115E-02 1.86316061E-05-1.35601781E-05-9.14491960E-07 2.15752590E-03
 1  9-1.94706011E-04-3.00428214E-04 6.76428594E-06 5.91826108E-03 5.97374837E-03
 1 10 5.93046608E-03-6.42183035E-07 1.96745872E-05 4.81154823E-05-1.04864644E-06
 1 11 5.00138593E-06-4.21769294E-06-1.10426688E-05-6.48881590E-06-4.28095656E-05
 1 12 1.23550227E-05 3.66849052E-05 4.00161701E-05-2.93522812E-04-1.50728063E-04
 1 13-1.24185697E-04-4.68826517E-05 2.91849078E-05 6.95886278E-05 1.54480158E-05
 1 14 2.87869218E-05 9.89693209E-06 2.86637541E-07-4.83369051E-06 8.34357983E-06
 1 15-3.26766133E-06-2.03766929E-06-1.27747975E-06 3.72445641E-05 3.07089064E-05
 1 16 1.69230607E-05 9.82173505E-06-1.19759014E-04-8.28816728E-05-7.64135916E-06
 1 17 1.79175737E-05 6.88079914E-06 2.76786236E-05 1.26618174E-05-1.22938428E-06
 1 18 2.29112956E-06 1.30121309E-06-4.29718466E-05 6.99159181E-05-7.10157876E-05
 1 19 2.84886029E-04 1.22852146E-05-4.15689087E-06 4.21454532E-06 4.83874963E-05
 1 20 5.77600571E-06-6.03348019E-05-1.90407124E-06 4.12537965E-05 5.03106451E-06
 1 21-5.00797717E-05-5.77557451E-06-1.61206840E-04 6.66119679E-06-6.84786148E-05
 2  1 2.61139004E-06 2.70837549E-06-1.10975497E-05-6.16285799E-06-4.94533893E-06
 2  2-3.98747259E-06 3.66865136E-05 5.09741338E-05 4.26301579E-05 6.20636483E-06
 2  3 1.74354698E-05 1.14485363E-05 1.54951918E-06-1.13748478E-06 1.74952552E-06
 2  4-3.75263406E-06-1.17200994E-05-9.53140082E-07-2.88679151E-06 1.11109585E-05
 2  5 1.36484622E-04-3.03426087E-05 1.16235876E-05-4.69312061E-05-3.04161611E-06
 2  6-7.85746478E-06-1.07225584E-05 1.53933156E-06-1.03045855E-06-2.35702566E-06
 2  7 6.42581084E-06 1.16491392E-05 3.55497930E-06-3.37390040E-06 6.99028608E-08
 2  8 5.70639990E-05-3.26589836E-05 2.80150013E-05-3.27991785E-07-3.04264761E-04
 2  9 1.97481655E-04 1.06152936E-04-4.46661327E-05 1.38460281E-05 1.00880372E-05
 2 10 1.88155985E-05-5.83741268E-06 6.16876114E-06-2.31856228E-05-2.75156217E-05
 2 11-9.03106843E-06 8.61553918E-06-1.72874368E-06 3.62664255E-06-5.26137874E-05
 2 12-1.71325184E-05-7.57145851E-06-1.32366872E-05 8.06537738E-05 1.13179034E-04
 2 13 1.11864841E-04-3.28935924E-05 1.95901948E-05 7.21333216E-06-1.06610432E-05
 2 14-1.28351184E-05 1.42665175E-05-1.17177770E-05 9.96880707E-01 1.23829685E-02
 2 15 7.13555386E-05 3.22769398E-05-4.18548883E-05-1.66507020E-02-1.17404385E-04
 2 16-3.18729809E-05 3.21986732E-05 2.07968355E-03 6.86938240E-05-8.55014734E-05
 2 17 4.56024073E-05 5.86518247E-03 5.85740858E-03 5.84519354E-03-2.90366549E-05
 2 18 4.45306673E-06-4.68072774E-06-4.51063456E-06 1.04768760E-04 4.00351084E-06
 2 19-4.48270748E-05-1.56909161E-05-4.24221285E-05-5.32931447E-06 1.06542728E-05
 2 20-3.74662171E-05 1.26369064E-04-1.57686896E-05 4.29480389E-05 2.41826996E-06
 2 21-2.06180854E-05-5.24628711E-06-3.08825030E-05 9.14993153E-06-1.02575586E-04
 3  1-4.52233334E-06 4.91069076E-05 6.85319881E-06 1.48377001E-05-1.70868104E-05
 3  2 2.12258712E-04 4.25905794E-06-3.27947749E-05 5.40638904E-05-7.30386804E-05
 3  3-7.00139003E-05-3.13787612E-05-7.78373287E-05 5.11175787E-05 5.04128078E-05
 3  4-1.21050403E-05-5.22484472E-05 9.92422091E-06 1.59256729E-05-1.88763369E-06
 3  5 2.32260769E-04-3.93325982E-05-8.22224481E-05-4.98302951E-05-1.77948474E-05
 3  6-1.77678520E-05-1.65083904E-05 4.12009384E-06-7.25381012E-06 1.94551268E-06
 3  7 4.80807078E-07 3.70809562E-06 4.27740345E-06 5.84884956E-06-2.04395697E-06
 3  8-6.64287817E-05-9.10015879E-06 8.56650834E-06 1.64075196E-05-2.50954041E-04
 3  9 1.15631391E-04 1.61063579E-04-4.31542884E-05 3.98272713E-05 5.89979411E-05
 3 10 4.25918048E-05 3.00837831E-05-1.52977952E-05-6.28478915E-06 9.96867586E-01
 3 11 1.24219806E-02 3.26861934E-05 9.56334732E-06-7.02424896E-05-1.69199063E-02
 3 12-4.00868218E-06-5.99163971E-05 7.00669832E-05 2.21210562E-03-1.65406203E-04
 3 13 3.73821271E-04 2.80619895E-05 5.88703819E-03 5.88565937E-03 5.86886732E-03
 3 14 2.68424044E-05 7.89988803E-06-1.93272421E-05 2.82918450E-05 8.38274957E-06
 3 15-6.18021719E-06 4.74499616E-06-3.07626423E-06 3.02405836E-05 1.00104668E-05
 3 16-1.69565213E-05 8.67787498E-06-3.00590755E-04-1.63390039E-04 7.52261187E-05
 3 17-4.63533644E-05 3.11780433E-05 2.23852871E-05 1.02026546E-05-1.28820755E-05
 3 18 6.86365232E-06-5.93980616E-06-5.00197590E-06-5.42709196E-06-9.74888519E-07
 3 19-5.58952763E-05-3.60709924E-05 1.34447013E-04-5.33126130E-05 2.87901314E-04
 3 20-1.63802879E-05 3.99861349E-05 2.07047201E-05-1.97432632E-05-3.01459192E-06
 3 21-1.37483146E-04-8.09663452E-06 1.71582856E-05-4.18202793E-07-1.88659621E-04
 4  1 9.95294869E-01 2.41557342E-02-3.35973032E-04 4.78025538E-04 7.04931178E-04
 4  2-2.34689203E-03-1.01240505E-03-3.98392984E-04 1.27585246E-03-3.48911841E-03
 4  3-3.41060583E-03-3.53102145E-03 2.40483648E-05 4.09402647E-05 1.69075214E-05
 4  4 1.28697127E-04-1.64130281E-04 3.07844600E-04-2.06167886E-04-6.79207866E-04
 4  5 1.41856996E-03 7.14684138E-05 2.06561606E-04 5.82949949E-05-7.97221028E-05
 4  6-4.52493296E-05-2.09961646E-04 2.18039435E-05 9.06652438E-05-3.80627157E-05
 4  7 1.73421888E-05-4.24244512E-05 3.43110283E-05 2.63552064E-05 1.09436719E-06
 4  8 5.64326246E-04-4.99267489E-05-3.83824167E-04-3.05631976E-04 2.82964842E-04
 4  9 3.93376473E-05-4.32566414E-05-1.48182589E-04-4.68235947E-05 1.35553330E-05
 4 10-6.07669532E-05 6.73142744E-06 5.75088637E-05 4.72965994E-05 9.09981196E-06
 4 11-7.96462165E-05-8.47664714E-05-7.61275949E-05 6.43985393E-05-7.27434710E-05
 4 12 2.20006590E-04 1.55516530E-04-2.01488370E-04 2.17939368E-04 9.93954493E-05
 4 13-7.68401768E-06-2.34774489E-04 4.38617996E-05 4.02212906E-05-3.83636150E-07
 4 14 1.09140114E-04-7.85929765E-05-9.76517436E-05-6.07073009E-07 4.21317854E-06
 4 15 9.13480600E-06-5.32639843E-06 2.36626725E-06-1.91917238E-06-2.18324369E-05
 4 16 2.13981986E-05-7.14893631E-06 1.08892880E-05-1.69346888E-05 1.06168512E-05
 4 17 6.19251889E-06-7.11418822E-06 7.13499225E-06 3.09725274E-06 4.04275367E-06
 4 18-1.90494995E-06 3.83477509E-06-3.26522646E-05-6.48620239E-05 5.96540214E-05
 4 19-6.76505184E-05 7.67663120E-06-1.49448450E-04 2.27372572E-05-1.38930809E-04
 4 20 1.41318782E-05-5.13316006E-05 3.87325988E-07-7.21031180E-06 3.93490266E-05
 4 21 1.50856828E-05 6.17988088E-05-1.55468483E-04 2.94828278E-05-1.22450513E-05
 5  1-2.08130863E-04 1.92903549E-04 6.69860731E-05-1.86626942E-06-1.05482703E-04
 5  2 2.39953727E-03 2.68014878E-04-1.64851035E-04-5.34738118E-04-2.06544459E-04
 5  3-1.34856168E-04-5.85643631E-04 7.24422304E-05 2.64976914E-04-1.51364777E-04
 5  4 9.95732963E-01 2.80173376E-02-2.38344610E-04 2.44670577E-04 6.14623421E-04
 5  5-1.33207386E-02 2.54618865E-04-1.15992824E-05-4.11148199E-04-1.79865720E-03
 5  6-1.79234420E-03-1.86271455E-03 1.25326801E-05 4.05058716E-05-3.08832710E-05
 5  7-3.89688830E-06-3.41359202E-05-1.75226082E-05 8.06212275E-06 3.09320751E-05
 5  8-4.02911425E-04 9.78815959E-05 9.13371363E-05-7.33746875E-05 3.46675339E-04
 5  9 2.86486502E-04-1.79919511E-05-5.09502752E-04 6.92055827E-06 9.73975439E-05
 5 10 1.41817001E-04 1.43111443E-05-7.94303875E-05 9.12011634E-05-1.81205538E-06
 5 11-5.04206586E-05 1.65835143E-06 1.98551580E-05 1.13877966E-05-2.16370084E-04
 5 12-6.84214307E-05-1.61586852E-04-9.53885192E-07 7.65091448E-04 3.13559623E-05
 5 13 1.78586175E-04-3.05087518E-04-6.63319603E-05-1.06613569E-04 1.88697487E-05
 5 14-4.77055183E-05-3.96031654E-05 2.92921640E-05 1.36654778E-06 1.19932881E-05
 5 15-4.74060025E-06 3.70414932E-06 2.58332610E-06 7.45030442E-05 3.33424795E-05
 5 16-2.39762814E-05-1.24754419E-05-3.69228960E-04-2.32304561E-04-5.66402722E-06
 5 17 1.08503208E-04 1.65510439E-06 2.92403821E-05 1.17805915E-05-1.07312815E-05
 5 18 1.46701472E-06-5.95234660E-07-6.44544416E-05 3.18505687E-04 4.03678004E-05
 5 19-4.42375829E-04-1.71638176E-06-2.35720382E-04-1.69609229E-05-1.46836403E-04
 5 20-4.48664564E-06 1.26294567E-04-1.46171786E-05 1.52773072E-04 1.27354158E-04
 5 21 2.42576591E-03 9.82418733E-05 2.21128016E-03 1.37122436E-04 2.40731954E-03
 6  1-5.30838388E-04 7.71163652E-04 4.10406868E-04 1.77793478E-03 6.83180890E-04
 6  2 5.15785814E-05 3.67194502E-04 1.12388109E-03 2.71965769E-04-6.31436103E-05
 6  3 7.64140180E-04 7.78171831E-05 1.05872886E-04 1.62564217E-04 4.98867284E-04
 6  4 4.46861482E-05-2.27467684E-05 2.85429461E-05-2.79165933E-05-6.65401497E-05
 6  5-1.56050231E-04-7.19675606E-05-3.02359072E-05 5.68733477E-05 2.92594639E-05
 6  6 3.62119939E-05 3.64623649E-05-4.88348810E-05 4.56883941E-05 4.49232047E-05
 6  7-2.68136104E-01 1.03017272E+00 1.11217799E-05 2.19088257E-03 1.28792023E-03
 6  8 8.16623997E-03-8.47504716E-05-3.77940978E-04-2.91753378E-04-3.20793551E-03
 6  9 5.11590352E-04 6.23109636E-04-1.38204539E-04 1.51464567E-03 1.36457998E-03
 6 10 1.38235214E-03-7.69075341E-05 1.01666978E-04-1.00038919E-04-1.91510214E-05
 6 11 5.75585470E-05 5.63376454E-05 6.73754561E-05-1.61535492E-05-3.22774418E-04
 6 12-6.81156974E-05-1.14960633E-04-5.95243481E-05 1.12512036E-03 3.89812923E-04
 6 13 3.24812121E-04-9.71502162E-05 2.70076626E-05 6.94364258E-05 1.72087090E-05
 6 14 6.20106846E-06 1.82100088E-05 7.45060739E-06-8.66018835E-07-1.95969653E-05
 6 15 1.20980567E-05 1.01905435E-05 2.13845500E-06-9.77633660E-05-1.06076281E-04
 6 16-5.98217126E-05-2.38269201E-05 1.87295348E-04 1.58328063E-04-2.06390858E-05
 6 17-5.94313435E-05-3.30435595E-05-5.15696018E-05-1.55966686E-05-1.28666359E-05
 6 18-1.08564092E-05-3.98889672E-06 3.06240359E-04 1.26068099E-04 3.01164278E-04
 6 19-5.61580912E-04 2.74182112E-05-1.05254786E-04 5.95465899E-05-1.56265515E-04
 6 20-6.15093643E-05 2.40482171E-04 1.06871756E-05-1.20748438E-04 2.29125887E-05
 6 21 1.64951809E-04-6.04032815E-05 8.66851491E-05 6.59285092E-06 1.63604742E-04
 7  1 1.85304849E-05-3.80581325E-05 5.29157410E-05 2.50580263E-05-5.75461880E-06
 7  2-1.86131042E-04-7.65115280E-05-9.51911673E-05-1.28945550E-04-8.65283766E-06
 7  3-2.06579057E-05-1.12595914E-05-1.06925113E-06-1.81604314E-06-4.89772887E-06
 7  4 6.96541041E-06 3.77602677E-05-2.81304344E-06 7.81231305E-06-3.32921469E-06
 7  5-2.74085300E-04 1.22582168E-04-3.40357403E-05 1.01930970E-04 3.14660792E-06
 7  6 1.74049814E-05 1.86663945E-05-2.97735742E-06 5.12559366E-06 3.50920993E-06
 7  7-5.77472170E-06-2.04290728E-05-6.42114581E-06 4.79151298E-06 5.95250256E-06
 7  8-1.94446710E-04 9.61573771E-05-5.24728537E-05 2.55571331E-06 8.46311002E-04
 7  9-5.32841779E-04-2.93980792E-04 3.51339598E-05-3.76260017E-05-2.44090485E-05
 7 10-4.72128304E-05 4.78713927E-06-1.60154479E-05 4.83335329E-05-6.20742663E-06
 7 11 2.73678685E-05 1.35778153E-05-2.23635151E-05-2.28783484E-05 8.08696162E-05
 7 12-9.56431372E-05 9.24650524E-05 8.25066436E-05-1.05099053E-04-1.66309984E-04
 7 13-1.53231492E-04 1.10118825E-04 8.12092447E-05 6.72354788E-05 7.27775420E-05
 7 14-4.39258130E-05 9.89649697E-06-4.21877958E-06-2.68541913E-01 1.03217198E+00
 7 15 4.70728981E-03 1.94905893E-03-2.84676171E-03 8.31484151E-04 1.88385677E-03
 7 16 1.17826144E-03-1.41945827E-03-4.05055329E-03-7.70992717E-05 2.46941908E-04
 7 17-1.58524406E-04 2.67960736E-03 2.70411739E-03 2.68420165E-03-1.43945092E-05
 7 18 6.54143316E-05 5.05702899E-05 6.06363027E-06-3.25736994E-04-9.87683286E-06
 7 19 8.74429849E-05 1.07185725E-04 2.42181224E-04-2.75749302E-05-6.91598329E-05
 7 20 4.02400211E-04 8.09134919E-04 3.80520350E-04 1.02663621E-03-3.74841066E-07
 7 21-2.01097484E-06 5.80872658E-06 1.24754794E-05-8.95355422E-06 2.32790879E-04
 8  1-3.72873768E-05 3.77565960E-04-1.84302355E-04-2.49543113E-04 1.02218730E-04
 8  2-9.00655074E-04 7.15563876E-04 7.86727619E-04-4.94894088E-04 1.00757184E-04
 8  3 7.82920802E-05 1.01506682E-04-6.64876081E-05 5.88299736E-05 9.72598502E-06
 8  4 9.69284464E-06 1.27866445E-05-3.86794792E-06-1.68335779E-05-3.85517841E-06
 8  5-4.71818011E-04-2.53017340E-04-2.84547779E-04 1.63254966E-04 6.84366640E-05
 8  6-1.10768071E-05 3.88663637E-05 8.89114499E-06-3.37794414E-05-6.88746327E-05
 8  7-9.12298296E-07-2.47181261E-05 1.21875978E-05-1.00645905E-05-2.47943260E-05
 8  8-2.07543924E-04-1.34150529E-04 6.81654132E-07 1.90256969E-04 3.90067983E-04
 8  9-2.25005585E-04-2.71668978E-04 1.12270337E-04 4.15821753E-05 6.51355807E-05
 8 10-8.55818486E-05 8.81170362E-05 4.66044013E-05-8.35579255E-05-2.68268748E-01
 8 11 1.03090360E+00 3.48595363E-03 3.50052485E-04-6.15807803E-03 4.74775749E-03
 8 12 8.96075270E-04 5.20408893E-04-1.33251691E-03-2.35067052E-03 7.09192643E-06
 8 13-4.42918401E-04 5.32190669E-04 2.72525026E-03 2.73855913E-03 2.39277507E-03
 8 14 3.77564631E-04-1.33849218E-04-2.78778964E-04 1.46877180E-05-8.00253217E-05
 8 15-2.47939073E-06-3.18508295E-07-1.96970150E-06-1.84042925E-04 1.66452947E-05
 8 16 1.03917656E-05 1.18311779E-05 5.17720288E-04 2.86658579E-04-1.02586328E-04
 8 17-1.94768817E-05 5.60600012E-05 1.71616614E-05 1.67639865E-05-1.87661498E-05
 8 18 2.94217875E-06 8.72758928E-07 1.80046620E-05-1.10741985E-04-9.26045148E-06
 8 19 1.54025910E-04 2.27070890E-04 9.12709230E-05 2.87448518E-04-1.11241901E-04
 8 20 1.04775785E-05-1.06338106E-04-2.18779147E-05-5.55966573E-05-5.08100844E-05
 8 21 2.30236127E-04 6.20276184E-05 2.47809964E-04-5.93433904E-05 2.93442341E-04
 9  1-2.08833719E-05 1.40336221E-04 1.09692748E-03-4.20656090E-04 7.30835363E-04
 9  2-5.05288740E-04 9.70154472E-05-2.07400389E-04-1.95463932E-04 8.85029910E-05
 9  3-1.36296025E-04 2.07432459E-04 2.50407889E-04 1.64858391E-04 1.05353579E-04
 9  4 1.03556669E-05 3.37381075E-05-7.98452967E-05 3.54641463E-05-5.24912597E-05
 9  5-2.36768167E-04 7.68821340E-04-3.17590416E-04 3.17928534E-04-8.98839922E-05
 9  6 4.05118462E-05 7.39256649E-05 3.11289945E-06 4.93135242E-05-4.09384438E-05
 9  7-6.71055200E-05 2.35324885E-04 7.96635525E-01-3.79224481E-01 4.59365193E-01
 9  8-2.96761619E-04 1.61453578E-02-7.75318874E-03 9.20724317E-03 9.09307223E-04
 9  9-4.70417672E-03 1.65826038E-03-2.12458283E-03 3.07750985E-05 1.75616176E-05
 9 10 9.59911203E-05 1.07771070E-04 2.21163142E-05 1.42401472E-04-2.57268851E-06
 9 11-7.96752301E-06-5.28639413E-06 7.94139481E-06-4.36150906E-06-8.63498430E-05
 9 12-3.57880933E-05-1.16866210E-04 3.91114769E-05 1.92342316E-04 6.97344485E-04
 9 13-3.87600209E-04 1.18495114E-04 1.75816440E-04-1.01475598E-04-1.30099165E-04
 9 14 3.78262608E-05-5.48488122E-06 9.28516052E-05 7.41457541E-06 2.50670401E-05
 9 15-3.85483785E-05-2.41558025E-05 2.54054509E-06 2.32762889E-04 2.91367754E-04
 9 16 2.48879722E-04 2.46464462E-05-2.72572414E-04-3.28175671E-04-2.24174789E-04
 9 17 2.76727005E-04 4.74849019E-05 1.81032591E-04 2.94522280E-05 2.81580247E-06
 9 18 3.69193522E-05 1.63058631E-05 6.67115539E-05-5.46996511E-04-1.89280732E-05
 9 19 1.51944662E-04 8.37125409E-05 1.69275734E-04-8.63681634E-06-4.89521329E-04
 9 20 1.53836235E-04-7.75143732E-04-1.63485801E-05 2.33734301E-04-2.07408029E-04
 9 21-2.40274181E-04-1.84175387E-05 6.03150710E-05 2.49666591E-04 1.94532119E-04
10  1 1.35774585E-03-2.04400235E-03-5.67185096E-04-3.49452236E-03-1.73863605E-03
10  2 1.37278795E-03-7.99444939E-04-7.34115217E-04 7.54957958E-04 3.12059101E-04
10  3-1.79663132E-03-3.52273545E-04-2.09171708E-04-2.29234021E-04-1.44685701E-03
10  4-2.21045807E-05-5.81047713E-05-2.39732716E-05 3.07379699E-05 7.51333381E-05
10  5 3.09407903E-04-1.03425537E-04-1.75191168E-04-9.61610485E-06 1.73756050E-05
10  6-4.25212584E-06 6.40487305E-05 7.42035890E-05-1.17925649E-04-5.96006355E-05
10  7 3.83126892E-04-1.48303406E-03 3.69703402E-01 9.15921249E-01 1.15026046E-01
10  8-1.12952533E-03 7.39061752E-03 1.87275484E-02 2.69013898E-03 8.36916929E-04
10  9-1.76998013E-03-4.22868105E-03-5.66361628E-04 1.42659397E-06 3.30722692E-05
10 10-1.65691783E-05 4.28626871E-04-4.16942583E-04-3.68047827E-04 9.03406027E-06
10 11-1.30394348E-04-9.35658521E-05-1.46189657E-04 7.33810689E-06-7.95727128E-05
10 12-7.76205129E-05-1.67235325E-04 1.49597323E-04-8.91950585E-04-7.77984836E-04
10 13 1.85021622E-04 4.57627458E-05-2.25170441E-04-7.19981879E-05-1.78209986E-04
10 14 3.50371951E-05 5.68059877E-05 9.56599512E-05 2.19439475E-06 4.71607653E-05
10 15-9.16811183E-06-4.84526001E-06-2.61422344E-06 1.76889795E-04 4.71584247E-05
10 16-2.86684944E-05 2.94579902E-05-9.48665218E-04-5.87653269E-04 2.44157157E-05
10 17 6.09411725E-05 9.09296131E-06 1.13603740E-04 7.00629589E-05-1.55548324E-05
10 18-1.44712446E-05 2.66800588E-06 3.16658914E-04-1.58815130E-04 1.02899398E-03
10 19-5.99139997E-04 1.98779091E-05-7.35816771E-05-6.28708312E-05 3.54091717E-04
10 20-2.17959114E-05 1.73789764E-04-1.99379721E-05 2.97669325E-04 3.74304280E-06
10 21-3.92472416E-04 1.18296652E-05 3.34316826E-04 1.86473952E-05-4.71730519E-04
11  1 5.70598820E-04-9.22564894E-04-6.46572657E-04-1.80921172E-03-2.79416625E-04
11  2 1.12886670E-03 7.67805749E-04-2.56512496E-04-1.56349787E-03 5.58514096E-05
11  3-1.19637537E-03 2.03922146E-04-4.31423139E-04-2.57292713E-04-4.02342434E-04
11  4-7.86922559E-05-2.10324651E-04 1.06098165E-04-1.48595468E-04-2.62409852E-04
11  5-1.32313223E-04 2.48470818E-04 3.04646278E-04-3.03043226E-04-2.20347384E-04
11  6-7.61759421E-05-2.82830010E-04 1.19557665E-04 7.70577171E-06-4.18453286E-06
11  7 2.59231141E-04-9.47373624E-04-4.67170696E-01 7.82303490E-02 8.74822641E-01
11  8-6.09119357E-05-9.23410225E-03 1.48357008E-03 1.71325558E-02 2.79902189E-04
11  9 1.50932643E-03-6.41918570E-04-3.04672056E-03-1.89376189E-04-3.76534882E-04
11 10 5.59195971E-04-3.38491436E-04-3.27696024E-04 4.34859704E-04 8.11403436E-06
11 11 4.56579990E-05-7.34623017E-06-2.58797717E-05-1.10486243E-05 2.23168955E-04
11 12 2.92751535E-04 3.91451339E-04-1.23887419E-04-8.46652287E-04-2.17120187E-04
11 13-1.80663955E-04 6.08899521E-04 2.07694825E-04 1.36321237E-04 1.40733081E-04
11 14 7.80019227E-05-9.13960319E-05-5.38990736E-05 8.01848579E-08-8.49687811E-06
11 15 4.11293881E-06 9.66608168E-07 4.34503498E-06-1.53919171E-05-6.72070471E-06
11 16-6.32539349E-05-5.69027221E-05-2.80400383E-05 2.64075043E-05 3.70612928E-05
11 17 1.87273599E-04 2.00585880E-05-3.48595339E-05-2.98361644E-05-8.00869322E-06
11 18 2.12545766E-05-2.41982439E-06 1.28057073E-03-1.56270919E-03-5.73974666E-04
11 19 1.15344278E-03-8.64585667E-05 4.57912317E-04-6.87272727E-05 2.68493525E-04
11 20-2.22648923E-05 2.24954781E-04-8.88314919E-06 1.18820512E-04 5.35194492E-05
11 21-1.16779238E-04-8.04354216E-05-5.70368506E-04 4.98694434E-05-2.15334633E-04
12  1-3.63169223E-05-8.46302383E-05 1.14897799E-04 1.44156954E-05 1.93982693E-05
12  2 3.98021058E-04-4.70031603E-04-1.31328674E-04-1.09474006E-04-9.12273377E-05
12  3-1.06443876E-04-1.16619270E-04-4.51790361E-06 8.48038444E-06 4.24675218E-06
12  4 1.92297927E-05 7.40881607E-05 9.12329195E-06 6.75864089E-06-4.22251933E-05
12  5-6.63349616E-04 2.02065325E-04-1.45558924E-05 2.67274152E-04 1.49406599E-06
12  6 3.08239370E-05 6.36152693E-05-4.62879639E-06 3.41937450E-06 8.64691742E-06
12  7-3.70645386E-06-6.06940204E-05 3.35662979E-06-1.86815234E-06-1.00099382E-05
12  8-2.74345973E-04 9.51353395E-05 3.00213005E-05 4.69041912E-05 1.14947340E-03
12  9-6.44624814E-04-7.07278309E-04 3.98815004E-05-6.57731251E-05-4.77395066E-05
12 10-1.02777238E-04-1.86951424E-05-2.91100210E-05 7.55393149E-05-5.91806828E-06
12 11 5.83183669E-05 7.20595307E-05-1.52791488E-05 2.06722479E-06-1.74730976E-04
12 12-1.61441111E-04 1.88281117E-04 9.77388772E-05 4.54238376E-04-8.94134280E-04
12 13-6.41434651E-04 1.60604081E-04 2.07070032E-04 1.32402583E-04 1.17204425E-04
12 14-8.57117389E-05-6.85157264E-05 7.14184600E-05 5.48137831E-04-2.04957560E-03
12 15 7.17065813E-01-6.75869830E-01 1.35741782E-01 2.56950742E-03 1.46991028E-02
12 16-1.41048626E-02 3.09784275E-03-3.05546645E-03-5.83833305E-03 3.80136151E-03
12 17-2.35935492E-04 1.34889498E-04-6.94348275E-04-6.51884334E-04-2.79138853E-04
12 18-1.38795168E-04 1.96092064E-04-1.32464901E-05-1.89695393E-04-2.94400421E-05
12 19 2.60462886E-04 2.37262611E-04 5.03192457E-04 4.15533854E-05-2.30283994E-04
12 20-1.48175037E-04 1.17969331E-03-2.08633017E-04 1.37531738E-03-1.21703859E-05
12 21 1.23909106E-04 3.90323399E-05 3.75508876E-05-5.06171985E-05 5.99378028E-04
13  1-8.45460246E-06-7.29868003E-06 1.39554444E-05 2.26046275E-05 7.50299433E-06
13  2 3.21909781E-06-1.59799660E-04-2.50194086E-04-1.52311197E-05-1.04729924E-05
13  3-3.83278277E-05-2.81384106E-05 4.38224462E-06 5.14525826E-06-1.26718662E-05
13  4-8.89163781E-06-4.46795189E-05 2.27188122E-05 5.11517116E-05-3.80384799E-05
13  5 3.36564308E-05-1.65679243E-04-2.51345683E-04 2.57213233E-04-1.91577082E-05
13  6-9.73057277E-06-3.97080538E-06-1.11159940E-05-1.45503954E-06 9.31352529E-06
13  7-5.30741688E-06-6.29886289E-05-3.11941318E-05 2.68158864E-05 2.24738943E-06
13  8-3.27026826E-04 1.89119186E-04-1.13124028E-04-2.44326423E-05 1.60957300E-03
13  9-1.19786158E-03-5.62331033E-04 4.11312046E-04-6.97716183E-05-8.75629118E-05
13 10-6.91958729E-05 2.60155787E-05-3.68112158E-05 1.23286886E-04 2.55842907E-06
13 11 9.73748945E-05-9.42367115E-06-3.09678194E-05-2.67988140E-05 3.39545939E-04
13 12-5.01319969E-05 7.97861936E-05 1.33376263E-05-2.13990643E-03-3.29035152E-04
13 13-3.51287135E-04 8.70766031E-04 9.71058400E-05 8.07573441E-05 1.19422819E-04
13 14-4.05121056E-05-6.69122463E-05 1.80522322E-05 1.50925371E-04-5.91002143E-04
13 15 3.42694792E-01 5.19556438E-01 7.76373681E-01 7.14977932E-04 6.60330089E-03
13 16 9.81493287E-03 1.47271268E-02-3.97508262E-06-1.58897626E-03-2.14653921E-03
13 17-3.07960249E-03 3.89118505E-04 4.41369833E-04-1.12548951E-03 6.50927845E-04
13 18 4.50969999E-04 1.32585041E-04 3.81022539E-05-6.76637573E-04-3.69991877E-05
13 19 3.43544200E-04-1.18344339E-04 7.98980572E-04-7.01577876E-05 6.31548727E-04
13 20 4.06292812E-04-9.75057494E-04-3.59800100E-04 6.39126581E-04-6.16750881E-05
13 21 9.13010789E-05 4.16858837E-06 3.33993683E-04-2.03494296E-06 8.60158874E-05
14  1 3.77582307E-05-5.01430009E-05-2.15219426E-05 8.61034856E-06-4.80944554E-05
14  2-1.60257255E-04 3.29188894E-04 2.25998752E-04 1.23422777E-04 1.71856034E-05
14  3 4.34426929E-05 2.86866516E-05-8.02899564E-06-9.23512793E-07 9.15723287E-06
14  4-1.18451912E-05-3.51865510E-05-1.04984270E-06-1.79487007E-05 5.97049727E-05
14  5 4.32737896E-04-1.48040337E-04 8.29071194E-05-2.02501223E-04 9.62368939E-08
14  6-1.65649640E-05-3.03497962E-05 2.92414031E-06-2.26195823E-06-8.37452785E-06
14  7 1.81409814E-06 5.22175306E-05 2.51234159E-05-2.75968348E-05 2.17097303E-05
14  8 1.77624443E-04-1.78792416E-04 1.38834517E-04-6.62122551E-05-1.28974301E-03
14  9 8.58557516E-04 3.47401329E-04-2.12709472E-04 8.83697703E-05 4.21748018E-05
14 10 6.56032330E-05-2.69178802E-05 4.19341690E-05-1.03682947E-04 1.31424546E-05
14 11-1.63690072E-04-4.56908502E-05 3.33480740E-05-7.12156347E-05-1.69741414E-04
14 12 8.33317094E-05 6.95665195E-05 3.49097164E-06 1.58229428E-03-3.83529927E-04
14 13 7.69198200E-04 2.52851506E-05-5.89726074E-05-5.13899103E-05-8.24054939E-05
14 14 2.89195649E-05 4.09741131E-05-4.99304414E-05-2.22757302E-03 9.22564775E-03
14 15-5.99185560E-01-5.13400972E-01 6.08045606E-01-9.84026706E-03-9.16342426E-03
14 16-8.08055763E-03 9.35200947E-03-3.50529465E-03 2.61542583E-03 2.43286489E-03
14 17-2.85851595E-03 1.59122559E-03 1.78871602E-03 1.57332711E-03-4.72559050E-04
14 18 3.47485782E-04 1.64316219E-04-6.42259208E-05 4.71045348E-04 4.54269783E-06
14 19-1.50557644E-04-4.16547595E-05 4.20005566E-05-5.68873367E-05 1.71075187E-05
14 20-4.22379488E-04 2.37477797E-03-3.91554216E-04 1.98530459E-03 1.48318404E-06
14 21 5.37981294E-05-2.03640277E-05-1.61098602E-04 4.74151296E-05-4.36575842E-04
15  1-2.37088008E-04 6.99354230E-04-4.48727862E-04-4.63882300E-04 3.00118123E-04
15  2-1.87577857E-03 1.91286771E-03 1.06774374E-03-1.75206787E-03 2.18401757E-04
15  3 1.26733626E-04 1.05025822E-04 7.42953236E-05-3.34693548E-05-1.24354718E-04
15  4 2.50308426E-05 1.37301720E-04-6.16102271E-05-1.01879140E-04 3.31800549E-05
15  5-1.28083628E-03-1.43300281E-04-1.73383485E-04-2.44344259E-04 1.43046348E-04
15  6 5.19714354E-07 5.79603917E-05 1.76244782E-05-4.58694582E-05-1.37793555E-04
15  7-5.29771228E-06 4.20990224E-05 1.05514806E-04 6.83039259E-05-6.27268793E-05
15  8 5.37167079E-05-4.03090638E-04-2.73894247E-04 2.22286257E-04 1.51629649E-03
15  9 3.83271052E-05-6.28539085E-04-1.88631300E-04 1.06665382E-05 1.47575510E-04
15 10-2.12461594E-04 8.82302694E-05 2.13980388E-04-1.17522503E-04 1.05823857E-03
15 11-4.10784701E-03 6.29616944E-01 7.56045586E-01-1.44844691E-01 3.43480710E-03
15 12 1.38636582E-02 1.64875460E-02-3.41501836E-03-1.00792279E-03-4.13528819E-03
15 13-3.96947478E-03 1.15178779E-03-2.90941534E-04-4.99449351E-04-9.68218946E-04
15 14 1.18849501E-03-9.44325870E-04-9.68118422E-04 3.02151373E-06 3.34814536E-05
15 15-9.32274177E-06 7.81428006E-05-9.72825965E-06 2.50786188E-04-9.17141265E-06
15 16-1.41784156E-04 4.58681365E-05-9.83950912E-04-2.57284766E-04 5.41252146E-04
15 17-9.34935508E-05 7.12960403E-05-7.29848057E-05-4.08589081E-06 3.89401346E-05
15 18-3.58163567E-06 9.78731274E-06 4.64800973E-05 1.28749097E-04 1.03247430E-04
15 19-2.07961098E-04-1.40795029E-04 6.61041397E-04-1.03741618E-04 6.30631682E-04
15 20-2.12761218E-05 3.06614698E-04-3.89964169E-06 2.02072232E-04-1.38925264E-05
15 21 7.04995803E-04 1.29449551E-04-8.97019471E-05 1.33988777E-05 3.88517900E-04
16  1 2.62267621E-05-3.69477920E-05 1.19099431E-04-3.47424243E-05 6.30602241E-05
16  2 8.90164918E-05-5.36049482E-04 3.89435156E-04-4.15329258E-04 1.58586298E-04
16  3-9.48821426E-05-6.26867872E-05 1.55440918E-05 1.43510243E-05 1.33097907E-04
16  4-1.52974497E-06 6.42075922E-07 3.28711226E-06 1.13842560E-05-1.74215795E-05
16  5-2.31220029E-05 1.40522589E-04-1.72071505E-04 2.36295301E-05-6.93846907E-05
16  6 5.58685410E-06 3.43632237E-05 8.64513559E-06 3.38798812E-05-3.46953153E-05
16  7-1.56525215E-06-1.41730851E-05-2.45227060E-05-1.35145970E-05-7.83229431E-06
16  8-9.25672166E-05 1.00524590E-04 5.71670265E-05 9.28430881E-05 8.20027333E-07
16  9 2.82725519E-04-2.16390786E-04 3.61638408E-04-8.74289740E-05 9.92558242E-05
16 10-6.42021695E-05-1.18981665E-04-9.32012400E-05-6.72378160E-05-3.16741786E-04
16 11 1.21040625E-03 6.97002175E-01-4.80259101E-01 5.22849151E-01-1.35997455E-03
16 12 1.37540018E-02-9.52639594E-03 1.00685805E-02 7.64618324E-04-3.51397822E-03
16 13 2.48291075E-03-2.44024404E-03 8.00908062E-04 5.46039093E-04-6.70648105E-04
16 14-3.92722970E-04-6.28131017E-04 4.47598472E-04 3.78908310E-06-2.68599405E-05
16 15-1.16661550E-04-6.27142554E-06 6.92315046E-05 2.13692348E-04-7.29041159E-05
16 16 8.68532983E-05-1.27587615E-04-2.37560695E-04-2.31479596E-05 5.09853106E-04
16 17-1.00248619E-04-7.60201788E-05-1.48196335E-04-1.57796019E-04 2.46407552E-05
16 18 7.40453417E-05-2.13605004E-05 3.56233617E-05-2.23736964E-04-2.00082684E-05
16 19 8.68656049E-05-3.65283962E-04 4.51759240E-04 2.89987122E-04-3.19094460E-04
16 20 2.74452903E-05-5.79148174E-04 1.85955074E-04-6.23247026E-04-1.06335669E-04
16 21 3.14536844E-04-3.28075360E-06 7.93868096E-05 1.17035662E-04-5.18055472E-04
17  1 4.73636720E-05-1.25015549E-04 1.07671376E-04 3.84017898E-04 1.55669414E-04
17  2 6.76070415E-04-1.24010347E-04-1.97123413E-03-1.50839751E-03-1.49919140E-04
17  3-2.22953501E-04-9.80891488E-05-1.34141040E-04 9.02602122E-05 3.85606047E-05
17  4-6.08998754E-05-1.85915764E-04 2.19549475E-04 1.30690101E-04-2.34396569E-04
17  5 4.09406646E-05 1.41513657E-05-4.96318573E-04-4.51909415E-04-1.90716475E-04
17  6-1.15756501E-04-2.02409939E-04-3.16642758E-05 9.14509436E-05 7.64036329E-05
17  7 4.42730797E-06 1.19822265E-04-2.36809687E-06 9.70313424E-05 8.04929901E-05
17  8 3.76810374E-04-1.32453977E-04-9.19412911E-04-4.84546693E-04 7.56096910E-04
17  9-2.57557701E-04-3.91637620E-04 7.12403416E-05 7.59541428E-05 4.36611422E-04
17 10 1.42104300E-04 4.41948486E-05 4.43267269E-05 2.23242374E-04-1.90750114E-03
17 11 7.70636868E-03-3.27564601E-01 4.32678218E-01 8.34272654E-01-5.85849390E-03