!   C2H4...at the rotational saddle point for the "N" ground state.
!   Test is from Aaron in Jan. 2011 showing bug in ORMAS responses.
!   As you can see below, the bug was fixed in July 2013.  Go, Aaron!
!   Someday, we should change the geometry and orbs to the group D2d.
!
!         FINAL E= -77.9753563839, 3 iters.   4 response iterations.
!   imaginary FREQ= 1823.94i
!   rot/trans FREQ= 1.83, 0.00, 0.00, 0.00, 1.10, 2.95
!        vib. FREQ= 338.98(2), 1006.33(2), 1082.38, 1578.13, 1605.69,
!        vib. FREQ= 3311.13, 3315.20, 3405.95(2)
!
!   This run takes 5 seconds on 2.66 GHz Cloverton (25 Apr 2015)
!
!   -------------------------excess details----------------------------------
!              comparison of 3 ways to compute the hessian:
!   analytic computation,
!         CP-MCHF converges in 4 iterations, seemingly cleanly.
!      F.EQUENCY:      1823.94 I      1.83        0.00        0.00        0.00
!      F.EQUENCY:         1.10        2.95      338.98      338.99     1006.33
!      F.EQUENCY:      1006.34     1082.38     1578.13     1605.69     3311.13
!      F.EQUENCY:      3315.20     3405.95     3405.95
!   seminumerical computation looks OK,
!         imag F.EQ slightly off, most others apparently exactly on.
!      F.EQUENCY:      1815.68 I     10.97        4.39        3.06        1.42  
!      F.EQUENCY:         5.59        9.13      338.99      339.12     1006.27  
!      F.EQUENCY:      1006.31     1082.35     1578.60     1605.82     3311.98  
!      F.EQUENCY:      3315.27     3405.98     3405.98
!   fully numeric computation looks OK,
!         but note that this imaginary mode is closer to the analytic.
!      F.EQUENCY:      1823.90 I     11.86        7.95        7.38        6.92  
!      F.EQUENCY:         3.64        1.30      338.85      338.87     1006.06  
!      F.EQUENCY:      1006.12     1082.44     1577.89     1605.51     3311.23  
!      F.EQUENCY:      3315.30     3406.02     3406.03
!
 $contrl ISPHER=1 mult=1 scftyp=mcscf runtyp=hessian $end
 $system mwords=150 memddi=10 $end
 $guess  guess=moread norb=36 $end
 $basis  GBASIS=N31 NGAUSS=6 NDFUNC=1 $end

!   The ORMAS uses CC sigma/sigma* as 1st space,
!          then CC pi-combinations as 2nd space.
!   the $VEC is in that order, although NOs will reorder to 2,1,1,0 occ.nos.
!   no excitation is allowed between the two spaces.
 $mcscf  cistep=ormas fullnr=.t. maxit=200 $END
 $det    ncore=6 nact=4 nels=4 iroot=1 nstate=8 mxxpan=16 $end
 $ormas  nspace=2 mstart(1)=7,9 mine(1)=2,2 maxe(1)=2,2 $end
 $cpmchf cptol=1.0D-06 maxit=200 gcrodr=.t. micit=20 kicit=10 $end

 $force  method=analytic $end
x$force  method=seminum nvib=2 $end
x$force  method=fullnum $end

 $DATA
At Aaron's saddle point geometry...
C1
C           6.0  -0.0040517818   0.0687327803  -0.6589245250
C           6.0   0.1374714030   0.0331673435   0.8313352215
H           1.0  -0.1241512487   0.8824188692   1.4367133650
H           1.0   0.8028060813   0.3996748467  -1.2879041788
H           1.0  -0.9163643369  -0.2355880110  -1.1397912444
H           1.0   0.5045604835  -0.8425692057   1.3358040859
 $end

Aaron's runs were done nearby, but not at a stationary point:
 C           6.0  -0.0041746476   0.0687685269  -0.6602250325
 C           6.0   0.1375924428   0.0331371640   0.8326354761
 H           1.0  -0.1241380584   0.8825600327   1.4376211251
 H           1.0   0.8028926509   0.3997443883  -1.2888160309
 H           1.0  -0.9166180568  -0.2356199845  -1.1406673112
 H           1.0   0.5047162695  -0.8427535045   1.3366844976
 $END

orbitals are from that close by point, but its very close, so they work.
 $VEC   
 1  1 7.04586855E-01 1.72925382E-02 2.76254844E-05-6.84501060E-06 2.91253133E-04
 1  2-1.10015727E-02-1.51124535E-04 3.78407343E-05-1.59156889E-03-1.40444622E-04
 1  3-3.59113539E-04 4.99558161E-04 1.01997240E-04 7.33512647E-05-3.35630893E-05
 1  4-7.04282266E-01-1.72863153E-02 2.77438979E-05-7.01950823E-06 2.92931246E-04
 1  5 1.09975180E-02-1.51054095E-04 3.80479935E-05-1.59131850E-03 3.52283559E-04
 1  6 1.46502609E-04-4.98786168E-04 1.05868904E-04-9.16445086E-05 7.92331889E-06
 1  7 9.98290364E-05-1.59995244E-03-9.98779120E-05 1.60119636E-03-9.98689006E-05
 1  8 1.60113874E-03 9.98135425E-05-1.59988684E-03
 2  1 7.05336888E-01 1.44598790E-02-3.61877821E-04 9.11078266E-05-3.80999378E-03
 2  2-9.36889329E-03-5.06908337E-05 1.26628186E-05-5.35319499E-04 4.18278592E-04
 2  3 4.32228548E-05-4.61501447E-04 1.88375784E-04-9.27968026E-05-3.80615808E-06
 2  4 7.05641010E-01 1.44673594E-02 3.61913232E-04-9.09054895E-05 3.80985869E-03
 2  5-9.37368714E-03 5.07485778E-05-1.26803936E-05 5.36021438E-04 3.80673295E-05
 2  6 4.24974786E-04-4.63042115E-04-1.84779059E-04-5.99773061E-05 4.21906605E-05
 2  7-1.22666490E-04 2.88869274E-03-1.22654943E-04 2.88802097E-03-1.22653607E-04
 2  8 2.88811591E-03-1.22716343E-04 2.88884726E-03
 3  1 1.24440386E-01-2.43216039E-01 1.43379328E-02-3.61449667E-03 1.50913838E-01
 3  2-2.58197588E-01 4.90364278E-03-1.23903359E-03 5.16102062E-02-1.57721177E-02
 3  3 9.35457914E-03 6.41753856E-03-1.23701304E-02 2.15440785E-03 1.25327533E-03
 3  4-1.24445011E-01 2.43224912E-01 1.43402812E-02-3.60274915E-03 1.50922291E-01
 3  5 2.58205438E-01 4.90518891E-03-1.23023816E-03 5.16147501E-02-9.37919986E-03
 3  6 1.59122498E-02-6.53304992E-03-1.23204104E-02 1.47771251E-05 1.79062081E-03
 3  7 1.43463046E-01 6.55085549E-02-1.43456646E-01-6.55053757E-02-1.43456404E-01
 3  8-6.55054496E-02 1.43462565E-01 6.55087893E-02
 4  1 1.05667929E-01-2.03181497E-01 1.96099791E-02-4.94353758E-03 2.06466001E-01
 4  2-1.76796399E-01 1.02823592E-02-2.59158390E-03 1.08241692E-01-1.30284201E-02
 4  3 1.09907348E-02 2.03768537E-03-1.17831720E-02 1.37993975E-03 1.36527254E-03
 4  4 1.05662705E-01-2.03171307E-01-1.96126213E-02 4.91976368E-03-2.06459636E-01
 4  5-1.76785990E-01-1.02831884E-02 2.58113775E-03-1.08239649E-01 1.09614329E-02
 4  6-1.31088479E-02 2.14741495E-03 1.17669445E-02-6.89093965E-04-1.53830452E-03
 4  7-1.48621654E-01-8.05999658E-02-1.48625655E-01-8.06016634E-02-1.48621204E-01
 4  8-8.05988504E-02-1.48612993E-01-8.05945152E-02
 5  1-1.20135765E-06 2.35928455E-06 3.02453701E-01 7.22211337E-02-2.70044741E-02
 5  2-9.52561050E-08 1.40890238E-01 5.21104313E-02-1.21396083E-02-3.12783943E-03
 5  3 5.72805677E-04 2.55503375E-03-8.55873009E-04-1.88628816E-02-1.38500586E-02
 5  4 6.73295941E-07-1.56657661E-06 1.41090306E-01-2.79580325E-01-2.00724537E-02
 5  5 4.34386061E-07 5.17731438E-02-1.42181536E-01-8.31128691E-03 3.06546564E-04
 5  6 9.74220640E-04-1.28076720E-03-2.28414492E-03 1.78678244E-03-2.35492155E-02
 5  7-1.70886053E-01-1.30706631E-01 1.69947803E-01 1.29989209E-01-1.69945185E-01
 5  8-1.29986287E-01 1.70888615E-01 1.30707853E-01
 6  1 1.19634403E-06-1.84270194E-06 2.78730730E-01 1.42307862E-01-2.30653828E-02
 6  2-1.49857031E-06 1.41705806E-01 5.23074209E-02-1.22042878E-02-3.86365831E-03
 6  3 8.13358450E-05 3.78232247E-03 3.80261516E-04-2.32650979E-02-1.96990804E-03
 6  4 5.75857713E-07-7.77669551E-07-7.12451815E-02 3.03564047E-01 1.40056852E-02
 6  5 2.97046057E-07-5.15802458E-02 1.41366473E-01 8.26867057E-03-2.25678544E-03
 6  6-7.87699858E-04 3.04448530E-03 2.13873161E-03-1.35474155E-02 1.90100789E-02
 6  7 1.69943421E-01 1.29985582E-01 1.70884248E-01 1.30705222E-01-1.70891792E-01
 6  8-1.30711531E-01-1.69950912E-01-1.29991748E-01
 7  1-1.28243730E-01 3.41093192E-01 4.78953621E-02-1.20381088E-02 5.04385811E-01
 7  2 3.11555709E-01 1.82532831E-02-4.58110954E-03 1.92170856E-01-3.15484720E-02
 7  3 3.52154806E-05 3.15132565E-02-1.57876779E-02 6.59461762E-03 6.17909637E-04
 7  4-6.70498160E-02 8.67101562E-02-1.58649040E-02 3.98564531E-03-1.67020782E-01
 7  5 3.19546134E-02-6.37068315E-03 1.60000691E-03-6.70990162E-02-1.73366354E-02
 7  6 6.63644485E-03 1.07001905E-02-1.18497628E-02 2.81257318E-03 1.00739147E-03
 7  7-1.36875249E-02-3.15352745E-02-4.37361545E-02-8.41817610E-02-4.37330651E-02
 7  8-8.41757368E-02-1.36795532E-02-3.15303384E-02
 8  1-9.19465148E-02 4.32268877E-01 5.31418312E-02-1.33491291E-02 5.59719327E-01
 8  2 4.91625769E-01 1.95839651E-02-4.90617764E-03 2.06154021E-01-7.01775541E-02
 8  3 3.59757110E-02 3.42018431E-02-5.23332704E-02 1.02727439E-02 4.99847317E-03
 8  4 1.42845732E-01-5.43765399E-01 6.97541745E-02-1.75319611E-02 7.34706832E-01
 8  5-5.81155201E-01 2.59972771E-02-6.54192135E-03 2.73728821E-01-3.17447587E-02
 8  6 7.74734639E-02-4.57287052E-02-5.30250928E-02-2.84981499E-03 8.44414612E-03
 8  7 6.51296785E-02 1.16074171E-01-5.01681520E-02-8.59205455E-02-5.01690305E-02
 8  8-8.59152174E-02 6.51383014E-02 1.16076394E-01
 9  1 8.34961310E-06-1.81800770E-05-1.85514940E-01 4.41918782E-01 2.81835413E-02
 9  2-3.64860378E-05-1.76206936E-01 3.92389901E-01 2.61164976E-02 2.50155609E-03
 9  3-2.98297918E-04-2.20325817E-03 3.18083463E-04 1.50795904E-02 7.19330178E-03
 9  4 2.36238733E-06-4.92849060E-06 3.52398465E-01 9.80607475E-02-3.11370094E-02
 9  5-1.42145687E-05 3.20598624E-01 7.48095383E-02-2.86667258E-02 1.06673926E-03
 9  6 8.69426878E-04-1.93616614E-03-2.15289260E-03 6.38204348E-03-2.10003935E-02
 9  7-5.51733071E-02-7.96614570E-02-4.20886070E-02-6.07694810E-02 4.21020367E-02
 9  8 6.07888041E-02 5.51783437E-02 7.96673266E-02
10  1-7.57085202E-06 1.65240063E-05 9.68452326E-02-3.53670162E-01-1.76477241E-02
10  2 3.25687043E-05 7.37624678E-02-3.21787434E-01-1.46972851E-02 3.44660396E-03
10  3-2.70803657E-04-3.17580030E-03 1.21735875E-04 2.07788954E-02 6.60670008E-03
10  4 6.18025615E-06-1.39059108E-05 4.40483084E-01 1.87309572E-01-3.73634551E-02
10  5-2.45583046E-05 3.91137535E-01 1.77850487E-01-3.29065932E-02-1.16846354E-03
10  6-6.30075761E-04 1.79853930E-03 1.61714584E-03-6.99999013E-03 1.52231719E-02
10  7 4.20998329E-02 6.07834272E-02-5.51815086E-02-7.96718009E-02 5.51704119E-02
10  8 7.96530279E-02-4.20918813E-02-6.07685504E-02
11  1-8.20991808E-02 1.07594526E-01-1.35971147E-02 3.43063921E-03-1.43150775E-01
11  2 1.51246167E+00-5.87170270E-02 1.48124860E-02-6.17968039E-01-6.41843996E-04
11  3-8.11061526E-03 8.75245926E-03 3.56872897E-03 1.12799946E-03-8.06917465E-04
11  4-8.20995046E-02 1.07594635E-01 1.35997636E-02-3.40956320E-03 1.43151686E-01
11  5 1.51246685E+00 5.87256167E-02-1.47465312E-02 6.17972311E-01-7.98257890E-03
11  6-7.36186466E-04 8.71876537E-03-3.63758880E-03 1.76086297E-03 8.00542834E-05
11  7-8.12582080E-04-1.08957878E+00-8.12093940E-04-1.08956278E+00-8.11204651E-04
11  8-1.08954534E+00-8.10916658E-04-1.08953901E+00
12  1-5.77859244E-02 1.03356773E-02-2.01284341E-02 5.06724914E-03-2.11810587E-01
12  2 8.86843667E-01-9.98408534E-02 2.51307525E-02-1.05074255E+00-7.50340700E-03
12  3-2.19162326E-03 9.69503026E-03-2.70025668E-03 1.83769369E-03-7.59235395E-05
12  4 5.77855916E-02-1.03354055E-02-2.01262805E-02 5.06611642E-03-2.11809784E-01
12  5-8.86837407E-01-9.98344773E-02 2.51134315E-02-1.05074127E+00 2.08040536E-03
12  6 7.63962468E-03-9.72003003E-03-2.62361453E-03-1.36989024E-03 7.29668749E-04
12  7 2.54224584E-02 1.12236071E+00-2.54238773E-02-1.12237926E+00-2.54287191E-02
12  8-1.12245300E+00 2.54301296E-02 1.12246262E+00
13  1-3.95327389E-06 4.37783786E-06 2.37153519E-01 9.10182405E-02-2.03579203E-02
13  2 5.05553273E-05 1.00803252E+00 7.11791763E-01-7.88061357E-02 7.75877900E-04
13  3 4.85355810E-04-1.26123371E-03-1.22658439E-03 4.65105968E-03-1.17209927E-02
13  4 2.94527815E-06-1.37686989E-06 8.62927519E-02-2.45804135E-01-1.40730610E-02
13  5-3.32477080E-05 1.27111417E-01-1.25501868E+00-4.20943516E-02-1.92596677E-03
13  6 1.59560352E-04 1.76640642E-03-8.91983542E-05-1.16161093E-02-3.89857311E-03
13  7-7.05172094E-03 1.31478065E+00 6.88975697E-03-1.28426603E+00-6.88506351E-03
13  8 1.28412660E+00 7.05070430E-03-1.31467501E+00
14  1 2.23711339E-06-5.61050039E-06 2.44970174E-01 8.72074747E-02-2.11852745E-02
14  2-3.04691730E-05 1.25006384E+00 1.30461277E-01-1.15590501E-01-6.30176084E-04
14  3-4.85299347E-04 1.11547543E-03 1.20708038E-03-3.77104177E-03 1.17379025E-02
14  4 5.60578361E-07-4.05962845E-06-9.01056325E-02 2.37947033E-01 1.42428076E-02
14  5-8.94135970E-06-7.06559514E-01 1.01068132E+00 9.12362379E-02-1.92331279E-03
14  6 1.96657004E-04 1.72665578E-03-1.73698350E-04-1.16053340E-02-4.78963966E-03
14  7 6.88660924E-03-1.28419383E+00 7.04942247E-03-1.31470161E+00-7.05641775E-03
14  8 1.31476946E+00-6.89170240E-03 1.28421462E+00
15  1-3.68812938E-02-7.21591910E-02-3.82609381E-02 9.60593596E-03-4.02905693E-01
15  2 1.94990330E+00 2.17370211E-01-5.46596981E-02 2.28907476E+00 1.88210445E-02
15  3-6.50233566E-02 4.62023121E-02 4.05899765E-02 4.02528516E-03-6.93439984E-03
15  4 3.68812252E-02 7.21577665E-02-3.82502682E-02 9.63283153E-03-4.02903343E-01
15  5-1.94990280E+00 2.17372822E-01-5.46182326E-02 2.28907206E+00 6.42454924E-02
15  6-1.84240425E-02-4.58214499E-02 4.09549142E-02-1.11863433E-02-3.10932331E-03
15  7-2.11854228E-01-1.40658746E-01 2.11860119E-01 1.40642055E-01 2.11865525E-01
15  8 1.40586235E-01-2.11871097E-01-1.40570059E-01
16  1 7.95908403E-03 1.78330213E-01 5.67004413E-02-1.42415472E-02 5.96963009E-01
16  2 3.40588101E-01-9.45228578E-02 2.37667082E-02-9.95030655E-01-6.36523861E-02
16  3-3.34189624E-02 9.70713484E-02-1.57940014E-02 1.74093138E-02-2.13590668E-03
16  4 7.95904280E-03 1.78330589E-01-5.66956921E-02 1.42687432E-02-5.96965386E-01
16  5 3.40582675E-01 9.45204718E-02-2.37828118E-02 9.95038722E-01-3.22543151E-02
16  6-6.49608339E-02 9.72151489E-02 1.50286835E-02 1.47015871E-02-5.93509753E-03
16  7-1.30508100E-01-1.11539474E-01-1.30510135E-01-1.11537017E-01-1.30520057E-01
16  8-1.11528492E-01-1.30524482E-01-1.11527131E-01
17  1 4.32062879E-06-3.63068734E-06-3.60717690E-01 5.67899623E-01 4.78134960E-02
17  2-4.96170097E-05 5.80977819E-01-4.25886630E-01-6.53390037E-02 1.32537077E-03
17  3 5.60298074E-06-1.33097375E-03-2.18722078E-04 7.94413488E-03-2.75364410E-04
17  4-2.72653967E-06 1.54606771E-05-7.52532509E-01-1.44177349E-01 6.80211223E-02
17  5 1.28068491E-05 7.67289976E-01-8.72905033E-02-7.49646084E-02-9.04859028E-04
17  6-2.02246829E-04 1.10710586E-03 5.95900894E-04-5.44706637E-03 4.83983675E-03
17  7 1.25569770E-01 1.66958492E-01-1.44645034E-01-1.92335599E-01 1.44696196E-01
17  8 1.92350585E-01-1.25588493E-01-1.66958822E-01
18  1-4.38068864E-06-2.51347700E-05 1.41878405E-01-7.55385908E-01-3.15216566E-02
18  2 1.05848274E-04 8.86222917E-02 7.70719389E-01 9.96172892E-03 7.94320791E-04
18  3-2.26791612E-04-5.67529179E-04 4.01896837E-04 4.81306516E-03 5.54599513E-03
18  4-2.82613421E-06-3.11517808E-05-5.66341235E-01-3.63521594E-01 4.51065306E-02
18  5 7.08388232E-05 4.25435065E-01 5.84366196E-01-2.63962774E-02-4.40225268E-05
18  6 3.27872833E-04-2.83850306E-04-7.55547938E-04-3.24656436E-04-8.04346271E-03
18  7-1.44693532E-01-1.92354666E-01-1.25605213E-01-1.66969899E-01 1.25522708E-01
18  8 1.66934665E-01 1.44622021E-01 1.92320864E-01
19  1-3.16977794E-02-8.12598567E-01-1.33922938E-02 3.51776375E-03-1.35503910E-01
19  2 1.45083510E+00-2.82974300E-02 6.89817938E-03-3.14406138E-01-4.40930287E-02
19  3 8.67363548E-02-4.26433261E-02-6.36296895E-02-1.34766411E-03 9.74817858E-03
19  4-3.16977021E-02-8.12598441E-01 1.33455320E-02-3.80744716E-03 1.35502160E-01
19  5 1.45083441E+00 2.85018577E-02-5.61872455E-03 3.14416819E-01 8.59003929E-02
19  6-4.38496123E-02-4.20507806E-02 6.39635097E-02-1.26046646E-02-6.26838210E-03
19  7-4.42487244E-01-2.39721574E-01-4.42275325E-01-2.39463691E-01-4.41737836E-01
19  8-2.38807400E-01-4.41525268E-01-2.38549456E-01
20  1 9.01651764E-06 2.66850514E-04 3.54809291E-01 3.91748176E-01-2.43027622E-02
20  2-3.95593758E-04-1.18629477E+00-1.21319087E+00 8.39459101E-02-1.92418864E-02
20  3-1.20899726E-03 2.04508837E-02 5.54601530E-03-1.15918478E-01 2.83464761E-02
20  4 1.32470189E-05 2.85441789E-04-6.86008707E-02-5.24569125E-01-6.06684631E-03
20  5-5.92734416E-04 1.55807060E-01 1.69141649E+00 2.56226991E-02 1.60113883E-02
20  6 2.94446519E-03-1.89558535E-02-9.08827590E-03 9.64604399E-02-7.06646311E-02
20  7-3.19063545E-01-4.29133241E-01 3.19394740E-01 4.29343322E-01-3.19096533E-01
20  8-4.29091888E-01 3.19366647E-01 4.29218984E-01
21  1 3.89282394E-05 9.73403275E-04-5.22200074E-01 6.76767989E-02 5.13833717E-02
21  2-1.71548221E-03 1.68405485E+00-1.52644957E-01-1.63178189E-01 1.17185356E-02
21  3-4.17128428E-03-7.54725134E-03 7.69032762E-03 7.04358236E-02 9.81621338E-02
21  4 4.00405569E-05 9.79181604E-04 3.89272907E-01-3.55425722E-01-4.56345984E-02
21  5-1.77122144E-03-1.20547239E+00 1.18862594E+00 1.42539521E-01-4.83376071E-03
21  6 4.91156903E-03-7.78083185E-05-1.05681404E-02-2.87686418E-02-1.17589759E-01
21  7-3.18716319E-01-4.28963935E-01-3.18686560E-01-4.28900538E-01 3.19749601E-01
21  8 4.29515443E-01 3.19780454E-01 4.29532727E-01
22  1-6.82269314E-02-9.43141008E-01-2.50546014E-02 6.37055913E-03-2.64642835E-01
22  2 3.35898698E+00 1.60147781E-01-4.03223930E-02 1.68768684E+00-1.19651295E-01
22  3 8.39533512E-02 3.56979437E-02-1.00075782E-01 1.47786891E-02 1.08085096E-02
22  4 6.82269703E-02 9.43140676E-01-2.51141617E-02 6.22117424E-03-2.64641132E-01
22  5-3.35898612E+00 1.60233214E-01-4.01645314E-02 1.68768319E+00-8.39461687E-02
22  6 1.20579274E-01-3.66331055E-02-9.97920127E-02 2.78455032E-03 1.38320968E-02
22  7 4.55944102E-01-1.97452513E-01-4.55932523E-01 1.97442147E-01-4.55793220E-01
22  8 1.97173356E-01 4.55782152E-01-1.97164121E-01
23  1 1.01865842E-05 2.30482055E-05 6.43240340E-01 2.53022072E-01-5.49640422E-02
23  2-2.10768642E-04-9.91889621E-01-5.02649956E-01 8.19432758E-02 2.86380051E-02
23  3 1.16235920E-03-2.98003643E-02-6.86077660E-03 1.72291415E-01-2.82057170E-02
23  4-9.79213438E-06-4.17969543E-05 2.28349776E-01-6.67656203E-01-3.75463913E-02
23  5 2.47207895E-04-2.68638771E-01 1.10230479E+00 5.15868827E-02-2.19916178E-02
23  6-4.88810401E-03 2.68797218E-02 1.44008202E-02-1.32283588E-01 1.17385538E-01
23  7 4.56621139E-01-1.02450294E+00-4.48063492E-01 1.00529278E+00 4.48252286E-01
23  8-1.00553070E+00-4.56807505E-01 1.02471179E+00
24  1 1.01517133E-06-3.32910603E-05-6.65371249E-01-2.30795490E-01 5.76933263E-02
24  2 6.77284384E-05 1.09827558E+00 2.72213921E-01-9.78340210E-02-1.93463104E-02
24  3 5.57009594E-03 1.37762144E-02-9.96780378E-03-1.16811777E-01-1.34776190E-01
24  4 1.11013311E-07-8.41157180E-06 2.50525525E-01-6.45365035E-01-3.91968214E-02
24  5 1.67273836E-05-4.98322727E-01 9.94894746E-01 7.10891369E-02 4.75042269E-03
24  6-7.22680940E-03 2.47638672E-03 1.59101477E-02 2.90221890E-02 1.74691848E-01
24  7 4.48153187E-01-1.00540640E+00 4.56723862E-01-1.02463241E+00-4.56712142E-01
24  8 1.02457132E+00-4.48169817E-01 1.00540586E+00
25  1 1.00584110E-02-1.23389572E+00 4.05670144E-02-1.02557991E-02 4.27517072E-01
25  2 2.86742835E+00 1.35880881E-04 7.44766206E-05 9.66921795E-04 5.07900473E-02
25  3-2.32968452E-02-2.74932021E-02 3.65622256E-02-7.78790417E-03-3.34088241E-03
25  4-1.00583877E-02 1.23389549E+00 4.05947373E-02-1.01353148E-02 4.27517226E-01
25  5-2.86742779E+00 8.63142495E-05-1.34141384E-04 9.66954001E-04 2.34780846E-02
25  6-5.13121563E-02 2.78340717E-02 3.63447868E-02 1.38108871E-03-5.65550642E-03
25  7-3.30087941E-01 8.75430199E-01 3.30071515E-01-8.75401301E-01 3.29998872E-01
25  8-8.75253962E-01-3.29982182E-01 8.75224378E-01
26  1 2.79950767E-02-1.15131786E+00 3.27938632E-02-8.27241104E-03 3.45106042E-01
26  2 2.04470168E+00-5.61902347E-02 1.41740341E-02-5.91273745E-01 9.69758674E-02
26  3-2.52738718E-02-7.17019956E-02 6.05986520E-02-1.71956649E-02-4.44494791E-03
26  4 2.79950672E-02-1.15131875E+00-3.28000375E-02 8.24699424E-03-3.45105986E-01
26  5 2.04470400E+00 5.61993136E-02-1.41347919E-02 5.91272976E-01-2.59067446E-02
26  6 9.81729883E-02-7.22662438E-02-6.00329098E-02-6.59737584E-03 1.04237599E-02
26  7 3.92384179E-01-9.86185242E-01 3.92390362E-01-9.86198125E-01 3.92396440E-01
26  8-9.86210574E-01 3.92402404E-01-9.86223599E-01
27  1 2.37107569E-07 3.97936660E-06-2.56547100E-05-2.04926308E-05 2.32848652E-06
27  2-1.09925175E-05-5.76421006E-05-5.36056014E-06 8.86306335E-06-3.83876872E-01
27  3 3.89190742E-01-5.31387069E-03 5.26223996E-01 5.47234348E-02-3.91464765E-02
27  4 3.02465368E-07 3.51044638E-06-1.15663481E-05-2.25814808E-05 5.78986169E-07
27  5-1.04626219E-05 3.60510554E-05-1.95131374E-05-7.87005771E-06-3.83917187E-01
27  6 3.89211505E-01-5.29431772E-03 5.26196864E-01 5.45588864E-02-3.93377187E-02
27  7 3.14957786E-05 1.78249602E-06 5.48189039E-05 1.80443066E-07-4.94432421E-05
27  8 7.18388072E-06-2.58533055E-05 5.67285294E-06
28  1 1.04948213E-06 7.18055332E-06 1.93896791E-04-2.64176358E-05-1.93733732E-05
28  2-2.84822387E-05 1.26490461E-03 8.05592990E-04-1.00507911E-04 3.99493682E-01
28  3-4.05173137E-01 5.67945477E-03-5.47758545E-01-5.77149683E-02 4.13172175E-02
28  4-1.03930648E-06-7.17173504E-06 1.88867562E-04-3.22465743E-05-1.90364165E-05
28  5 2.84687551E-05-2.60629779E-04-9.59749350E-04 2.25698418E-06-3.99447222E-01
28  6 4.05186608E-01-5.73938609E-03 5.47766092E-01 5.82268743E-02-4.07193445E-02
28  7 3.99248885E-04 2.22793069E-04-7.29779138E-04-4.07215117E-04 7.45973731E-04
28  8 4.16398341E-04-4.15446533E-04-2.31965022E-04
29  1 4.84134694E-07 3.56025190E-05 4.73606002E-02 1.00069903E-01-2.09474716E-03
29  2-3.52311430E-05 7.68369271E-01-2.00120305E-02-7.34515733E-02-5.50665397E-03
29  3 2.85086719E-02-2.30020179E-02-6.36926155E-02-3.29756463E-02-6.81849356E-01
29  4-1.17560956E-06 2.54802013E-05 4.43896394E-02 1.01468704E-01-1.80730346E-03
29  5-8.87666265E-06-5.12039182E-01 5.83058113E-01 6.25855320E-02 8.08705563E-02
29  6-1.93649664E-02-6.15055900E-02 3.23700137E-02 4.87497751E-01 4.66751412E-01
29  7-3.59741142E-01-2.05518184E-01-3.55709665E-01-2.03208576E-01 3.55708925E-01
29  8 2.03244858E-01 3.59705090E-01 2.05521304E-01
30  1 3.94408468E-06 1.83420754E-05-1.00945996E-01 4.43479284E-02 1.06437892E-02
30  2-4.50893497E-05-5.81754302E-01-5.15498500E-01 4.30115791E-02 7.67517541E-02
30  3 1.96961624E-02-9.64479165E-02-5.87655123E-02 4.57449389E-01-4.90503456E-01
30  4-4.06367105E-06-3.37991292E-06-9.95455622E-02 4.73367235E-02 1.05754749E-02
30  5 3.28633719E-05 2.16591269E-02 7.71632863E-01 1.64423659E-02-1.12407935E-01
30  6-5.39143539E-04 1.12947078E-01 1.99266273E-02-6.72925385E-01 2.87301923E-02
30  7-3.55750220E-01-2.03244815E-01 3.59758980E-01 2.05543496E-01-3.59692565E-01
30  8-2.05476989E-01 3.55674586E-01 2.03189693E-01
31  1 7.36616026E-03-4.60753756E-01-2.93790478E-02 7.38870198E-03-3.09419117E-01
31  2 2.94229092E-01 2.73206731E-02-6.86803570E-03 2.87472806E-01-2.27914927E-01
31  3-4.10206339E-01 6.38121266E-01 8.27732568E-02 9.79198947E-02-3.70350827E-02
31  4 7.36634287E-03-4.60754106E-01 2.93814762E-02-7.37634655E-03 3.09419817E-01
31  5 2.94228108E-01-2.73172670E-02 6.88530348E-03-2.87473448E-01-4.01682818E-01
31  6-2.35641393E-01 6.37324211E-01-8.78089622E-02 1.12912818E-01-1.59745741E-02
31  7 1.27597030E-02-5.05785522E-02 1.27685627E-02-5.05799230E-02 1.27983156E-02
31  8-5.05819749E-02 1.28088777E-02-5.05827455E-02
32  1 4.92795694E-02 2.32239926E-01 1.74010381E-03-4.43562163E-04 1.81274997E-02
32  2-1.06781436E+00-7.62341671E-04 2.21646422E-04-8.57059325E-03-5.09902373E-01
32  3 4.61089490E-01 4.88128827E-02-4.75979990E-01 5.01596928E-02 5.65555478E-02
32  4-4.92795363E-02-2.32240980E-01 1.73946232E-03-4.50273050E-04 1.81280266E-02
32  5 1.06781476E+00-7.83748538E-04 1.18839107E-04-8.57190106E-03-4.59471966E-01
32  6 5.12733703E-01-5.32617368E-02-4.75637043E-01 3.34254826E-02 6.06851748E-02
32  7-4.43744842E-01-9.40511256E-02 4.43772269E-01 9.40592563E-02 4.43856979E-01
32  8 9.40793245E-02-4.43883714E-01-9.40876692E-02
33  1-2.71435163E-02 4.25026545E-02 6.04466816E-04-1.39600742E-04 6.35491918E-03
33  2 3.57791263E-01-2.72163287E-02 6.86179275E-03-2.86310855E-01 5.70247036E-01
33  3-4.43748578E-01-1.26498458E-01 4.97871199E-01-6.50053207E-02-5.59214763E-02
33  4-2.71434740E-02 4.25016944E-02-6.01076795E-04 1.62538906E-04-6.35417434E-03
33  5 3.57793243E-01 2.72171286E-02-6.85214714E-03 2.86310304E-01-4.43054383E-01
33  6 5.74203982E-01-1.31149599E-01-4.96867144E-01 2.23753169E-02 6.66655783E-02
33  7-4.14861068E-01-1.41096486E-02-4.14852906E-01-1.41161657E-02-4.14836988E-01
33  8-1.41319023E-02-4.14829230E-01-1.41385509E-02
34  1-2.76992836E-07-5.30960884E-06-1.11737116E-01 1.89942196E-02 1.10825217E-02
34  2 5.48221544E-05-1.08107157E-01-1.79348843E-02 9.90259057E-03 9.55130034E-02
34  3-2.60201326E-02-6.94928708E-02 4.57558527E-02 5.76896327E-01 6.29443923E-01
34  4 1.01002140E-06 1.74920255E-06-8.69450626E-02 7.18951246E-02 9.99248328E-03
34  5-5.93698661E-05-5.60938160E-02 9.30521285E-02 7.60701488E-03 1.79835822E-02
34  6-3.48514858E-02 1.68679036E-02 7.75731141E-02 1.10330966E-01 8.43847479E-01
34  7-3.92996342E-01 1.08475121E-01 3.97339543E-01-1.09672594E-01-3.97274522E-01
34  8 1.09671145E-01 3.92955502E-01-1.08477655E-01
35  1-9.82273842E-07 1.38787323E-05-7.17904091E-02-8.74740226E-02 4.72945440E-03
35  2-3.31383918E-05-9.28047386E-02-5.65411351E-02 7.42593800E-03 1.38286219E-01
35  3 4.42760447E-03-1.42713823E-01-3.03255346E-02 8.32460872E-01-1.05998993E-01
35  4-1.50828799E-06-1.24007124E-06-1.91663915E-02-1.12251443E-01-8.67263119E-04
35  5 4.55054337E-05 1.76224338E-02-1.08533898E-01-4.28639819E-03 1.02714468E-01
35  6 2.40562917E-02-1.26770760E-01-7.01897744E-02 6.17590005E-01-5.79983206E-01
35  7 3.97298680E-01-1.09666117E-01 3.92954576E-01-1.08471580E-01-3.93005852E-01
35  8 1.08477604E-01-3.97323943E-01 1.09674159E-01
36  1-6.17432423E-02-1.65313514E-01 3.25932533E-02-8.19246815E-03 3.43144741E-01
36  2 1.83330605E+00 1.06089169E-01-2.66697771E-02 1.11717800E+00-4.69508604E-01
36  3-5.29190428E-01 9.98699032E-01 1.90585445E-02 1.63014885E-01-4.43368639E-02
36  4 6.17432141E-02 1.65313215E-01 3.25929244E-02-8.20056278E-03 3.43144831E-01
36  5-1.83330559E+00 1.06091040E-01-2.66621246E-02 1.11717795E+00 5.16368525E-01
36  6 4.82119095E-01-9.98487620E-01 2.69357336E-02-1.67048848E-01 3.86038605E-02
36  7-4.70250378E-03-3.23739969E-02 4.72281951E-03 3.23643981E-02 4.74888546E-03
36  8 3.23439723E-02-4.76967518E-03-3.23344287E-02
 $END   

! TRAVIS-CI SMALL

