!   C2H4...at the rotational minimum point for the "V" excited state.
!   Run in D2 subgroup of D2d to have Abelian symmetry in CI steps.
!   At this geometry, S0= -77.965895, and T1= -77.927393.
!
!   FINAL E= -77.8243539827, 6 iters.  Responses took 29 iterations.
!   FREQ= 718.39(b2/b3), 984.58(a), 995.21(b2/b3), 1337.80(a), 1564.95(a),
!   FREQ= 1656.30(b1), 3185.79(a), 3211.68(b2/b3), 3266.16(b1)
!   The maximum intensity is for the highest mode, namely 34.638913.
!
!   This run takes 3 seconds on a 2.66 GHz Cloverton (13 Feb 2012)
!
 $contrl scftyp=mcscf runtyp=hessian ispher=1 $end
 $system mwords=1 memddi=5 $end
 $basis  gbasis=n31 ngauss=6 ndfunc=1 $end
 $guess  guess=moread norb=36 $end
 $mcscf  cistep=aldet fullnr=.t. $end
!           the term symbol means S0 is invisible in this calculation
 $det    group=d2 stsym=B1
         ncore=6 nact=4 nels=4 pures=.t. nstate=4 wstate(1)=1,0 $end
 $statpt opttol=1d-5 $end
 $data
C2H4 in the V state
Dn 2

C           6.0   0.0000000000   0.0000000000   0.6917328242
H           1.0   0.6382238628   0.6382238628   1.2997776241
 $end

------ geometry of ground N state at rotational maximum
C           6.0   0.0000000000   0.0000000000   0.7486926908
H           1.0   0.6500976762   0.6500976762   1.3062796706

------ geometry of pi->pi* state (V state)
C           6.0   0.0000000000   0.0000000000   0.6917328242
H           1.0   0.6382238628   0.6382238628   1.2997776241

------ geometry of pi->pi* doubly excited state (Z state)

--- OPTIMIZED MCSCF MO-S --- GENERATED AT Tue Apr  6 17:02:35 2004
C2H4 at rotational saddle point...sigma,pi,pi*,sigma* active                    
E(MCSCF)=      -77.9753563834, E(NUC)=       31.4762283844
 $VEC   
 1  1 7.04434406E-01 1.72988902E-02 0.00000000E+00 0.00000000E+00 3.00830120E-04
 1  2-1.10179264E-02 0.00000000E+00 0.00000000E+00-1.60418643E-03-2.55693147E-04
 1  3-2.55693147E-04 5.11386295E-04-1.61095699E-04 0.00000000E+00 0.00000000E+00
 1  4-7.04434406E-01-1.72988902E-02 0.00000000E+00 0.00000000E+00 3.00830120E-04
 1  5 1.10179264E-02 0.00000000E+00 0.00000000E+00-1.60418643E-03 2.55693147E-04
 1  6 2.55693147E-04-5.11386295E-04-1.61095699E-04 0.00000000E+00 0.00000000E+00
 1  7 9.97072164E-05-1.60027604E-03-9.97072164E-05 1.60027604E-03-9.97072164E-05
 1  8 1.60027604E-03 9.97072164E-05-1.60027604E-03
 2  1 7.05494910E-01 1.44506573E-02 0.00000000E+00 0.00000000E+00-3.84518217E-03
 2  2-9.37929961E-03 0.00000000E+00 0.00000000E+00-5.36768089E-04 2.33330078E-04
 2  3 2.33330078E-04-4.66660157E-04-2.89300561E-04 0.00000000E+00 0.00000000E+00
 2  4 7.05494910E-01 1.44506573E-02 0.00000000E+00 0.00000000E+00 3.84518217E-03
 2  5-9.37929961E-03 0.00000000E+00 0.00000000E+00 5.36768089E-04 2.33330078E-04
 2  6 2.33330078E-04-4.66660157E-04 2.89300561E-04 0.00000000E+00 0.00000000E+00
 2  7-1.22510292E-04 2.89106614E-03-1.22510292E-04 2.89106614E-03-1.22510292E-04
 2  8 2.89106614E-03-1.22510292E-04 2.89106614E-03
 3  1-1.24388688E-01 2.43070582E-01 0.00000000E+00 0.00000000E+00-1.51855960E-01
 3  2 2.58235026E-01 0.00000000E+00 0.00000000E+00-5.18912610E-02 3.28035064E-03
 3  3 3.28035064E-03-6.56070128E-03-1.91707470E-02 0.00000000E+00 0.00000000E+00
 3  4 1.24388688E-01-2.43070582E-01 0.00000000E+00 0.00000000E+00-1.51855960E-01
 3  5-2.58235026E-01 0.00000000E+00 0.00000000E+00-5.18912610E-02-3.28035064E-03
 3  6-3.28035064E-03 6.56070128E-03-1.91707470E-02 0.00000000E+00 0.00000000E+00
 3  7-1.43487692E-01-6.55489339E-02 1.43487692E-01 6.55489339E-02 1.43487692E-01
 3  8 6.55489339E-02-1.43487692E-01-6.55489339E-02
 4  1 1.05510662E-01-2.02802433E-01 0.00000000E+00 0.00000000E+00 2.07912574E-01
 4  2-1.76636735E-01 0.00000000E+00 0.00000000E+00 1.08864722E-01-1.06984069E-03
 4  3-1.06984069E-03 2.13968137E-03 1.82825645E-02 0.00000000E+00 0.00000000E+00
 4  4 1.05510662E-01-2.02802433E-01 0.00000000E+00 0.00000000E+00-2.07912574E-01
 4  5-1.76636735E-01 0.00000000E+00 0.00000000E+00-1.08864722E-01-1.06984069E-03
 4  6-1.06984069E-03 2.13968137E-03-1.82825645E-02 0.00000000E+00 0.00000000E+00
 4  7-1.48649128E-01-8.06749876E-02-1.48649128E-01-8.06749876E-02-1.48649128E-01
 4  8-8.06749876E-02-1.48649128E-01-8.06749876E-02
 5  1 0.00000000E+00 0.00000000E+00-1.93351269E-01 2.46095938E-01 0.00000000E+00
 5  2 0.00000000E+00-1.06956958E-01 1.06906910E-01 0.00000000E+00 0.00000000E+00
 5  3 0.00000000E+00 0.00000000E+00 0.00000000E+00 2.06718581E-02-1.15696738E-02
 5  4 0.00000000E+00 0.00000000E+00 1.93351269E-01 2.46095938E-01 0.00000000E+00
 5  5 0.00000000E+00 1.06956958E-01 1.06906910E-01 0.00000000E+00 0.00000000E+00
 5  6 0.00000000E+00 0.00000000E+00 0.00000000E+00 2.06718581E-02 1.15696738E-02
 5  7-1.70375680E-01-1.30323539E-01-1.70375680E-01-1.30323539E-01 1.70375680E-01
 5  8 1.30323539E-01 1.70375680E-01 1.30323539E-01
 6  1 0.00000000E+00 0.00000000E+00 2.46095938E-01-1.93351269E-01 0.00000000E+00
 6  2 0.00000000E+00 1.06906910E-01-1.06956958E-01 0.00000000E+00 0.00000000E+00
 6  3 0.00000000E+00 0.00000000E+00 0.00000000E+00-1.15696738E-02 2.06718581E-02
 6  4 0.00000000E+00 0.00000000E+00 2.46095938E-01 1.93351269E-01 0.00000000E+00
 6  5 0.00000000E+00 1.06906910E-01 1.06956958E-01 0.00000000E+00 0.00000000E+00
 6  6 0.00000000E+00 0.00000000E+00 0.00000000E+00 1.15696738E-02 2.06718581E-02
 6  7-1.70375680E-01-1.30323539E-01 1.70375680E-01 1.30323539E-01-1.70375680E-01
 6  8-1.30323539E-01 1.70375680E-01 1.30323539E-01
 7  1-1.01129347E-01 2.21552832E-01 0.00000000E+00 0.00000000E+00 3.48565002E-01
 7  2 1.77223570E-01 0.00000000E+00 0.00000000E+00 1.34080915E-01-1.10980768E-02
 7  3-1.10980768E-02 2.21961536E-02 3.07319842E-03 0.00000000E+00 0.00000000E+00
 7  4-1.01129347E-01 2.21552832E-01 0.00000000E+00 0.00000000E+00-3.48565002E-01
 7  5 1.77223570E-01 0.00000000E+00 0.00000000E+00-1.34080915E-01-1.10980768E-02
 7  6-1.10980768E-02 2.21961536E-02-3.07319842E-03 0.00000000E+00 0.00000000E+00
 7  7-2.95056738E-02-5.96833931E-02-2.95056738E-02-5.96833931E-02-2.95056738E-02
 7  8-5.96833931E-02-2.95056738E-02-5.96833931E-02
 8  1 0.00000000E+00 0.00000000E+00 2.82565155E-01 3.20591640E-01 0.00000000E+00
 8  2 0.00000000E+00 2.44392041E-01 2.96324346E-01 0.00000000E+00 0.00000000E+00
 8  3 0.00000000E+00 0.00000000E+00 0.00000000E+00 1.49042340E-02-1.30303147E-02
 8  4 0.00000000E+00 0.00000000E+00 2.82565155E-01-3.20591640E-01 0.00000000E+00
 8  5 0.00000000E+00 2.44392041E-01-2.96324346E-01 0.00000000E+00 0.00000000E+00
 8  6 0.00000000E+00 0.00000000E+00 0.00000000E+00-1.49042340E-02-1.30303147E-02
 8  7 4.92983300E-02 7.12443368E-02-4.92983300E-02-7.12443368E-02 4.92983300E-02
 8  8 7.12443368E-02-4.92983300E-02-7.12443368E-02
 9  1 0.00000000E+00 0.00000000E+00 3.20591640E-01 2.82565155E-01 0.00000000E+00
 9  2 0.00000000E+00 2.96324346E-01 2.44392041E-01 0.00000000E+00 0.00000000E+00
 9  3 0.00000000E+00 0.00000000E+00 0.00000000E+00-1.30303147E-02 1.49042340E-02
 9  4 0.00000000E+00 0.00000000E+00-3.20591640E-01 2.82565155E-01 0.00000000E+00
 9  5 0.00000000E+00-2.96324346E-01 2.44392041E-01 0.00000000E+00 0.00000000E+00
 9  6 0.00000000E+00 0.00000000E+00 0.00000000E+00-1.30303147E-02-1.49042340E-02
 9  7 4.92983300E-02 7.12443368E-02 4.92983300E-02 7.12443368E-02-4.92983300E-02
 9  8-7.12443368E-02-4.92983300E-02-7.12443368E-02
10  1-1.21388448E-01 5.06253119E-01 0.00000000E+00 0.00000000E+00 6.73131940E-01
10  2 5.55311999E-01 0.00000000E+00 0.00000000E+00 2.49012546E-01-2.09924950E-02
10  3-2.09924950E-02 4.19849900E-02 8.51070445E-02 0.00000000E+00 0.00000000E+00
10  4 1.21388448E-01-5.06253119E-01 0.00000000E+00 0.00000000E+00 6.73131940E-01
10  5-5.55311999E-01 0.00000000E+00 0.00000000E+00 2.49012546E-01 2.09924950E-02
10  6 2.09924950E-02-4.19849900E-02 8.51070445E-02 0.00000000E+00 0.00000000E+00
10  7 5.95532009E-02 1.04478036E-01-5.95532009E-02-1.04478036E-01-5.95532009E-02
10  8-1.04478036E-01 5.95532009E-02 1.04478036E-01
11  1-8.20590478E-02 1.07571547E-01 0.00000000E+00 0.00000000E+00-1.43977930E-01
11  2 1.51279179E+00 0.00000000E+00 0.00000000E+00-6.21722440E-01-4.41861713E-03
11  3-4.41861713E-03 8.83723426E-03-5.61329990E-03 0.00000000E+00 0.00000000E+00
11  4-8.20590478E-02 1.07571547E-01 0.00000000E+00 0.00000000E+00 1.43977930E-01
11  5 1.51279179E+00 0.00000000E+00 0.00000000E+00 6.21722440E-01-4.41861713E-03
11  6-4.41861713E-03 8.83723426E-03 5.61329990E-03 0.00000000E+00 0.00000000E+00
11  7-7.25215127E-04-1.08977181E+00-7.25215127E-04-1.08977181E+00-7.25215127E-04
11  8-1.08977181E+00-7.25215127E-04-1.08977181E+00
12  1-5.76749996E-02 1.00987339E-02 0.00000000E+00 0.00000000E+00-2.13105671E-01
12  2 8.81264847E-01 0.00000000E+00 0.00000000E+00-1.05946081E+00-4.94105989E-03
12  3-4.94105989E-03 9.88211978E-03 4.10749353E-03 0.00000000E+00 0.00000000E+00
12  4 5.76749996E-02-1.00987339E-02 0.00000000E+00 0.00000000E+00-2.13105671E-01
12  5-8.81264847E-01 0.00000000E+00 0.00000000E+00-1.05946081E+00 4.94105989E-03
12  6 4.94105989E-03-9.88211978E-03 4.10749353E-03 0.00000000E+00 0.00000000E+00
12  7 2.53523099E-02 1.12275175E+00-2.53523099E-02-1.12275175E+00-2.53523099E-02
12  8-1.12275175E+00 2.53523099E-02 1.12275175E+00
13  1 0.00000000E+00 0.00000000E+00 1.80212269E-01-1.84540372E-01 0.00000000E+00
13  2 0.00000000E+00 6.31393258E-01-1.07908025E+00 0.00000000E+00 0.00000000E+00
13  3 0.00000000E+00 0.00000000E+00 0.00000000E+00 9.23956516E-03 8.59483478E-03
13  4 0.00000000E+00 0.00000000E+00 1.80212269E-01 1.84540372E-01 0.00000000E+00
13  5 0.00000000E+00 6.31393258E-01 1.07908025E+00 0.00000000E+00 0.00000000E+00
13  6 0.00000000E+00 0.00000000E+00 0.00000000E+00-9.23956516E-03 8.59483478E-03
13  7-6.99526330E-03 1.29946293E+00 6.99526330E-03-1.29946293E+00-6.99526330E-03
13  8 1.29946293E+00 6.99526330E-03-1.29946293E+00
14  1 0.00000000E+00 0.00000000E+00-1.84540372E-01 1.80212269E-01 0.00000000E+00
14  2 0.00000000E+00-1.07908025E+00 6.31393258E-01 0.00000000E+00 0.00000000E+00
14  3 0.00000000E+00 0.00000000E+00 0.00000000E+00 8.59483478E-03 9.23956516E-03
14  4 0.00000000E+00 0.00000000E+00 1.84540372E-01 1.80212269E-01 0.00000000E+00
14  5 0.00000000E+00 1.07908025E+00 6.31393258E-01 0.00000000E+00 0.00000000E+00
14  6 0.00000000E+00 0.00000000E+00 0.00000000E+00 8.59483478E-03-9.23956516E-03
14  7-6.99526330E-03 1.29946293E+00-6.99526330E-03 1.29946293E+00 6.99526330E-03
14  8-1.29946293E+00 6.99526330E-03-1.29946293E+00
15  1-3.70040569E-02-7.25872675E-02 0.00000000E+00 0.00000000E+00-4.04353994E-01
15  2 1.96492904E+00 0.00000000E+00 0.00000000E+00 2.30609242E+00-2.35187639E-02
15  3-2.35187639E-02 4.70375279E-02-6.34595880E-02 0.00000000E+00 0.00000000E+00
15  4 3.70040569E-02 7.25872675E-02 0.00000000E+00 0.00000000E+00-4.04353994E-01
15  5-1.96492904E+00 0.00000000E+00 0.00000000E+00 2.30609242E+00 2.35187639E-02
15  6 2.35187639E-02-4.70375279E-02-6.34595880E-02 0.00000000E+00 0.00000000E+00
15  7-2.11679391E-01-1.40589384E-01 2.11679391E-01 1.40589384E-01 2.11679391E-01
15  8 1.40589384E-01-2.11679391E-01-1.40589384E-01
16  1-8.16504079E-03-1.81475277E-01 0.00000000E+00 0.00000000E+00-5.99263292E-01
16  2-3.35830090E-01 0.00000000E+00 0.00000000E+00 9.99895033E-01 4.90876579E-02
16  3 4.90876579E-02-9.81753157E-02-2.36610679E-02 0.00000000E+00 0.00000000E+00
16  4-8.16504079E-03-1.81475277E-01 0.00000000E+00 0.00000000E+00 5.99263292E-01
16  5-3.35830090E-01 0.00000000E+00 0.00000000E+00-9.99895033E-01 4.90876579E-02
16  6 4.90876579E-02-9.81753157E-02 2.36610679E-02 0.00000000E+00 0.00000000E+00
16  7 1.29222277E-01 1.10793232E-01 1.29222277E-01 1.10793232E-01 1.29222277E-01
16  8 1.10793232E-01 1.29222277E-01 1.10793232E-01
17  1 0.00000000E+00 0.00000000E+00-4.07969147E-01-5.98109738E-01 0.00000000E+00
17  2 0.00000000E+00 1.97054711E-01 7.23824664E-01 0.00000000E+00 0.00000000E+00
17  3 0.00000000E+00 0.00000000E+00 0.00000000E+00-2.40026622E-03 6.66973669E-03
17  4 0.00000000E+00 0.00000000E+00 4.07969147E-01-5.98109738E-01 0.00000000E+00
17  5 0.00000000E+00-1.97054711E-01 7.23824664E-01 0.00000000E+00 0.00000000E+00
17  6 0.00000000E+00 0.00000000E+00 0.00000000E+00-2.40026622E-03-6.66973669E-03
17  7 1.34196244E-01 1.80525029E-01 1.34196244E-01 1.80525029E-01-1.34196244E-01
17  8-1.80525029E-01-1.34196244E-01-1.80525029E-01
18  1 0.00000000E+00 0.00000000E+00-5.98109738E-01-4.07969147E-01 0.00000000E+00
18  2 0.00000000E+00 7.23824664E-01 1.97054711E-01 0.00000000E+00 0.00000000E+00
18  3 0.00000000E+00 0.00000000E+00 0.00000000E+00 6.66973669E-03-2.40026622E-03
18  4 0.00000000E+00 0.00000000E+00-5.98109738E-01 4.07969147E-01 0.00000000E+00
18  5 0.00000000E+00 7.23824664E-01-1.97054711E-01 0.00000000E+00 0.00000000E+00
18  6 0.00000000E+00 0.00000000E+00 0.00000000E+00-6.66973669E-03-2.40026622E-03
18  7 1.34196244E-01 1.80525029E-01-1.34196244E-01-1.80525029E-01 1.34196244E-01
18  8 1.80525029E-01-1.34196244E-01-1.80525029E-01
19  1-3.17533811E-02-8.12202914E-01 0.00000000E+00 0.00000000E+00-1.33618770E-01
19  2 1.45308947E+00 0.00000000E+00 0.00000000E+00-3.19685147E-01 2.12368645E-02
19  3 2.12368645E-02-4.24737290E-02 9.91555603E-02 0.00000000E+00 0.00000000E+00
19  4-3.17533811E-02-8.12202914E-01 0.00000000E+00 0.00000000E+00 1.33618770E-01
19  5 1.45308947E+00 0.00000000E+00 0.00000000E+00 3.19685147E-01 2.12368645E-02
19  6 2.12368645E-02-4.24737290E-02-9.91555603E-02 0.00000000E+00 0.00000000E+00
19  7-4.42448613E-01-2.40206950E-01-4.42448613E-01-2.40206950E-01-4.42448613E-01
19  8-2.40206950E-01-4.42448613E-01-2.40206950E-01
20  1 0.00000000E+00 0.00000000E+00 1.60513229E-01-5.03093560E-01 0.00000000E+00
20  2 0.00000000E+00-5.72626395E-01 1.60073728E+00 0.00000000E+00 0.00000000E+00
20  3 0.00000000E+00 0.00000000E+00 0.00000000E+00-1.19408562E-01 2.36034852E-02
20  4 0.00000000E+00 0.00000000E+00 1.60513229E-01 5.03093560E-01 0.00000000E+00
20  5 0.00000000E+00-5.72626395E-01-1.60073728E+00 0.00000000E+00 0.00000000E+00
20  6 0.00000000E+00 0.00000000E+00 0.00000000E+00 1.19408562E-01 2.36034852E-02
20  7-3.20044755E-01-4.29245174E-01 3.20044755E-01 4.29245174E-01-3.20044755E-01
20  8-4.29245174E-01 3.20044755E-01 4.29245174E-01
21  1 0.00000000E+00 0.00000000E+00-5.03093560E-01 1.60513229E-01 0.00000000E+00
21  2 0.00000000E+00 1.60073728E+00-5.72626395E-01 0.00000000E+00 0.00000000E+00
21  3 0.00000000E+00 0.00000000E+00 0.00000000E+00 2.36034852E-02-1.19408562E-01
21  4 0.00000000E+00 0.00000000E+00 5.03093560E-01 1.60513229E-01 0.00000000E+00
21  5 0.00000000E+00-1.60073728E+00-5.72626395E-01 0.00000000E+00 0.00000000E+00
21  6 0.00000000E+00 0.00000000E+00 0.00000000E+00 2.36034852E-02 1.19408562E-01
21  7-3.20044755E-01-4.29245174E-01-3.20044755E-01-4.29245174E-01 3.20044755E-01
21  8 4.29245174E-01 3.20044755E-01 4.29245174E-01
22  1-6.82608020E-02-9.44477616E-01 0.00000000E+00 0.00000000E+00-2.65342311E-01
22  2 3.37531713E+00 0.00000000E+00 0.00000000E+00 1.70166612E+00-1.85336294E-02
22  3-1.85336294E-02 3.70672588E-02 1.55305228E-01 0.00000000E+00 0.00000000E+00
22  4 6.82608020E-02 9.44477616E-01 0.00000000E+00 0.00000000E+00-2.65342311E-01
22  5-3.37531713E+00 0.00000000E+00 0.00000000E+00 1.70166612E+00 1.85336294E-02
22  6 1.85336294E-02-3.70672588E-02 1.55305228E-01 0.00000000E+00 0.00000000E+00
22  7 4.55817618E-01-1.96992742E-01-4.55817618E-01 1.96992742E-01-4.55817618E-01
22  8 1.96992742E-01 4.55817618E-01-1.96992742E-01
23  1 0.00000000E+00 0.00000000E+00 5.05780334E-01-4.84055584E-01 0.00000000E+00
23  2 0.00000000E+00-8.82528610E-01 7.01080599E-01 0.00000000E+00 0.00000000E+00
23  3 0.00000000E+00 0.00000000E+00 0.00000000E+00 4.88170150E-02-1.72134275E-01
23  4 0.00000000E+00 0.00000000E+00-5.05780334E-01-4.84055584E-01 0.00000000E+00
23  5 0.00000000E+00 8.82528610E-01 7.01080599E-01 0.00000000E+00 0.00000000E+00
23  6 0.00000000E+00 0.00000000E+00 0.00000000E+00 4.88170150E-02 1.72134275E-01
23  7-4.52104046E-01 1.01549309E+00-4.52104046E-01 1.01549309E+00 4.52104046E-01
23  8-1.01549309E+00 4.52104046E-01-1.01549309E+00
24  1 0.00000000E+00 0.00000000E+00-4.84055584E-01 5.05780334E-01 0.00000000E+00
24  2 0.00000000E+00 7.01080599E-01-8.82528610E-01 0.00000000E+00 0.00000000E+00
24  3 0.00000000E+00 0.00000000E+00 0.00000000E+00-1.72134275E-01 4.88170150E-02
24  4 0.00000000E+00 0.00000000E+00-4.84055584E-01-5.05780334E-01 0.00000000E+00
24  5 0.00000000E+00 7.01080599E-01 8.82528610E-01 0.00000000E+00 0.00000000E+00
24  6 0.00000000E+00 0.00000000E+00 0.00000000E+00 1.72134275E-01 4.88170150E-02
24  7-4.52104046E-01 1.01549309E+00 4.52104046E-01-1.01549309E+00-4.52104046E-01
24  8 1.01549309E+00 4.52104046E-01-1.01549309E+00
25  1 1.00882368E-02-1.23292659E+00 0.00000000E+00 0.00000000E+00 4.30408119E-01
25  2 2.86987595E+00 0.00000000E+00 0.00000000E+00 1.57531498E-03 1.40516377E-02
25  3 1.40516377E-02-2.81032754E-02-5.67251278E-02 0.00000000E+00 0.00000000E+00
25  4-1.00882368E-02 1.23292659E+00 0.00000000E+00 0.00000000E+00 4.30408119E-01
25  5-2.86987595E+00 0.00000000E+00 0.00000000E+00 1.57531498E-03-1.40516377E-02
25  6-1.40516377E-02 2.81032754E-02-5.67251278E-02 0.00000000E+00 0.00000000E+00
25  7-3.30179591E-01 8.75253621E-01 3.30179591E-01-8.75253621E-01 3.30179591E-01
25  8-8.75253621E-01-3.30179591E-01 8.75253621E-01
26  1 2.79454630E-02-1.15108435E+00 0.00000000E+00 0.00000000E+00 3.47401212E-01
26  2 2.04454853E+00 0.00000000E+00 0.00000000E+00-5.94837931E-01 3.63476211E-02
26  3 3.63476211E-02-7.26952423E-02-9.36680230E-02 0.00000000E+00 0.00000000E+00
26  4 2.79454630E-02-1.15108435E+00 0.00000000E+00 0.00000000E+00-3.47401212E-01
26  5 2.04454853E+00 0.00000000E+00 0.00000000E+00 5.94837931E-01 3.63476211E-02
26  6 3.63476211E-02-7.26952423E-02 9.36680230E-02 0.00000000E+00 0.00000000E+00
26  7 3.92469856E-01-9.86257401E-01 3.92469856E-01-9.86257401E-01 3.92469856E-01
26  8-9.86257401E-01 3.92469856E-01-9.86257401E-01
27  1 0.00000000E+00 0.00000000E+00 0.00000000E+00 0.00000000E+00 0.00000000E+00
27  2 0.00000000E+00 0.00000000E+00 0.00000000E+00 0.00000000E+00 6.00293095E-01
27  3-6.00293095E-01 0.00000000E+00 0.00000000E+00 0.00000000E+00 0.00000000E+00
27  4 0.00000000E+00 0.00000000E+00 0.00000000E+00 0.00000000E+00 0.00000000E+00
27  5 0.00000000E+00 0.00000000E+00 0.00000000E+00 0.00000000E+00 6.00293095E-01
27  6-6.00293095E-01 0.00000000E+00 0.00000000E+00 0.00000000E+00 0.00000000E+00
27  7 0.00000000E+00 0.00000000E+00 0.00000000E+00 0.00000000E+00 0.00000000E+00
27  8 0.00000000E+00 0.00000000E+00 0.00000000E+00
28  1 0.00000000E+00 0.00000000E+00 0.00000000E+00 0.00000000E+00 0.00000000E+00
28  2 0.00000000E+00 0.00000000E+00 0.00000000E+00 0.00000000E+00 6.25211606E-01
28  3-6.25211606E-01 0.00000000E+00 0.00000000E+00 0.00000000E+00 0.00000000E+00
28  4 0.00000000E+00 0.00000000E+00 0.00000000E+00 0.00000000E+00 0.00000000E+00
28  5 0.00000000E+00 0.00000000E+00 0.00000000E+00 0.00000000E+00-6.25211606E-01
28  6 6.25211606E-01 0.00000000E+00 0.00000000E+00 0.00000000E+00 0.00000000E+00
28  7 0.00000000E+00 0.00000000E+00 0.00000000E+00 0.00000000E+00 0.00000000E+00
28  8 0.00000000E+00 0.00000000E+00 0.00000000E+00
29  1 0.00000000E+00 0.00000000E+00-1.11829924E-01 2.35641851E-03 0.00000000E+00
29  2 0.00000000E+00-3.08553201E-01 7.11261865E-01 0.00000000E+00 0.00000000E+00
29  3 0.00000000E+00 0.00000000E+00 0.00000000E+00 6.33704185E-01 2.55374875E-01
29  4 0.00000000E+00 0.00000000E+00-1.11829924E-01-2.35641851E-03 0.00000000E+00
29  5 0.00000000E+00-3.08553201E-01-7.11261865E-01 0.00000000E+00 0.00000000E+00
29  6 0.00000000E+00 0.00000000E+00 0.00000000E+00-6.33704185E-01 2.55374875E-01
29  7-3.58601989E-01-2.03424978E-01 3.58601989E-01 2.03424978E-01-3.58601989E-01
29  8-2.03424978E-01 3.58601989E-01 2.03424978E-01
30  1 0.00000000E+00 0.00000000E+00 2.35641851E-03-1.11829924E-01 0.00000000E+00
30  2 0.00000000E+00 7.11261865E-01-3.08553201E-01 0.00000000E+00 0.00000000E+00
30  3 0.00000000E+00 0.00000000E+00 0.00000000E+00 2.55374875E-01 6.33704185E-01
30  4 0.00000000E+00 0.00000000E+00-2.35641851E-03-1.11829924E-01 0.00000000E+00
30  5 0.00000000E+00-7.11261865E-01-3.08553201E-01 0.00000000E+00 0.00000000E+00
30  6 0.00000000E+00 0.00000000E+00 0.00000000E+00 2.55374875E-01-6.33704185E-01
30  7-3.58601989E-01-2.03424978E-01-3.58601989E-01-2.03424978E-01 3.58601989E-01
30  8 2.03424978E-01 3.58601989E-01 2.03424978E-01
31  1 7.10535380E-03-4.61901126E-01 0.00000000E+00 0.00000000E+00-3.11009721E-01
31  2 2.95244415E-01 0.00000000E+00 0.00000000E+00 2.89510230E-01-3.23672415E-01
31  3-3.23672415E-01 6.47344830E-01-1.33059112E-01 0.00000000E+00 0.00000000E+00
31  4 7.10535380E-03-4.61901126E-01 0.00000000E+00 0.00000000E+00 3.11009721E-01
31  5 2.95244415E-01 0.00000000E+00 0.00000000E+00-2.89510230E-01-3.23672415E-01
31  6-3.23672415E-01 6.47344830E-01 1.33059112E-01 0.00000000E+00 0.00000000E+00
31  7 1.22058932E-02-5.05745349E-02 1.22058932E-02-5.05745349E-02 1.22058932E-02
31  8-5.05745349E-02 1.22058932E-02-5.05745349E-02
32  1-4.93549071E-02-2.32231202E-01 0.00000000E+00 0.00000000E+00-1.78875960E-02
32  2 1.07008781E+00 0.00000000E+00 0.00000000E+00 8.72612769E-03 2.61094087E-02
32  3 2.61094087E-02-5.22188174E-02-7.38727381E-01 0.00000000E+00 0.00000000E+00
32  4 4.93549071E-02 2.32231202E-01 0.00000000E+00 0.00000000E+00-1.78875960E-02
32  5-1.07008781E+00 0.00000000E+00 0.00000000E+00 8.72612769E-03-2.61094087E-02
32  6-2.61094087E-02 5.22188174E-02-7.38727381E-01 0.00000000E+00 0.00000000E+00
32  7 4.43897519E-01 9.43388510E-02-4.43897519E-01-9.43388510E-02-4.43897519E-01
32  8-9.43388510E-02 4.43897519E-01 9.43388510E-02
33  1 2.70853182E-02-4.30677078E-02 0.00000000E+00 0.00000000E+00-6.65229207E-03
33  2-3.57566767E-01 0.00000000E+00 0.00000000E+00 2.88380600E-01-6.55883504E-02
33  3-6.55883504E-02 1.31176701E-01 7.72627282E-01 0.00000000E+00 0.00000000E+00
33  4 2.70853182E-02-4.30677078E-02 0.00000000E+00 0.00000000E+00 6.65229207E-03
33  5-3.57566767E-01 0.00000000E+00 0.00000000E+00-2.88380600E-01-6.55883504E-02
33  6-6.55883504E-02 1.31176701E-01-7.72627282E-01 0.00000000E+00 0.00000000E+00
33  7 4.14689103E-01 1.42205076E-02 4.14689103E-01 1.42205076E-02 4.14689103E-01
33  8 1.42205076E-02 4.14689103E-01 1.42205076E-02
34  1 0.00000000E+00 0.00000000E+00 1.09789319E-01-2.82585402E-02 0.00000000E+00
34  2 0.00000000E+00 8.98085877E-02-5.96825224E-02 0.00000000E+00 0.00000000E+00
34  3 0.00000000E+00 0.00000000E+00 0.00000000E+00-2.60519136E-01 8.18535577E-01
34  4 0.00000000E+00 0.00000000E+00 1.09789319E-01 2.82585402E-02 0.00000000E+00
34  5 0.00000000E+00 8.98085877E-02 5.96825224E-02 0.00000000E+00 0.00000000E+00
34  6 0.00000000E+00 0.00000000E+00 0.00000000E+00 2.60519136E-01 8.18535577E-01
34  7 3.94557917E-01-1.09782892E-01-3.94557917E-01 1.09782892E-01 3.94557917E-01
34  8-1.09782892E-01-3.94557917E-01 1.09782892E-01
35  1 0.00000000E+00 0.00000000E+00-2.82585402E-02 1.09789319E-01 0.00000000E+00
35  2 0.00000000E+00-5.96825224E-02 8.98085877E-02 0.00000000E+00 0.00000000E+00
35  3 0.00000000E+00 0.00000000E+00 0.00000000E+00 8.18535577E-01-2.60519136E-01
35  4 0.00000000E+00 0.00000000E+00 2.82585402E-02 1.09789319E-01 0.00000000E+00
35  5 0.00000000E+00 5.96825224E-02 8.98085877E-02 0.00000000E+00 0.00000000E+00
35  6 0.00000000E+00 0.00000000E+00 0.00000000E+00 8.18535577E-01 2.60519136E-01
35  7 3.94557917E-01-1.09782892E-01 3.94557917E-01-1.09782892E-01-3.94557917E-01
35  8 1.09782892E-01-3.94557917E-01 1.09782892E-01
36  1-6.18181999E-02-1.61616322E-01 0.00000000E+00 0.00000000E+00 3.48852108E-01
36  2 1.83947564E+00 0.00000000E+00 0.00000000E+00 1.12480504E+00-5.07306254E-01
36  3-5.07306254E-01 1.01461251E+00-3.61085648E-02 0.00000000E+00 0.00000000E+00
36  4 6.18181999E-02 1.61616322E-01 0.00000000E+00 0.00000000E+00 3.48852108E-01
36  5-1.83947564E+00 0.00000000E+00 0.00000000E+00 1.12480504E+00 5.07306254E-01
36  6 5.07306254E-01-1.01461251E+00-3.61085648E-02 0.00000000E+00 0.00000000E+00
36  7-4.35490836E-03-3.27814957E-02 4.35490836E-03 3.27814957E-02 4.35490836E-03
36  8 3.27814957E-02-4.35490836E-03-3.27814957E-02
 $END   

! TRAVIS-CI SMALL

! TRAVIS-CI SKIP
