!   H2CO...S1 or T1 analytic hessian (1-A'' or 3-A'')
!   6e- in n,sigma,pi,pi*,sigma* active space...only 42 AOs
!   S1 and T1 have a different symmetry than the ground state:
!      S0 is really C2v, but
!         in Cs, n**2,sigma**2,pi**2,          symmetry A'
!      T1 is Cs, n**1,sigma**2,pi**2,(pi*)**1, symmetry A''
!      S1 is Cs, n**1,sigma**2,pi**2,(pi*)**1, symmetry A''
!      S2 is Cs, n**2,sigma**2,pi**1,(pi*)**1, symmetry A'
!
!   FINAL state energies: S1= -113.8108004459,
!   S1 FREQ:  871.44, 1076.92, 1112.86, 1541.16, 3304.52, 3434.17
!   The CP-MCHF response equations required 30 iterations.
!
!   Running T1 state, at its geometry, we would expect to get
!                         T1= -113.8203959923
!             890.16, 1049.16, 1168.00, 1537.36, 3291.04, 3416.56
!
!   This run takes 5 seconds on a 2.66 GHz Cloverton (17 Apr 2015)
!   the results for S1 have not changed appreciably since 2006
!
 $contrl scftyp=mcscf mult=1 runtyp=hessian nzvar=6 $end
 $system mwords=1 memddi=5 $end
 $basis  gbasis=n31 ngauss=6 ndfunc=1 npfunc=0 diffsp=.t. $end
 $guess  guess=moread norb=42 norder=0 $end
 $zmat   izmat(1)=1,1,2,  1,2,3,  1,2,4, 
                  2,1,2,3,  2,1,2,4,  4,1,2,4,3 $end
 $mcscf  cistep=aldet fullnr=.t. $end
!   Do the 1A'' S1 state as an upper root, by including A' determinants too
--- $det group=cs stsym=App ncore=5 nact=5 nels=6 nstate=8 wstate(1)=1 $end
 $det    group=c1           ncore=5 nact=5 nels=6 nstate=8 wstate(1)=0,1 $end
!
!   uncomment next two lines to run numerical differentiation
--- $force  method=seminum nvib=2 $end
--- $det    group=c1 stsym=A wstate(1)=0,1 $end

 $data
Formaldehyde...1-A'' n->pi* state...S1
Cs

O           8.0  -0.0041981480  -0.9374713077   0.0000000000
C           6.0   0.0597130182   0.4470603758   0.0000000000
H           1.0  -0.2528792120   0.8846306149   0.9309756913
 $end

!   to run T1 state, comment out S1's $data, and uncomment next 3 groups
--- $contrl mult=3 $end
--- $det    sz=0.0 $end
--- $data
Formaldehyde...3-A'' n->pi* state...T1
Cs

O           8.0  -0.0046494177  -0.9272030474   0.0000000000
C           6.0   0.0623564187   0.4359230200   0.0000000000
H           1.0  -0.2650354829   0.8694535606   0.9290623952
 $end


Formaldehyde...S1 state orbitals...  E(MCSCF)= -113.8108004459
 $VEC   
 1  1 9.94782167E-01 2.03436937E-02 8.07140204E-04-1.34465369E-05 0.00000000E+00
 1  2 5.01001305E-03 4.92765754E-04-1.49675753E-03 0.00000000E+00-1.57799966E-03
 1  3 7.28433105E-05 6.85121645E-05 0.00000000E+00-3.98689679E-03-4.36257174E-03
 1  4-4.39124166E-03 9.37121111E-06 0.00000000E+00 0.00000000E+00 8.30889540E-05
 1  5 3.29852065E-05 1.02140326E-04 4.09509049E-04 0.00000000E+00 4.12673426E-04
 1  6-1.00243813E-05 6.75282629E-05 0.00000000E+00 5.52192838E-04-2.17220587E-05
 1  7-3.03203512E-04 0.00000000E+00-8.76646705E-05-1.45150678E-04-3.74594783E-05
 1  8-4.89968674E-05 0.00000000E+00 0.00000000E+00 6.16223524E-05 7.87205742E-05
 1  9 6.16223524E-05 7.87205742E-05
 2  1 1.70041404E-04 1.52649914E-04 2.83028909E-03-1.54457574E-03 0.00000000E+00
 2  2-1.23213301E-03 1.86213082E-03-1.51787531E-03 0.00000000E+00 5.43086121E-03
 2  3 2.50492566E-04 2.49108579E-03 0.00000000E+00 4.55542551E-04-5.38194569E-04
 2  4 3.84405229E-04 4.17476367E-05 0.00000000E+00 0.00000000E+00 9.95938039E-01
 2  5 2.74069888E-02-1.70242459E-04-1.30424831E-04 0.00000000E+00-1.21037162E-02
 2  6 6.15286547E-04 1.58784868E-03 0.00000000E+00-1.48741557E-03 1.52785336E-04
 2  7 6.20500674E-04 0.00000000E+00-2.14924495E-03-1.71552129E-03-1.65435241E-03
 2  8-2.00642783E-04 0.00000000E+00 0.00000000E+00 1.77634499E-04 1.73606989E-03
 2  9 1.77634499E-04 1.73606989E-03
 3  1-2.18371299E-01 5.06703512E-01 1.41138162E-02-1.79409824E-01 0.00000000E+00
 3  2 5.31104394E-01 1.10018995E-02-1.04675053E-01 0.00000000E+00-1.08887630E-02
 3  3 3.09882637E-03-1.31351942E-02 0.00000000E+00 7.03935863E-03 3.28649007E-03
 3  4 4.83139488E-03 1.42958265E-04 0.00000000E+00 0.00000000E+00-3.54973568E-02
 3  5 5.71467804E-02-1.55082555E-02 3.36155132E-02 0.00000000E+00 5.57489508E-03
 3  6-6.24632690E-03 4.93367499E-02 0.00000000E+00 2.35583029E-02-2.10239978E-03
 3  7-1.18579299E-02 0.00000000E+00-4.15657768E-03 9.04658334E-03 1.62606425E-03
 3  8-1.94509639E-03 0.00000000E+00 0.00000000E+00 3.75422512E-02 2.19865551E-02
 3  9 3.75422512E-02 2.19865551E-02
 4  1 4.86958676E-02-1.15437909E-01-2.73985852E-02 3.59912736E-02 0.00000000E+00
 4  2-1.66513093E-01-1.19120340E-02-3.27682738E-03 0.00000000E+00-1.34117588E-02
 4  3 6.25964562E-03-1.18859057E-02 0.00000000E+00-2.41523445E-03 7.67792918E-03
 4  4-8.73198979E-04-2.60409149E-03 0.00000000E+00 0.00000000E+00-1.70916973E-01
 4  5 3.33980534E-01-1.03375414E-01 1.82184592E-01 0.00000000E+00 3.43966281E-01
 4  6-5.14076459E-02 5.83378593E-02 0.00000000E+00 7.06508747E-03-5.04650603E-03
 4  7 2.10211718E-03 0.00000000E+00-7.49638873E-03-9.83862909E-03 3.41411611E-02
 4  8-9.49441357E-03 0.00000000E+00 0.00000000E+00 1.97905895E-01 8.78022477E-02
 4  9 1.97905895E-01 8.78022477E-02
 5  1 0.00000000E+00 0.00000000E+00 0.00000000E+00 0.00000000E+00 7.59267632E-02
 5  2 0.00000000E+00 0.00000000E+00 0.00000000E+00 2.86001651E-02 0.00000000E+00
 5  3 0.00000000E+00 0.00000000E+00-1.40568248E-02 0.00000000E+00 0.00000000E+00
 5  4 0.00000000E+00 0.00000000E+00-3.79605138E-04 1.27434712E-02 0.00000000E+00
 5  5 0.00000000E+00 0.00000000E+00 0.00000000E+00 4.53194046E-01 0.00000000E+00
 5  6 0.00000000E+00 0.00000000E+00 2.02981693E-01 0.00000000E+00 0.00000000E+00
 5  7 0.00000000E+00 9.49783130E-03 0.00000000E+00 0.00000000E+00 0.00000000E+00
 5  8 0.00000000E+00-2.46166560E-02 2.17636537E-02-2.40532502E-01-1.69025261E-01
 5  9 2.40532502E-01 1.69025261E-01
 6  1-8.06578900E-03 2.27938204E-02-6.32525726E-01 1.46918796E-02 0.00000000E+00
 6  2 2.36171832E-02-4.26385366E-01 1.13742284E-02 0.00000000E+00 3.99596709E-03
 6  3-4.39585082E-02 5.31530888E-03 0.00000000E+00-5.82804247E-04 8.30012944E-04
 6  4 4.47184597E-04-2.64551548E-02 0.00000000E+00 0.00000000E+00 2.49667047E-02
 6  5-4.48817181E-02-1.32999820E-01-1.22003450E-02 0.00000000E+00-3.26373490E-02
 6  6-5.02067959E-02-6.97534011E-03 0.00000000E+00 1.24993408E-03-1.03803786E-03
 6  7-8.54991907E-05 0.00000000E+00 4.22944430E-03-2.12095541E-03-2.69373455E-03
 6  8 2.51811867E-02 0.00000000E+00 0.00000000E+00-9.39310694E-03-1.83817555E-02
 6  9-9.39310694E-03-1.83817555E-02
 7  1 4.19601149E-02-1.00628312E-01-2.92869758E-03-5.20766753E-01 0.00000000E+00
 7  2-8.52914564E-03 2.78407836E-03-2.91273768E-01 0.00000000E+00 5.99437574E-02
 7  3 4.46293261E-03-1.25052914E-03 0.00000000E+00 9.62808994E-03-3.54022049E-02
 7  4 1.05332476E-02-1.83171280E-03 0.00000000E+00 0.00000000E+00 7.07335850E-02
 7  5-1.52526063E-01-1.08353567E-02 3.45931816E-01 0.00000000E+00-6.46675183E-02
 7  6-7.49546635E-03 9.29960363E-02 0.00000000E+00-7.23393361E-04-4.29211050E-04
 7  7 6.72776320E-03 0.00000000E+00 1.44386824E-02-4.10157971E-02 2.15386874E-02
 7  8-7.98610397E-03 0.00000000E+00 0.00000000E+00 4.13114371E-02 4.88254070E-02
 7  9 4.13114371E-02 4.88254070E-02
 8  1-5.36507007E-03 1.37026887E-02 2.28318878E-01 3.24159613E-02 0.00000000E+00
 8  2 1.67802591E-02 2.10509253E-01 2.08751037E-02 0.00000000E+00-1.61855748E-02
 8  3 9.74838350E-02-6.27339947E-03 0.00000000E+00-5.50149217E-04 9.33630377E-04
 8  4-4.94520542E-04-6.32074081E-03 0.00000000E+00 0.00000000E+00 5.65905878E-02
 8  5-1.27370406E-01-5.84379065E-01-7.70220558E-02 0.00000000E+00-2.63711095E-01
 8  6-4.66549482E-01-7.37990407E-02 0.00000000E+00-3.15745296E-02-9.51622046E-02
 8  7-8.29115538E-03 0.00000000E+00-9.27583142E-03 9.20783408E-03 8.56730311E-03
 8  8-1.61070102E-02 0.00000000E+00 0.00000000E+00 5.42693653E-02 8.99201020E-02
 8  9 5.42693653E-02 8.99201020E-02
 9  1 0.00000000E+00 0.00000000E+00 0.00000000E+00 0.00000000E+00-6.92596825E-01
 9  2 0.00000000E+00 0.00000000E+00 0.00000000E+00-4.44106136E-01 0.00000000E+00
 9  3 0.00000000E+00 0.00000000E+00-2.13072480E-02 0.00000000E+00 0.00000000E+00
 9  4 0.00000000E+00 0.00000000E+00-6.43809969E-04-2.34908948E-02 0.00000000E+00
 9  5 0.00000000E+00 0.00000000E+00 0.00000000E+00 6.48319350E-02 0.00000000E+00
 9  6 0.00000000E+00 0.00000000E+00 4.34756020E-02 0.00000000E+00 0.00000000E+00
 9  7 0.00000000E+00-2.92962499E-03 0.00000000E+00 0.00000000E+00 0.00000000E+00
 9  8 0.00000000E+00-5.61746381E-03 2.76304317E-02-7.09825331E-02-8.55796476E-02
 9  9 7.09825331E-02 8.55796476E-02
10  1 7.93461994E-02-3.17003698E-01-1.20925151E-02-7.47209556E-01 0.00000000E+00
10  2-2.94461095E-01-1.39745469E-02-1.09118842E-01 0.00000000E+00-8.06775434E-02
10  3 4.15847410E-04-2.00059287E-02 0.00000000E+00 2.81450506E-02 1.47511571E-02
10  4 1.16861142E-02 1.64199303E-03 0.00000000E+00 0.00000000E+00-1.06342441E-01
10  5 4.27543570E-01-3.93771347E-02-7.00329562E-01 0.00000000E+00 3.26261287E-01
10  6-4.87553637E-02-2.45584096E-01 0.00000000E+00 5.42632546E-03-1.06693093E-02
10  7 5.25317786E-03 0.00000000E+00-2.66663186E-02 6.66530777E-02-6.48242328E-02
10  8 3.20533359E-03 0.00000000E+00 0.00000000E+00-3.81692161E-02-6.30031473E-02
10  9-3.81692161E-02-6.30031473E-02
11  1 1.27817072E-02-7.90197938E-02 3.23829331E-03 3.03441662E-02 0.00000000E+00
11  2 6.19943955E-02-6.73204834E-03-2.89160998E-02 0.00000000E+00-1.79791275E+00
11  3 4.92169176E-02-4.90740532E-01 0.00000000E+00-1.00869536E-02-2.48800867E-02
11  4-1.15289343E-02 1.12888717E-03 0.00000000E+00 0.00000000E+00 3.40159501E-02
11  5-1.02177934E-01 3.81863027E-02-7.52984350E-02 0.00000000E+00 9.15760216E-02
11  6 7.54959294E-04-3.37042071E-01 0.00000000E+00 2.43902217E+00-3.05947712E-01
11  7-5.27115481E-01 0.00000000E+00 3.67251724E-03 3.89306614E-03-8.89113156E-03
11  8 3.14641404E-03 0.00000000E+00 0.00000000E+00-4.35512247E-03-1.78258418E-01
11  9-4.35512247E-03-1.78258418E-01
12  1 0.00000000E+00 0.00000000E+00 0.00000000E+00 0.00000000E+00-2.30058752E-02
12  2 0.00000000E+00 0.00000000E+00 0.00000000E+00 2.50004154E-02 0.00000000E+00
12  3 0.00000000E+00 0.00000000E+00-3.75998638E-01 0.00000000E+00 0.00000000E+00
12  4 0.00000000E+00 0.00000000E+00 4.13290554E-04-5.60019839E-03 0.00000000E+00
12  5 0.00000000E+00 0.00000000E+00 0.00000000E+00-1.31551539E-01 0.00000000E+00
12  6 0.00000000E+00 0.00000000E+00-9.50654522E-02 0.00000000E+00 0.00000000E+00
12  7 0.00000000E+00 1.43111348E+00 0.00000000E+00 0.00000000E+00 0.00000000E+00
12  8 0.00000000E+00 8.86417172E-03-2.99525723E-03 1.21308126E-02 2.84071403E-01
12  9-1.21308126E-02-2.84071403E-01
13  1-4.48953618E-03 7.44466921E-02 3.67267580E-03-3.95891931E-02 0.00000000E+00
13  2-2.42638227E-01-1.45722883E-02-5.36534204E-02 0.00000000E+00 1.39354504E+00
13  3 1.10052112E-01 1.14667427E-01 0.00000000E+00 1.86919338E-02 2.21310232E-02
13  4 1.75304700E-02 1.50020922E-03 0.00000000E+00 0.00000000E+00 1.47938454E-02
13  5 5.10471572E-03 2.55741685E-02-7.78922337E-02 0.00000000E+00-1.25371018E-01
13  6 1.29085919E-02-1.19299349E-01 0.00000000E+00-6.17647580E-01-2.57737188E-01
13  7 1.63836738E+00 0.00000000E+00 3.02994460E-03 1.54622828E-02-8.67970488E-03
13  8 1.04562241E-03 0.00000000E+00 0.00000000E+00-8.20440645E-03-1.79147117E-01
13  9-8.20440645E-03-1.79147117E-01
14  1 2.34173875E-03 1.37947060E-03-2.12526385E-02-4.85347619E-03 0.00000000E+00
14  2-6.17252168E-02 5.26341837E-02-2.32908834E-02 0.00000000E+00-5.03669412E-02
14  3-3.16880414E-01-1.07638439E-01 0.00000000E+00 2.25862196E-03 5.83853348E-04
14  4 2.86919977E-03-4.92953072E-03 0.00000000E+00 0.00000000E+00 1.77526390E-02
14  5-2.19902770E-02-1.32081043E-01-3.72657405E-02 0.00000000E+00-1.46316194E-01
14  6-3.56768074E-01-1.69966114E-01 0.00000000E+00 2.88264650E-01 1.29494240E+00
14  7 2.23743696E-01 0.00000000E+00 4.94154067E-03 5.37150169E-03 3.82858597E-03
14  8 6.60283875E-03 0.00000000E+00 0.00000000E+00 4.12967118E-03 7.02920970E-02
14  9 4.12967118E-03 7.02920970E-02
15  1-3.34596667E-02 2.54842826E-02-8.85807394E-03-7.02839620E-02 0.00000000E+00
15  2 3.81001468E-01-1.26959563E-02-2.78380412E-01 0.00000000E+00-1.08432273E-01
15  3 5.43173839E-03 1.68737200E+00 0.00000000E+00-1.82366658E-02-4.65588949E-02
15  4-1.57818741E-02 2.46366427E-04 0.00000000E+00 0.00000000E+00 6.93951617E-02
15  5-1.69590457E-02 3.86525395E-02-7.17127518E-03 0.00000000E+00-1.37449391E+00
15  6 9.82744077E-02 7.49834213E-03 0.00000000E+00 3.73564392E-02 3.26124761E-02
15  7-5.72597196E-01 0.00000000E+00 1.85502123E-02 1.40791050E-02 2.02988916E-02
15  8 2.17235857E-03 0.00000000E+00 0.00000000E+00 3.14649883E-02 2.36430368E-01
15  9 3.14649883E-02 2.36430368E-01
16  1 0.00000000E+00 0.00000000E+00 0.00000000E+00 0.00000000E+00-1.61578870E-01
16  2 0.00000000E+00 0.00000000E+00 0.00000000E+00-5.17061653E-01 0.00000000E+00
16  3 0.00000000E+00 0.00000000E+00 1.77065112E+00 0.00000000E+00 0.00000000E+00
16  4 0.00000000E+00 0.00000000E+00-3.49305719E-04-1.03620167E-02 0.00000000E+00
16  5 0.00000000E+00 0.00000000E+00 0.00000000E+00 2.23258140E-02 0.00000000E+00
16  6 0.00000000E+00 0.00000000E+00-1.42798432E-01 0.00000000E+00 0.00000000E+00
16  7 0.00000000E+00-7.84366095E-01 0.00000000E+00 0.00000000E+00 0.00000000E+00
16  8 0.00000000E+00 1.24126429E-04-5.97780167E-03-4.28981686E-03 7.00932472E-02
16  9 4.28981686E-03-7.00932472E-02
17  1-2.96650884E-03-5.31526345E-03-1.86619533E-01-1.70446424E-03 0.00000000E+00
17  2 6.18529857E-02-5.18478450E-01 8.43939050E-04 0.00000000E+00-2.01209434E-01
17  3 1.77588307E+00-6.64989747E-02 0.00000000E+00-4.90178602E-03-3.03911915E-03
17  4-4.42812042E-03-1.14898067E-02 0.00000000E+00 0.00000000E+00-2.23969574E-03
17  5 1.49909823E-03 1.36334218E-02-8.81134215E-03 0.00000000E+00 5.44318158E-02
17  6-2.05800743E-01 3.40398440E-03 0.00000000E+00 1.12447961E-01-8.03038653E-01
17  7-3.94727346E-02 0.00000000E+00 5.27345228E-04 1.04138337E-04-3.70956901E-05
17  8-2.37857726E-03 0.00000000E+00 0.00000000E+00-4.99301137E-03-2.25940997E-02
17  9-4.99301137E-03-2.25940997E-02
18  1-3.05513703E-02-4.84089923E-03 3.75495246E-02-3.68283198E-02 0.00000000E+00
18  2 5.38218728E-01 8.95417454E-02-1.29047986E-01 0.00000000E+00-1.42275643E+00
18  3 1.13681563E-01 3.48422970E-01 0.00000000E+00-1.88924933E-02-2.98743455E-02
18  4-3.61055783E-02-3.37015482E-03 0.00000000E+00 0.00000000E+00-9.38595949E-02
18  5 5.52032145E-02-1.20250008E-01 1.61405079E-01 0.00000000E+00 2.01509104E+00
18  6-6.15283604E-01 7.66264086E-01 0.00000000E+00 1.65060545E+00-2.02150746E-01
18  7-4.48811981E-01 0.00000000E+00 8.26802063E-03 1.89531571E-03-3.03246020E-02
18  8-3.47742210E-03 0.00000000E+00 0.00000000E+00-8.60997350E-02-1.87237706E+00
18  9-8.60997350E-02-1.87237706E+00
19  1 0.00000000E+00 0.00000000E+00 0.00000000E+00 0.00000000E+00-6.92702884E-02
19  2 0.00000000E+00 0.00000000E+00 0.00000000E+00-1.95168051E-01 0.00000000E+00
19  3 0.00000000E+00 0.00000000E+00-5.08701688E-01 0.00000000E+00 0.00000000E+00
19  4 0.00000000E+00 0.00000000E+00 1.00389430E-02 8.55202001E-03 0.00000000E+00
19  5 0.00000000E+00 0.00000000E+00 0.00000000E+00 3.43634820E-01 0.00000000E+00
19  6 0.00000000E+00 0.00000000E+00 1.88198636E+00 0.00000000E+00 0.00000000E+00
19  7 0.00000000E+00 8.03553506E-01 0.00000000E+00 0.00000000E+00 0.00000000E+00
19  8 0.00000000E+00 1.07952336E-02-8.30934506E-03 5.29842973E-02 2.14061838E+00
19  9-5.29842973E-02-2.14061838E+00
20  1 9.15440918E-02 1.62233740E-02 1.00916506E-02 5.66004150E-02 0.00000000E+00
20  2-1.57196262E+00 2.50926984E-02 2.13888837E-01 0.00000000E+00 5.61121964E+00
20  3 1.62024981E-01 1.48634999E+00 0.00000000E+00 9.44618553E-02 7.61757748E-02
20  4 8.72640302E-02-2.71936991E-03 0.00000000E+00 0.00000000E+00 2.62757639E-02
20  5 5.86232100E-03-3.24069341E-02 5.78023921E-02 0.00000000E+00-1.06323601E+00
20  6-1.94710879E-01 7.71741039E-01 0.00000000E+00-2.40355808E+00-3.40734813E-02
20  7 1.30603985E+00 0.00000000E+00 2.67568355E-02-1.53983545E-02 5.83973720E-03
20  8-2.68495004E-04 0.00000000E+00 0.00000000E+00-3.82915216E-02-6.43789492E-01
20  9-3.82915216E-02-6.43789492E-01
21  1-2.70193982E-02-2.04212423E-01 7.86597649E-03-1.08244767E-01 0.00000000E+00
21  2 1.45479303E+00 5.85562955E-02 9.42995847E-01 0.00000000E+00 1.73251460E+00
21  3 4.97310343E-02 7.89884153E-01 0.00000000E+00-9.66296228E-02 6.41074673E-02
21  4-1.07640625E-01 5.59020541E-03 0.00000000E+00 0.00000000E+00 4.62407050E-02
21  5 4.67811725E-02 1.86116680E-02-6.34405545E-01 0.00000000E+00-1.87002573E+00
21  6-3.51652338E-02 2.64947113E+00 0.00000000E+00-8.88473618E-01 4.15884477E-02
21  7-3.51367691E-01 0.00000000E+00 2.30428249E-02-6.93177082E-02-5.81365675E-02
21  8-5.74188993E-04 0.00000000E+00 0.00000000E+00-2.01603243E-01 8.03086706E-02
21  9-2.01603243E-01 8.03086706E-02
22  1-2.35387428E-03-9.46028989E-03 1.50524578E-02-7.11834781E-03 0.00000000E+00
22  2 1.12668914E-01-2.24467298E-01 8.73790081E-02 0.00000000E+00 1.61713964E-01
22  3-7.06998324E-02 4.56012983E-02 0.00000000E+00-1.66121442E-02 1.32900996E-02
22  4-3.11481747E-03-4.64647746E-02 0.00000000E+00 0.00000000E+00 1.80553777E-02
22  5-8.52105724E-03-1.05608117E+00-5.43949093E-02 0.00000000E+00-3.48871076E-01
22  6 1.55432786E+00 8.85654337E-02 0.00000000E+00-1.41890374E-01-4.48142351E-01
22  7-2.24773944E-03 0.00000000E+00-2.37476239E-02-1.88233070E-02 2.72914900E-02
22  8 2.29401572E-02 0.00000000E+00 0.00000000E+00 9.76854769E-02 1.29858205E-01
22  9 9.76854769E-02 1.29858205E-01
23  1 0.00000000E+00 0.00000000E+00 0.00000000E+00 0.00000000E+00-7.64429573E-02
23  2 0.00000000E+00 0.00000000E+00 0.00000000E+00-2.56087278E-01 0.00000000E+00
23  3 0.00000000E+00 0.00000000E+00-2.67026660E-01 0.00000000E+00 0.00000000E+00
23  4 0.00000000E+00 0.00000000E+00 1.81249244E-02 6.51867368E-03 0.00000000E+00
23  5 0.00000000E+00 0.00000000E+00 0.00000000E+00-8.95354292E-01 0.00000000E+00
23  6 0.00000000E+00 0.00000000E+00 2.27287131E+00 0.00000000E+00 0.00000000E+00
23  7 0.00000000E+00-2.55334288E-01 0.00000000E+00 0.00000000E+00 0.00000000E+00
23  8 0.00000000E+00 8.74365971E-02-6.21827607E-02 3.54562800E-01 5.74127383E-01
23  9-3.54562800E-01-5.74127383E-01
24  1 0.00000000E+00 0.00000000E+00 0.00000000E+00 0.00000000E+00 2.95605958E-01
24  2 0.00000000E+00 0.00000000E+00 0.00000000E+00-3.81355654E-01 0.00000000E+00
24  3 0.00000000E+00 0.00000000E+00-8.17378134E-02 0.00000000E+00 0.00000000E+00
24  4 0.00000000E+00 0.00000000E+00 7.27918700E-03-1.43254051E-01 0.00000000E+00
24  5 0.00000000E+00 0.00000000E+00 0.00000000E+00-7.38066553E-01 0.00000000E+00
24  6 0.00000000E+00 0.00000000E+00 1.31393697E+00 0.00000000E+00 0.00000000E+00
24  7 0.00000000E+00 3.84891801E-01 0.00000000E+00 0.00000000E+00 0.00000000E+00
24  8 0.00000000E+00-9.83103116E-02 2.25878313E-01-7.14726629E-01 1.59701035E+00
24  9 7.14726629E-01-1.59701035E+00
25  1 1.90853810E-02 1.34734067E-01 9.61217854E-02 4.35434023E-02 0.00000000E+00
25  2-1.05357809E+00-1.10437050E-01-8.81719603E-01 0.00000000E+00-2.73194279E+00
25  3 1.33431392E-02-1.23747246E+00 0.00000000E+00 9.94827371E-02-3.61291645E-02
25  4 5.86944337E-02-5.27232990E-02 0.00000000E+00 0.00000000E+00-1.05240840E-01
25  5-1.64982658E+00-8.52542157E-02 3.61811993E-02 0.00000000E+00 4.95274887E+00
25  6-1.55591115E-01-1.44774716E+00 0.00000000E+00 4.75065156E-01-2.38221227E-02
25  7-2.99309569E-01 0.00000000E+00 7.77069779E-02-9.86731322E-02-2.56604150E-01
25  8 5.88099061E-02 0.00000000E+00 0.00000000E+00-4.88541752E-01 1.14606757E-01
25  9-4.88541752E-01 1.14606757E-01
26  1 1.04561141E-02 1.44082817E-01-1.15691755E-01 6.59358233E-02 0.00000000E+00
26  2-5.59486547E-01 1.37162432E-01-3.54518969E-01 0.00000000E+00-3.90663556E-01
26  3 1.68534450E-02-5.08272562E-02 0.00000000E+00 6.92167131E-02 3.52449125E-02
26  4 3.34741574E-02 4.59500771E-02 0.00000000E+00 0.00000000E+00 2.06659307E-02
26  5-1.14900014E+00 2.16142222E-01-5.20337731E-01 0.00000000E+00 3.05875666E+00
26  6-4.49052028E-01 3.47515748E-01 0.00000000E+00 5.94750942E-01-1.47631310E-01
26  7 2.61247262E-02 0.00000000E+00-1.48316584E-01-1.22559451E-01 9.70767276E-02
26  8-6.63384705E-02 0.00000000E+00 0.00000000E+00 6.90472073E-01-1.66198586E+00
26  9 6.90472073E-01-1.66198586E+00
27  1-2.39183436E-02 2.73624179E-01-2.97819151E-02-7.32787391E-01 0.00000000E+00
27  2-9.97422541E-02 6.77426789E-02 2.01214665E+00 0.00000000E+00 1.10259581E+00
27  3-2.05854644E-02-5.70865160E-01 0.00000000E+00 1.51933622E-01-4.45569219E-02
27  4 1.66876620E-01-6.48563672E-04 0.00000000E+00 0.00000000E+00-1.00186763E-03
27  5-2.48766888E-01 2.08647109E-02 4.09180080E-01 0.00000000E+00-8.39752401E-01
27  6 7.41293022E-02 5.41419755E-01 0.00000000E+00-3.57747897E-01 1.19690792E-02
27  7 2.84122482E-01 0.00000000E+00-8.04711176E-04-2.22855810E-01 6.93760549E-02
27  8-2.41466048E-02 0.00000000E+00 0.00000000E+00 5.79384683E-02 5.55480493E-02
27  9 5.79384683E-02 5.55480493E-02
28  1 9.69860896E-04-1.24494263E-02-9.64321855E-01 2.59529442E-02 0.00000000E+00
28  2-1.53412946E-02 1.51276215E+00-8.95189817E-02 0.00000000E+00-1.75083117E-01
28  3-9.05369442E-01-5.17567761E-02 0.00000000E+00 8.72284284E-03-7.19070783E-03
28  4-8.88261053E-03 8.94575963E-03 0.00000000E+00 0.00000000E+00-1.37658689E-02
28  5-2.51750659E-02-1.36528077E-01 5.04157908E-02 0.00000000E+00 1.36051921E-01
28  6-8.73794576E-02-1.15980194E-01 0.00000000E+00-1.87785248E-02 3.58519432E-01
28  7-4.47446606E-02 0.00000000E+00 5.58897624E-02 1.22284237E-02-8.18893905E-02
28  8-9.46888256E-02 0.00000000E+00 0.00000000E+00-1.31060703E-01 1.54381095E-01
28  9-1.31060703E-01 1.54381095E-01
29  1 0.00000000E+00 0.00000000E+00 0.00000000E+00 0.00000000E+00-9.16256285E-01
29  2 0.00000000E+00 0.00000000E+00 0.00000000E+00 1.56170335E+00 0.00000000E+00
29  3 0.00000000E+00 0.00000000E+00-9.17388697E-01 0.00000000E+00 0.00000000E+00
29  4 0.00000000E+00 0.00000000E+00-2.49941508E-02-9.70151550E-02 0.00000000E+00
29  5 0.00000000E+00 0.00000000E+00 0.00000000E+00-2.07184212E-01 0.00000000E+00
29  6 0.00000000E+00 0.00000000E+00-8.98050679E-02 0.00000000E+00 0.00000000E+00
29  7 0.00000000E+00 4.35081722E-01 0.00000000E+00 0.00000000E+00 0.00000000E+00
29  8 0.00000000E+00-1.25410100E-01 6.12897288E-02-2.28644010E-01 2.43468456E-01
29  9 2.28644010E-01-2.43468456E-01
30  1-1.07976697E-01-1.88847182E+00 4.65076027E-03-9.68532013E-03 0.00000000E+00
30  2 4.92276340E+00-1.22277309E-02 5.41392489E-01 0.00000000E+00-3.55977066E+00
30  3-1.51134386E-02-6.00488096E-01 0.00000000E+00-4.31917446E-01-7.51677488E-01
30  4-3.46060469E-01 3.85173543E-02 0.00000000E+00 0.00000000E+00-1.21458501E-02
30  5-3.27776222E-01 1.00683207E-03 2.29118258E-01 0.00000000E+00 9.18160902E-02
30  6 5.21868153E-02 3.77795095E-01 0.00000000E+00 1.44906745E+00-3.65477637E-02
30  7-7.96715169E-01 0.00000000E+00-5.13485251E-02-7.73796391E-02 1.05421710E-01
30  8-6.41509680E-02 0.00000000E+00 0.00000000E+00 2.28265560E-02 5.11523473E-02
30  9 2.28265560E-02 5.11523473E-02
31  1-8.11114457E-03-1.26745501E-01-1.04113951E-01-3.96619016E-03 0.00000000E+00
31  2 3.71880602E-01 3.95786600E-01 6.44752908E-02 0.00000000E+00-1.19932573E-01
31  3-2.19548507E-01 2.63780555E-02 0.00000000E+00-1.40713406E-01-5.83552318E-03
31  4 4.54870281E-02-5.79307812E-01 0.00000000E+00 0.00000000E+00 4.62025306E-03
31  5 3.72521769E-03 1.28270906E-01-2.36435510E-02 0.00000000E+00-8.78558717E-02
31  6-6.97425402E-02 1.40944687E-01 0.00000000E+00 1.10156099E-01 5.62074777E-02
31  7-4.06552768E-02 0.00000000E+00-1.19417402E-01-8.01420744E-02 2.08070701E-01
31  8 6.31987129E-01 0.00000000E+00 0.00000000E+00 6.99176539E-02-1.04154824E-01
31  9 6.99176539E-02-1.04154824E-01
32  1 0.00000000E+00 0.00000000E+00 0.00000000E+00 0.00000000E+00-3.06210008E-02
32  2 0.00000000E+00 0.00000000E+00 0.00000000E+00 1.92626606E-01 0.00000000E+00
32  3 0.00000000E+00 0.00000000E+00-8.01007117E-02 0.00000000E+00 0.00000000E+00
32  4 0.00000000E+00 0.00000000E+00 2.34210515E-01-4.74788874E-01 0.00000000E+00
32  5 0.00000000E+00 0.00000000E+00 0.00000000E+00 1.99036175E-01 0.00000000E+00
32  6 0.00000000E+00 0.00000000E+00-1.31364429E-01 0.00000000E+00 0.00000000E+00
32  7 0.00000000E+00-7.04148476E-02 0.00000000E+00 0.00000000E+00 0.00000000E+00
32  8 0.00000000E+00 5.96752276E-01 4.56987817E-01 1.82145308E-01-2.66045162E-01
32  9-1.82145308E-01 2.66045162E-01
33  1 1.65545592E-02 1.80635955E-01-1.76988554E-02-2.37089953E-03 0.00000000E+00
33  2-6.44188262E-01 1.59101512E-02-2.38941197E-01 0.00000000E+00-4.40702661E-02
33  3 2.32377399E-02-4.94098155E-02 0.00000000E+00-7.47602696E-01 9.30070814E-02
33  4 8.04261954E-01 1.54716022E-01 0.00000000E+00 0.00000000E+00-2.89315778E-02
33  5-2.54193250E-01-2.25424679E-02-5.09343314E-03 0.00000000E+00 1.03359404E+00
33  6-1.69921655E-01-1.44119283E-01 0.00000000E+00 1.20549474E-03-1.27609821E-03
33  7 2.31535787E-02 0.00000000E+00-3.41461418E-01 6.20331543E-02 2.62919950E-01
33  8-7.23622702E-02 0.00000000E+00 0.00000000E+00-2.28455380E-01-1.62092332E-01
33  9-2.28455380E-01-1.62092332E-01
34  1 0.00000000E+00 0.00000000E+00 0.00000000E+00 0.00000000E+00-5.47820510E-02
34  2 0.00000000E+00 0.00000000E+00 0.00000000E+00 1.08614555E-01 0.00000000E+00
34  3 0.00000000E+00 0.00000000E+00 4.93289204E-02 0.00000000E+00 0.00000000E+00
34  4 0.00000000E+00 0.00000000E+00 9.19231631E-01 2.42133005E-01 0.00000000E+00
34  5 0.00000000E+00 0.00000000E+00 0.00000000E+00-7.57899617E-02 0.00000000E+00
34  6 0.00000000E+00 0.00000000E+00-4.46103393E-01 0.00000000E+00 0.00000000E+00
34  7 0.00000000E+00 1.93216351E-02 0.00000000E+00 0.00000000E+00 0.00000000E+00
34  8 0.00000000E+00 7.73266638E-02-2.41514357E-01-2.64256077E-01-1.07562117E-01
34  9 2.64256077E-01 1.07562117E-01
35  1 1.61802894E-02-1.36567250E-01-3.45471388E-02-2.13129171E-01 0.00000000E+00
35  2-3.36196527E-01 4.43714951E-02-1.34048869E-01 0.00000000E+00-8.37953065E-01
35  3-1.32330684E-02-3.85017547E-01 0.00000000E+00 1.31437403E-01 2.55741711E-01
35  4-4.52362180E-01 9.09583921E-02 0.00000000E+00 0.00000000E+00-5.00359248E-02
35  5-6.71276551E-01-1.02381379E-02 2.89329954E-01 0.00000000E+00 1.79448472E+00
35  6-1.60510951E-01-6.93634392E-01 0.00000000E+00 2.40227041E-01 1.29621808E-02
35  7-3.12332076E-02 0.00000000E+00-9.12041120E-01 5.97534616E-01 1.88746016E-01
35  8 4.63438631E-02 0.00000000E+00 0.00000000E+00-2.41848485E-01-6.12442786E-02
35  9-2.41848485E-01-6.12442786E-02
36  1 0.00000000E+00 0.00000000E+00 0.00000000E+00 0.00000000E+00 1.23476016E-01
36  2 0.00000000E+00 0.00000000E+00 0.00000000E+00-3.61400200E-01 0.00000000E+00
36  3 0.00000000E+00 0.00000000E+00-2.39414017E-02 0.00000000E+00 0.00000000E+00
36  4 0.00000000E+00 0.00000000E+00 3.03454538E-01-6.05868403E-01 0.00000000E+00
36  5 0.00000000E+00 0.00000000E+00 0.00000000E+00 1.57779164E-01 0.00000000E+00
36  6 0.00000000E+00 0.00000000E+00 8.44388194E-01 0.00000000E+00 0.00000000E+00
36  7 0.00000000E+00-1.02999479E-01 0.00000000E+00 0.00000000E+00 0.00000000E+00
36  8 0.00000000E+00-8.13422642E-01 8.30471540E-02 5.60429985E-01 9.25100587E-02
36  9-5.60429985E-01-9.25100587E-02
37  1-1.19403478E-02 3.42151427E-01-3.15005533E-02 2.46514103E-01 0.00000000E+00
37  2-3.02249638E-01 1.24852859E-01-2.82693857E-01 0.00000000E+00 2.92684475E-01
37  3-5.37324558E-03 1.68936493E-01 0.00000000E+00 3.69858204E-01-1.85684683E-01
37  4-1.03795482E-01 2.26255594E-01 0.00000000E+00 0.00000000E+00-2.90246564E-02
37  5 2.72881913E-01-8.14650761E-02-2.01312777E-01 0.00000000E+00 6.22457477E-02
37  6-2.02336765E-01 4.27281043E-01 0.00000000E+00-2.39141846E-01 6.12428744E-02
37  7-7.08040906E-02 0.00000000E+00-2.82116067E-01-6.39735783E-01 9.43084959E-01
37  8 3.73540296E-02 0.00000000E+00 0.00000000E+00-5.43640891E-01 1.27755444E-01
37  9-5.43640891E-01 1.27755444E-01
38  1 2.48703931E-03-7.10681617E-02-9.68199101E-02-3.98162727E-02 0.00000000E+00
38  2 9.23538316E-02 4.11518480E-01 6.32796625E-02 0.00000000E+00 3.25896115E-02
38  3-8.11315187E-02 1.86825742E-02 0.00000000E+00 1.06531821E-02-4.25282827E-02
38  4 2.68988054E-02 8.56578207E-01 0.00000000E+00 0.00000000E+00 1.30341365E-02
38  5-3.70497684E-02-6.98752207E-02 2.06476183E-02 0.00000000E+00-1.06657151E-01
38  6-2.39047132E-01 8.92444322E-03 0.00000000E+00 6.84912519E-02 6.43946211E-02
38  7 2.57723643E-02 0.00000000E+00 1.78061567E-01 4.17644245E-02-1.93572662E-01
38  8 8.75391888E-01 0.00000000E+00 0.00000000E+00 1.91192377E-01-1.21412185E-01
38  9 1.91192377E-01-1.21412185E-01
39  1 0.00000000E+00 0.00000000E+00 0.00000000E+00 0.00000000E+00-5.33296459E-02
39  2 0.00000000E+00 0.00000000E+00 0.00000000E+00 2.85177059E-01 0.00000000E+00
39  3 0.00000000E+00 0.00000000E+00-5.32988624E-02 0.00000000E+00 0.00000000E+00
39  4 0.00000000E+00 0.00000000E+00 1.16984961E-01 7.11891979E-01 0.00000000E+00
39  5 0.00000000E+00 0.00000000E+00 0.00000000E+00 4.59396824E-02 0.00000000E+00
39  6 0.00000000E+00 0.00000000E+00-3.39732926E-02 0.00000000E+00 0.00000000E+00
39  7 0.00000000E+00-7.21954421E-02 0.00000000E+00 0.00000000E+00 0.00000000E+00
39  8 0.00000000E+00-2.74417906E-01 1.00205907E+00 4.53884495E-01-2.58943689E-01
39  9-4.53884495E-01 2.58943689E-01
40  1-9.96865979E-02-7.00442403E-01 1.06729819E-03-5.68877333E-02 0.00000000E+00
40  2 2.83427730E+00 7.18538742E-02 1.75283012E+00 0.00000000E+00 3.04141364E-01
40  3-4.34778780E-03 8.33888779E-02 0.00000000E+00-8.04783949E-01 1.08201391E+00
40  4-8.01230502E-01 9.55765479E-02 0.00000000E+00 0.00000000E+00 5.73636722E-02
40  5-4.17151457E-01 3.50863102E-02 8.48328646E-01 0.00000000E+00-2.07906946E+00
40  6 1.00867439E-01 1.16326817E+00 0.00000000E+00-4.79845634E-02 5.95768759E-03
40  7-1.21905306E-01 0.00000000E+00 5.34243658E-01-9.30839422E-01 4.55499205E-01
40  8-7.46382873E-02 0.00000000E+00 0.00000000E+00 4.15299643E-03 1.15879078E-01
40  9 4.15299643E-03 1.15879078E-01
41  1-5.39979618E-01-1.99468616E-01-3.99267815E-03-1.40632654E-01 0.00000000E+00
41  2 5.44952211E+00-9.22725800E-04 1.98100525E-01 0.00000000E+00-2.49009582E+00
41  3-2.00297747E-02-2.52908140E-01 0.00000000E+00-1.80685359E+00-1.88730339E+00
41  4-1.79588650E+00-7.76518569E-03 0.00000000E+00 0.00000000E+00 1.14400636E-02