!  H2CNH...analytic MCSCF frequencies at the 1-A'' rotated geometry,
!  which turns out to be a minimum rather than the expected saddle point.
!  MCSCF/6-311G(d) basis, using spherical harmonics
!  There are 47 AOs, 45 MOs, and 16 1A'' determinants in Cs symmetry.
!  There is a 3-A'' geometry below the target 1-A''
!
!  FINAL energy= -93.9913563738, 11 iters.     30 response iterations
!  FREQ=  721.42, 1029.61, 1052.60, 1270.12, 1556.19,
!  FREQ= 3273.02, 3379.54, 3633.65, 6827.00
!
!  This run takes 6 seconds on 2.66 GHz Cloverton (27 Apr 2015)
!  results have not changed appreciably since 2006
!
 $contrl scftyp=mcscf runtyp=hessian ispher=1 nzvar=9 $end
 $system mwords=2 memddi=15 $end
 $basis  gbasis=n311 ngauss=6 ndfunc=1 $end
 $guess  guess=moread norb=45
         norder=1 iorder(5)=6,7,  5,8,9,10 $end
 $zmat   izmat(1)= 1,2,1,  1,3,2,  2,3,2,1,  1,5,3,  2,5,3,2,
            3,5,3,2,1,  1,4,3,  2,4,3,2,  3,4,3,2,1  $end
 $mcscf  cistep=aldet soscf=.true. $end
 $det    stsym=App ncore=6 nact=4 nels=4 nstate=4 $end

 $data
H2C=NH...at a rotational geometry
Cs

H           1.0  -1.1283656156   0.8364483396   0.0000000000
N           7.0  -0.7161545568  -0.0848214138   0.0000000000
C           6.0   0.7254580442   0.0601839037   0.0000000000
H           1.0   1.2204802104  -0.1872548286   0.9226470480
 $end     

   The orbitals were generated by:
1. ROHF on 3A'' state: N,C radical electrons are orb 8,9
2. Use SYMLOC to clean up the occupied space: CN sigma= orb 5
3. Use MVOQ=6 to clean up the virtual space: CN sigma*= orb 10
4. visualizing the orbitals with MacMolPlt is how we know
   the orbital descriptions just made are so.
5. a text editor pastes virtuals of the first $VEC group,
   which is the canonical orbitals, at the end of the 2nd
   $VEC group, which is the occupied localized orbitals, to
   produce the $VEC you see below.
6. Note the orbital reordering to use the CN sigma as active.
----- $contrl scftyp=rohf runtyp=energy mult=3 local=boys $end
----- $local  symloc=.true. $end
----- $scf    mvoq=6 $end
          BOYS LOCALIZED ORBITALS and MVOQ=6 virtuals

4/2015: wow, it was hard before we got VVO capability in all SCFTYP!
 $VEC
 1  1 1.50447795E-04-7.43675924E-05 9.57954444E-05 5.57974983E-01 4.68756675E-01
 1  2 1.17027604E-03 1.89706459E-03 0.00000000E+00 3.32910652E-03-4.28702946E-04
 1  3-5.65884947E-04 0.00000000E+00-1.46240133E-03 4.87306435E-05 3.44794947E-04
 1  4 0.00000000E+00-3.99612152E-05 1.67200946E-04-1.27239731E-04 5.12027126E-05
 1  5 0.00000000E+00 0.00000000E+00 3.17497586E-05-1.97902163E-05 4.18198465E-05
 1  6 4.88777562E-06 0.00000000E+00 1.29343727E-04-1.92798189E-04 4.95830521E-05
 1  7 0.00000000E+00 4.22987338E-04-1.41513811E-04-5.54041550E-05 0.00000000E+00
 1  8 1.69275978E-04-9.33357350E-05-7.59402427E-05-2.15885973E-05 0.00000000E+00
 1  9 0.00000000E+00 4.11092823E-05-1.27733588E-05-7.37918451E-07 4.11092823E-05
 1 10-1.27733588E-05-7.37918451E-07
 2  1 1.61015372E-05 1.13462525E-04 1.02604119E-05-8.64076697E-05-1.42509829E-04
 2  2 1.74674191E-05-5.22486435E-06 0.00000000E+00 3.26931328E-04 2.34819584E-04
 2  3 8.84841466E-06 0.00000000E+00 1.89104822E-05-9.09967434E-05-8.98046844E-05
 2  4 0.00000000E+00 1.40616179E-04-6.60328731E-05-7.45833061E-05 1.28155079E-05
 2  5 0.00000000E+00 0.00000000E+00 5.63574051E-01 4.66931662E-01-6.23167814E-04
 2  6-3.93424364E-04 0.00000000E+00 3.14053526E-03 3.45121528E-04-5.21383971E-05
 2  7 0.00000000E+00-1.14292761E-03-2.20020773E-04-8.48676393E-05 0.00000000E+00
 2  8-6.42445505E-05-1.23606679E-04 1.87851229E-04-8.31414936E-05 0.00000000E+00
 2  9 0.00000000E+00 1.86452097E-04-2.34375947E-04 2.82077493E-04 1.86452097E-04
 2 10-2.34375947E-04 2.82077493E-04
 3  1 1.93260191E-01 2.23871269E-01 5.56387921E-02-5.76557336E-02-9.65997133E-02
 3  2-8.31354162E-02 1.51599068E-01 0.00000000E+00 2.60442945E-01-1.46310068E-01
 3  3 2.63115782E-01 0.00000000E+00 1.92934019E-01-5.49269002E-02 1.78237555E-01
 3  4 0.00000000E+00-1.83124686E-02 3.68466119E-02-1.85341433E-02-1.73431081E-02
 3  5 0.00000000E+00 0.00000000E+00 4.40488467E-03 7.91777426E-03 2.08926802E-02
 3  6 2.46998096E-02 0.00000000E+00-2.76189277E-02 3.61722115E-02 4.16024461E-02
 3  7 0.00000000E+00-6.29156886E-02 5.02563496E-02 2.04988472E-02 0.00000000E+00
 3  8 3.36326535E-03-9.90094535E-04-2.37317081E-03-1.27094279E-02 0.00000000E+00
 3  9 0.00000000E+00 2.44082992E-03 1.06461690E-02 5.60946113E-03 2.44082992E-03
 3 10 1.06461690E-02 5.60946113E-03
 4  1 4.10268078E-03 1.07245197E-02 1.47933142E-02 1.05738791E-02 1.78838403E-02
 4  2-3.02368007E-02-1.49161126E-03 0.00000000E+00-5.26189196E-02-3.88955117E-02
 4  3-5.73704960E-03 0.00000000E+00-6.99983167E-02-5.95204162E-02 4.23075877E-03
 4  4 0.00000000E+00 4.10631439E-03-2.48923774E-03-1.61707665E-03-3.74897579E-03
 4  5 0.00000000E+00 0.00000000E+00-8.38401474E-02-1.42336314E-01 1.06743346E-01
 4  6-3.30113839E-02 0.00000000E+00 3.77805506E-01 1.90429787E-01-5.89021609E-02
 4  7 0.00000000E+00 2.99366502E-01 9.60376272E-02-4.28232718E-02 0.00000000E+00
 4  8-1.94124978E-02-1.62551886E-02 3.56676864E-02-1.39904194E-02 0.00000000E+00
 4  9 0.00000000E+00 1.26720113E-01 1.46025553E-01 2.30355977E-02 1.26720113E-01
 4 10 1.46025553E-01 2.30355977E-02
 5  1 1.18574733E-02 4.83673676E-02 4.23313768E-02 5.07047234E-02 8.46148788E-02
 5  2-1.73213534E-01-2.31215649E-02 0.00000000E+00-2.32465524E-01-2.81486427E-01
 5  3-4.03844151E-02 0.00000000E+00-1.27053609E-01-2.01086686E-01-5.54492875E-02
 5  4 0.00000000E+00-2.38259376E-02 8.92384270E-03 1.49020950E-02-1.80411991E-02
 5  5 0.00000000E+00 0.00000000E+00 5.78840231E-02 9.75008034E-02 1.35425379E-01
 5  6-6.47429043E-03 0.00000000E+00-2.62242996E-01 2.32172250E-01-6.36124356E-03
 5  7 0.00000000E+00-1.16019482E-01 8.38119268E-02-2.50655345E-02 0.00000000E+00
 5  8-3.45150560E-02 1.73744847E-02 1.71405713E-02-6.34457063E-03 0.00000000E+00
 5  9 0.00000000E+00 6.84605940E-03 2.12528704E-02 3.26107236E-02 6.84605940E-03
 5 10 2.12528704E-02 3.26107236E-02
 6  1 0.00000000E+00 0.00000000E+00 0.00000000E+00 0.00000000E+00 0.00000000E+00
 6  2 0.00000000E+00 0.00000000E+00 2.90023415E-02 0.00000000E+00 0.00000000E+00
 6  3 0.00000000E+00 5.25181549E-02 0.00000000E+00 0.00000000E+00 0.00000000E+00
 6  4 9.98273762E-03 0.00000000E+00 0.00000000E+00 0.00000000E+00 0.00000000E+00
 6  5 1.17857677E-02 2.99538819E-03 0.00000000E+00 0.00000000E+00 0.00000000E+00
 6  6 0.00000000E+00 1.90544268E-01 0.00000000E+00 0.00000000E+00 0.00000000E+00
 6  7 3.32220512E-01 0.00000000E+00 0.00000000E+00 0.00000000E+00 1.96768913E-01
 6  8 0.00000000E+00 0.00000000E+00 0.00000000E+00 0.00000000E+00 3.11324115E-02
 6  9-2.26048672E-02-1.42753453E-01-1.93714992E-01-7.17210534E-02 1.42753453E-01
 6 10 1.93714992E-01 7.17210534E-02
 7  1-2.37394181E-02-7.67644018E-02-2.81934095E-02-8.64023676E-02-1.45768039E-01
 7  2-8.16490686E-02-1.67257465E-01 0.00000000E+00 4.15906626E-01-1.22337842E-01
 7  3-2.52789961E-01 0.00000000E+00 4.49181916E-01-1.52587395E-01-2.51502136E-01
 7  4 0.00000000E+00 2.89515521E-03-1.20389308E-02 9.14377563E-03-1.72283198E-02
 7  5 0.00000000E+00 0.00000000E+00 9.13251689E-03 1.60606580E-02 1.54350546E-02
 7  6-4.50041774E-02 0.00000000E+00-4.82477090E-02 2.45576917E-02-7.28843071E-02
 7  7 0.00000000E+00-4.89187830E-02 2.24353298E-02-5.97873988E-02 0.00000000E+00
 7  8 1.35969268E-03 7.83669614E-04-2.14336230E-03 1.78791710E-02 0.00000000E+00
 7  9 0.00000000E+00 3.61098213E-03 1.34721726E-04 1.34609260E-02 3.61098213E-03
 7 10 1.34721726E-04 1.34609260E-02
 8  1 0.00000000E+00 0.00000000E+00 0.00000000E+00 0.00000000E+00 0.00000000E+00
 8  2 0.00000000E+00 0.00000000E+00 2.87601686E-01 0.00000000E+00 0.00000000E+00
 8  3 0.00000000E+00 4.61078460E-01 0.00000000E+00 0.00000000E+00 0.00000000E+00
 8  4 4.60892745E-01 0.00000000E+00 0.00000000E+00 0.00000000E+00 0.00000000E+00
 8  5 7.38823323E-03 2.22903378E-02 0.00000000E+00 0.00000000E+00 0.00000000E+00
 8  6 0.00000000E+00-2.41166528E-02 0.00000000E+00 0.00000000E+00 0.00000000E+00
 8  7-4.29359112E-02 0.00000000E+00 0.00000000E+00 0.00000000E+00-3.65250208E-02
 8  8 0.00000000E+00 0.00000000E+00 0.00000000E+00 0.00000000E+00-3.52786248E-02
 8  9 2.89105261E-03 3.88469404E-02 8.42219140E-02 4.76120054E-02-3.88469404E-02
 8 10-8.42219140E-02-4.76120054E-02
 9  1-5.12105787E-02-9.05392475E-02-4.75291509E-02-7.24692197E-03-1.22214968E-02
 9  2-4.16575106E-02-7.25064663E-02 0.00000000E+00 3.47556350E-02-6.19286812E-02
 9  3-1.01743186E-01 0.00000000E+00 8.67990922E-02-9.18650009E-02-1.87430587E-01
 9  4 0.00000000E+00-1.98431207E-03-7.13125647E-03 9.11556854E-03 1.59521920E-02
 9  5 0.00000000E+00 0.00000000E+00-2.22121094E-02-3.83509033E-02 2.75726304E-02
 9  6 2.53408003E-01 0.00000000E+00 1.07315010E-01 5.07424114E-02 4.31274353E-01
 9  7 0.00000000E+00 2.50372904E-01 1.73580736E-02 4.85064970E-01 0.00000000E+00
 9  8-7.75224216E-03 1.07042674E-02-2.95202528E-03 1.31056758E-02 0.00000000E+00
 9  9 0.00000000E+00-2.29610851E-02-5.95878257E-02-1.59571552E-02-2.29610851E-02
 9 10-5.95878257E-02-1.59571552E-02
10  1-1.54247981E-03-5.03600913E-03 2.63481143E-02-5.52089478E-02-9.64901447E-02
10  2 3.20118167E-01 7.14989226E-03 0.00000000E+00 4.05906058E-01 4.79365236E-01
10  3 1.95626174E-02 0.00000000E+00 2.56479557E-01 1.95070077E-01 3.18027448E-02
10  4 0.00000000E+00-2.26087606E-02 1.26467230E-02 9.96203763E-03-2.52419389E-03
10  5 0.00000000E+00 0.00000000E+00 6.56747291E-02 1.18070125E-01 3.09882120E-01
10  6 3.84648722E-02 0.00000000E+00-4.94402260E-01 5.12092019E-01 6.72749067E-02
10  7 0.00000000E+00-2.86964429E-01 1.87816853E-01 3.75166899E-02 0.00000000E+00
10  8 2.61995054E-02-9.53545744E-03-1.66640479E-02-5.60632374E-03 0.00000000E+00
10  9 0.00000000E+00 2.55115007E-02 4.36211550E-02 1.44742127E-02 2.55115007E-02
10 10 4.36211550E-02 1.44742127E-02
11  1 1.84152449E-01 6.41787008E-01 2.42349379E-01 6.23713796E-02 1.11571068E-01
11  2 1.17963734E-01-3.03890327E-01 0.00000000E+00-5.74656110E-01 1.30846090E-01
11  3-4.66825196E-01 0.00000000E+00-1.96282698E-01 1.44473569E-01-2.86504225E-02
11  4 0.00000000E+00-2.93308441E-02 7.38272952E-02-4.44964511E-02-9.59592583E-02
11  5 0.00000000E+00 0.00000000E+00 1.82335202E-02 3.72245761E-02-2.23920153E-02
11  6 1.03247155E-02 0.00000000E+00-2.66873361E-01 1.18336804E-02-1.27479243E-02
11  7 0.00000000E+00 1.41392726E-01-1.43367212E-01 5.57737781E-02 0.00000000E+00
11  8-4.67296285E-02 4.21631805E-02 4.56644796E-03 3.80718143E-02 0.00000000E+00
11  9 0.00000000E+00 2.74750625E-04 6.59859021E-03 4.37718158E-02 2.74750625E-04
11 10 6.59859021E-03 4.37718158E-02
12  1 0.00000000E+00 0.00000000E+00 0.00000000E+00 0.00000000E+00 0.00000000E+00
12  2 0.00000000E+00 0.00000000E+00-1.09754481E-01 0.00000000E+00 0.00000000E+00
12  3 0.00000000E+00-1.30909842E-01 0.00000000E+00 0.00000000E+00 0.00000000E+00
12  4-1.97328228E-02 0.00000000E+00 0.00000000E+00 0.00000000E+00 0.00000000E+00
12  5 6.85429517E-02 1.68654075E-02 0.00000000E+00 0.00000000E+00 0.00000000E+00
12  6 0.00000000E+00 3.68011287E-01 0.00000000E+00 0.00000000E+00 0.00000000E+00
12  7 6.42765730E-01 0.00000000E+00 0.00000000E+00 0.00000000E+00 2.19916370E-01
12  8 0.00000000E+00 0.00000000E+00 0.00000000E+00 0.00000000E+00-2.20954007E-01
12  9 5.62417980E-02 1.33980830E-01 5.08267154E-01 2.22358013E-01-1.33980830E-01
12 10-5.08267154E-01-2.22358013E-01
13  1 4.39203077E-02 1.96024315E-01 2.98775976E-02-1.77595126E-03-4.94198410E-03
13  2 7.53036648E-03-3.90462892E-02 0.00000000E+00 6.70853191E-02 2.48506708E-02
13  3-6.94252850E-02 0.00000000E+00 3.69005019E-03 2.92496093E-02-3.36619784E-02
13  4 0.00000000E+00 2.63367098E-02 1.22631879E-02-3.85998977E-02-4.57717077E-02
13  5 0.00000000E+00 0.00000000E+00-9.89499268E-02-1.82876187E-01 1.84067657E-01
13  6-1.28735159E-01 0.00000000E+00 1.00154310E+00 2.32708761E-01-2.33119943E-01
13  7 0.00000000E+00 6.03728074E-02 3.59040533E-01 6.11490993E-02 0.00000000E+00
13  8 4.26457786E-02 8.48972079E-02-1.27542986E-01 6.77713912E-02 0.00000000E+00
13  9 0.00000000E+00-1.23662037E-01-4.65013847E-01-2.43329677E-01-1.23662037E-01
13 10-4.65013847E-01-2.43329677E-01
14  1-4.48166397E-02-7.62112868E-02-6.21893030E-03 3.82658384E-02 7.36023915E-02
14  2-4.90940731E-02 1.84833084E-01 0.00000000E+00-5.20039973E-01-1.29899520E-01
14  3 3.12247956E-01 0.00000000E+00 7.90696182E-02 2.70496081E-01-3.93298308E-01
14  4 0.00000000E+00-1.08286477E-01 4.06890899E-02 6.75973872E-02 2.48026039E-03
14  5 0.00000000E+00 0.00000000E+00 1.70625748E-02 4.38689120E-02 2.01086687E-01
14  6-4.63646332E-03 0.00000000E+00-5.12439396E-01 4.55108041E-01 5.26505991E-03
14  7 0.00000000E+00 9.27107140E-01-7.13718377E-01-8.48777683E-02 0.00000000E+00
14  8-1.56015568E-01 1.34243560E-01 2.17720078E-02 1.51449143E-02 0.00000000E+00
14  9 0.00000000E+00-7.91445492E-02-3.46001433E-01 7.33152204E-02-7.91445492E-02
14 10-3.46001433E-01 7.33152204E-02
15  1 0.00000000E+00 0.00000000E+00 0.00000000E+00 0.00000000E+00 0.00000000E+00
15  2 0.00000000E+00 0.00000000E+00-2.95256666E-01 0.00000000E+00 0.00000000E+00
15  3 0.00000000E+00-4.84814770E-01 0.00000000E+00 0.00000000E+00 0.00000000E+00
15  4 4.95446256E-01 0.00000000E+00 0.00000000E+00 0.00000000E+00 0.00000000E+00
15  5 2.42021103E-02 2.49976399E-02 0.00000000E+00 0.00000000E+00 0.00000000E+00
15  6 0.00000000E+00-2.06614083E-01 0.00000000E+00 0.00000000E+00 0.00000000E+00
15  7-3.53467571E-01 0.00000000E+00 0.00000000E+00 0.00000000E+00 1.10467303E+00
15  8 0.00000000E+00 0.00000000E+00 0.00000000E+00 0.00000000E+00-1.28040443E-01
15  9 4.42755885E-02 3.07058028E-02 3.48819063E-01 1.43346965E-01-3.07058028E-02
15 10-3.48819063E-01-1.43346965E-01
16  1-6.68389035E-02-5.02668174E-01-5.39416258E-02-2.76391338E-02-4.79386682E-02
16  2-9.01534096E-02-9.17992140E-02 0.00000000E+00 2.09692453E-01-1.55212214E-01
16  3-1.90508415E-01 0.00000000E+00 1.12121508E-01 1.99964350E-01 5.26056566E-01
16  4 0.00000000E+00-3.81581144E-02-2.76857091E-02 6.58438236E-02 4.58076286E-02
16  5 0.00000000E+00 0.00000000E+00 2.62844289E-02 5.06755520E-02 5.66134641E-02
16  6-3.40630619E-01 0.00000000E+00-3.42443429E-01 1.59722257E-01-5.51509763E-01
16  7 0.00000000E+00-3.24215291E-02-3.70174523E-01 8.35512978E-01 0.00000000E+00
16  8-8.26011235E-02-1.91511022E-02 1.01752226E-01 7.08216647E-04 0.00000000E+00
16  9 0.00000000E+00 2.76913990E-03 1.13232036E-01 7.32000065E-02 2.76913990E-03
16 10 1.13232036E-01 7.32000065E-02
17  1-1.17156439E-02 1.24647008E-01 1.34996480E-01 2.91287732E-02 5.18111592E-02
17  2 1.07078703E-01 1.71486488E-01 0.00000000E+00-2.52373102E-01 1.93305194E-01
17  3 2.99054443E-01 0.00000000E+00 2.13909736E-02-4.94809153E-01-7.03654138E-01
17  4 0.00000000E+00 7.49239492E-02-3.71865920E-02-3.77373573E-02-2.58386325E-02
17  5 0.00000000E+00 0.00000000E+00 3.01467945E-02 5.52010139E-02-1.45411210E-01
17  6-1.85701008E-01 0.00000000E+00-3.36666019E-01-2.97246419E-01-3.14123048E-01
17  7 0.00000000E+00 7.11602933E-01 5.35090746E-01 6.03278163E-01 0.00000000E+00
17  8 1.14976938E-01 4.37582266E-02-1.58735165E-01 1.74854053E-01 0.00000000E+00
17  9 0.00000000E+00-2.89881501E-02-2.03853348E-01 8.35474301E-02-2.89881501E-02
17 10-2.03853348E-01 8.35474301E-02
18  1 4.90096436E-02 6.08912223E-01-3.08169140E-01-5.15658752E-02-9.74840711E-02
18  2-1.64305890E-01-5.32473876E-02 0.00000000E+00 6.76203990E-01-3.18621357E-01
18  3-1.04835937E-01 0.00000000E+00-8.04631598E-01 6.61014327E-01-9.45441633E-02
18  4 0.00000000E+00-3.74679447E-02 9.87026003E-02-6.12346557E-02-9.63817166E-02
18  5 0.00000000E+00 0.00000000E+00 3.35985955E-02 6.80884761E-02-7.96004821E-02
18  6 5.02737131E-02 0.00000000E+00-6.08001793E-01-1.37781591E-01 3.30120910E-02
18  7 0.00000000E+00 9.58505324E-01 5.00248664E-01-1.48590522E-01 0.00000000E+00
18  8 7.10615965E-03 1.92311509E-01-1.99417669E-01 8.54318144E-02 0.00000000E+00
18  9 0.00000000E+00-3.71807085E-02-3.34025542E-01 4.55948545E-03-3.71807085E-02
18 10-3.34025542E-01 4.55948545E-03
19  1-1.17890228E-01-9.88022581E-01 3.49520517E-01 1.10660415E-02 2.45021293E-02
19  2 6.15091132E-03-1.14013057E-01 0.00000000E+00-2.41040034E-01 1.06518304E-02
19  3-2.25014331E-01 0.00000000E+00 6.20534266E-01-3.37001513E-01 1.13440710E+00
19  4 0.00000000E+00 1.16687210E-03-7.00279392E-02 6.88610671E-02 1.49453448E-01
19  5 0.00000000E+00 0.00000000E+00 1.14630650E-02 2.66605439E-02-4.70882474E-03
19  6 6.21060087E-03 0.00000000E+00-2.97411343E-01 3.13567974E-02 7.24059142E-02
19  7 0.00000000E+00 8.31298182E-01 4.21680708E-01-6.99431021E-01 0.00000000E+00
19  8 1.24022806E-01 1.31747184E-01-2.55769990E-01-3.29492873E-01 0.00000000E+00
19  9 0.00000000E+00-7.05095011E-02-5.03617782E-01 4.93509475E-02-7.05095011E-02
19 10-5.03617782E-01 4.93509475E-02
20  1 0.00000000E+00 0.00000000E+00 0.00000000E+00 0.00000000E+00 0.00000000E+00
20  2 0.00000000E+00 0.00000000E+00 2.16190261E-01 0.00000000E+00 0.00000000E+00
20  3 0.00000000E+00 4.76317791E-01 0.00000000E+00 0.00000000E+00 0.00000000E+00
20  4-1.29911811E+00 0.00000000E+00 0.00000000E+00 0.00000000E+00 0.00000000E+00
20  5 1.71746533E-01 3.33628226E-02 0.00000000E+00 0.00000000E+00 0.00000000E+00
20  6 0.00000000E+00-1.57359242E-01 0.00000000E+00 0.00000000E+00 0.00000000E+00
20  7-1.90060858E-01 0.00000000E+00 0.00000000E+00 0.00000000E+00 1.72890568E+00
20  8 0.00000000E+00 0.00000000E+00 0.00000000E+00 0.00000000E+00-1.94164214E-01
20  9 2.07189790E-01 3.29299029E-02 5.06223969E-01 2.99325300E-01-3.29299029E-02
20 10-5.06223969E-01-2.99325300E-01
21  1 0.00000000E+00 0.00000000E+00 0.00000000E+00 0.00000000E+00 0.00000000E+00
21  2 0.00000000E+00 0.00000000E+00 2.89141648E-02 0.00000000E+00 0.00000000E+00
21  3 0.00000000E+00-3.39113435E-02 0.00000000E+00 0.00000000E+00 0.00000000E+00
21  4 8.54662880E-02 0.00000000E+00 0.00000000E+00 0.00000000E+00 0.00000000E+00
21  5-2.76138693E-01 1.14664105E-01 0.00000000E+00 0.00000000E+00 0.00000000E+00
21  6 0.00000000E+00 8.67139827E-02 0.00000000E+00 0.00000000E+00 0.00000000E+00
21  7-3.90283733E-02 0.00000000E+00 0.00000000E+00 0.00000000E+00 5.06930718E-01
21  8 0.00000000E+00 0.00000000E+00 0.00000000E+00 0.00000000E+00 5.27743606E-01
21  9 7.18785083E-01-2.50813931E-02 2.13114990E-01 3.45800061E-01 2.50813931E-02
21 10-2.13114990E-01-3.45800061E-01
22  1-6.36582536E-03 5.70976556E-02 3.61037229E-01 6.07446390E-02 1.29368070E-01
22  2-1.41895635E-01 6.35285685E-03 0.00000000E+00-1.23647233E+00-3.19002037E-01
22  3 7.76461088E-02 0.00000000E+00 3.44911427E+00 2.18657425E+00-2.54427700E-01
22  4 0.00000000E+00-1.50366478E-01 1.03003962E-01 4.73625162E-02 1.30526054E-01
22  5 0.00000000E+00 0.00000000E+00-9.40796967E-03-1.67578690E-02-1.18566955E-01
22  6-6.41541880E-02 0.00000000E+00 2.41216890E-01 1.54902384E-01 3.41769799E-02
22  7 0.00000000E+00-2.93247597E+00 1.95566971E+00 3.56289895E-01 0.00000000E+00
22  8 1.32551063E-01-1.65922244E-01 3.33711813E-02-2.38805966E-01 0.00000000E+00
22  9 0.00000000E+00 1.02718960E-02 1.92886679E-01-1.29780617E-01 1.02718960E-02
22 10 1.92886679E-01-1.29780617E-01
23  1 2.12191867E-02 8.95592221E-01-6.29208171E-01-9.32465858E-03-2.40433833E-02
23  2 8.00255336E-02-3.54429790E-02 0.00000000E+00 3.26633318E-01 1.51243994E-01
23  3 7.42082146E-02 0.00000000E+00-1.41624795E+00-7.35965019E-01-8.28466853E-01
23  4 0.00000000E+00-3.98059335E-02 2.59677390E-01-2.19871457E-01 2.55287701E-01
23  5 0.00000000E+00 0.00000000E+00 2.29965389E-02 4.53700942E-02-1.04866464E-02
23  6-1.18480855E-01 0.00000000E+00-4.35139428E-01-1.80266843E-01-2.51743551E-02
23  7 0.00000000E+00 2.03357689E+00-5.64976822E-01 2.60182339E-01 0.00000000E+00
23  8 3.51365785E-02 1.84644577E-01-2.19781156E-01-5.99278634E-01 0.00000000E+00
23  9 0.00000000E+00 7.96101922E-02 1.06987455E-01-5.08114099E-01 7.96101922E-02
23 10 1.06987455E-01-5.08114099E-01
24  1 0.00000000E+00 0.00000000E+00 0.00000000E+00 0.00000000E+00 0.00000000E+00
24  2 0.00000000E+00 0.00000000E+00-2.31211997E-02 0.00000000E+00 0.00000000E+00
24  3 0.00000000E+00-3.90810905E-03 0.00000000E+00 0.00000000E+00 0.00000000E+00
24  4-2.00810517E-01 0.00000000E+00 0.00000000E+00 0.00000000E+00 0.00000000E+00
24  5 7.23810552E-02 2.18608613E-02 0.00000000E+00 0.00000000E+00 0.00000000E+00
24  6 0.00000000E+00-2.39360636E-01 0.00000000E+00 0.00000000E+00 0.00000000E+00
24  7-3.11736443E-01 0.00000000E+00 0.00000000E+00 0.00000000E+00 1.89145744E+00
24  8 0.00000000E+00 0.00000000E+00 0.00000000E+00 0.00000000E+00 3.27407761E-02
24  9-1.57729288E-01-1.25185880E-01-1.74467399E-01 2.22585864E+00 1.25185880E-01
24 10 1.74467399E-01-2.22585864E+00
25  1-4.65043556E-02-4.71542194E-01 4.87700339E-01 3.73320246E-03 9.48900238E-03
25  2-1.39767708E-02 3.74756696E-02 0.00000000E+00-1.33872913E-01-4.29592961E-02
25  3-7.50899359E-03 0.00000000E+00 4.22827328E-01 7.36117685E-02 3.54738857E-01
25  4 0.00000000E+00 3.31145575E-03-1.02852905E-01 9.95414496E-02-1.01238851E-01
25  5 0.00000000E+00 0.00000000E+00 6.12052775E-02 1.27015148E-01-9.73139416E-02
25  6 9.28501253E-02 0.00000000E+00-1.22883183E+00-1.57907018E-01 5.92452447E-02
25  7 0.00000000E+00 3.06628698E+00 1.09237908E+00-5.77836015E-01 0.00000000E+00
25  8-1.21104133E-01-2.45053249E-04 1.21349186E-01 1.78577216E-01 0.00000000E+00
25  9 0.00000000E+00 8.57746186E-02 7.75903016E-03-1.65019817E+00 8.57746186E-02
25 10 7.75903016E-03-1.65019817E+00
26  1-1.13449105E-01 1.72125557E-01 1.99959616E+00-5.50585635E-02-1.10750596E-01
26  2-9.56672729E-02 1.05593085E-01 0.00000000E+00 9.62808480E-01-2.03687670E-01
26  3 2.15374577E-01 0.00000000E+00-1.88012836E+00 8.21315022E-01-1.07060146E+00
26  4 0.00000000E+00 1.41121813E-02 4.54311637E-02-5.95433450E-02 1.01366547E-01
26  5 0.00000000E+00 0.00000000E+00-1.21573977E-02-2.74830242E-02-1.29140227E-02
26  6 2.53675722E-02 0.00000000E+00 2.92589204E-01-5.93815868E-02 6.59391331E-02
26  7 0.00000000E+00-9.17692798E-01 1.04265691E-01 7.49060744E-02 0.00000000E+00
26  8 7.80975856E-02 1.84056320E-02-9.65032176E-02-1.24421054E-01 0.00000000E+00
26  9 0.00000000E+00 3.16302189E-02 1.72022339E-01 1.68486777E-03 3.16302189E-02
26 10 1.72022339E-01 1.68486777E-03
27  1 0.00000000E+00 0.00000000E+00 0.00000000E+00 0.00000000E+00 0.00000000E+00
27  2 0.00000000E+00 0.00000000E+00 1.12489051E-01 0.00000000E+00 0.00000000E+00
27  3 0.00000000E+00 6.65502245E-02 0.00000000E+00 0.00000000E+00 0.00000000E+00
27  4-5.45862089E-01 0.00000000E+00 0.00000000E+00 0.00000000E+00 0.00000000E+00
27  5-2.09484435E-01-4.70646190E-01 0.00000000E+00 0.00000000E+00 0.00000000E+00
27  6 0.00000000E+00 1.45499392E-01 0.00000000E+00 0.00000000E+00 0.00000000E+00
27  7 3.04683976E-02 0.00000000E+00 0.00000000E+00 0.00000000E+00 1.84857508E+00
27  8 0.00000000E+00 0.00000000E+00 0.00000000E+00 0.00000000E+00 6.41475800E-01
27  9-5.62544636E-01 1.49078687E-02 1.26970516E+00 2.02536374E-01-1.49078687E-02
27 10-1.26970516E+00-2.02536374E-01
28  1 5.10135363E-03 5.17999229E-01-3.12789138E-01 1.73139792E-03-6.71044205E-04
28  2-8.72905967E-02-5.74898507E-02 0.00000000E+00 2.28941704E-01-1.69241918E-01
28  3-3.29595887E-02 0.00000000E+00-1.97547520E+00-6.71607361E-01-2.36003518E-01
28  4 0.00000000E+00 2.27620443E-01-5.97973156E-02-1.67823128E-01 1.27723146E-01
28  5 0.00000000E+00 0.00000000E+00 2.05126382E-02 4.35758857E-02 7.73190595E-02
28  6-5.14875282E-02 0.00000000E+00-6.24537855E-01 5.24506415E-02 2.63536342E-02
28  7 0.00000000E+00 2.97965256E+00-7.94879479E-01-3.38623109E-01 0.00000000E+00
28  8 6.60040600E-01-9.81950786E-01 3.21910186E-01-1.53744030E-02 0.00000000E+00
28  9 0.00000000E+00-3.80018557E-02-7.33148533E-01-1.32946710E-01-3.80018557E-02
28 10-7.33148533E-01-1.32946710E-01
29  1-5.54831116E-02-1.37773934E-01-1.59642285E-01 3.08474792E-02 6.26543143E-02
29  2-1.35739469E-01 1.42408116E-02 0.00000000E+00-4.81819999E-01-2.42920071E-01
29  3-4.47362418E-02 0.00000000E+00 2.52628359E-01 1.68197733E-01 1.40531000E-01
29  4 0.00000000E+00 2.03629486E-01-5.50720195E-02-1.48557467E-01-7.75269683E-02
29  5 0.00000000E+00 0.00000000E+00 1.48219332E-02 3.33728595E-02 1.74159128E-02
29  6 5.42953372E-02 0.00000000E+00-2.11586434E-01 1.17090541E-01 1.40540884E-02
29  7 0.00000000E+00-8.75778352E-01-9.50228794E-01 2.59728732E-01 0.00000000E+00
29  8 7.08382204E-01 2.48262429E-01-9.56644633E-01 2.53590464E-01 0.00000000E+00
29  9 0.00000000E+00-1.32702062E-02 1.04074950E+00-9.35703454E-02-1.32702062E-02
29 10 1.04074950E+00-9.35703454E-02
30  1 0.00000000E+00 0.00000000E+00 0.00000000E+00 0.00000000E+00 0.00000000E+00
30  2 0.00000000E+00 0.00000000E+00 5.38788036E-02 0.00000000E+00 0.00000000E+00
30  3 0.00000000E+00 3.15003036E-02 0.00000000E+00 0.00000000E+00 0.00000000E+00
30  4-3.00767003E-01 0.00000000E+00 0.00000000E+00 0.00000000E+00 0.00000000E+00
30  5-1.98128236E-01 8.67523098E-01 0.00000000E+00 0.00000000E+00 0.00000000E+00
30  6 0.00000000E+00 9.21038837E-02 0.00000000E+00 0.00000000E+00 0.00000000E+00
30  7 1.15085169E-02 0.00000000E+00 0.00000000E+00 0.00000000E+00 7.80788189E-01
30  8 0.00000000E+00 0.00000000E+00 0.00000000E+00 0.00000000E+00 2.32524728E-01
30  9-4.65976898E-01-2.87884809E-02 6.44757597E-01-4.19869981E-02 2.87884809E-02
30 10-6.44757597E-01 4.19869981E-02
31  1-6.25297380E-02 1.32548918E+00-3.43752687E-01-8.52859801E-03-1.90566018E-02
31  2 7.12917455E-03 1.30730879E-02 0.00000000E+00 2.80781343E-01 1.22534773E-02
31  3 3.67844194E-02 0.00000000E+00-1.30346292E+00-2.09559604E-02-1.06349397E+00
31  4 0.00000000E+00 7.98679782E-02-7.68139332E-01 6.88271354E-01-3.84589071E-01
31  5 0.00000000E+00 0.00000000E+00-4.74148101E-03-9.47992108E-03-9.97215432E-02
31  6 1.09882173E-01 0.00000000E+00 7.64333794E-02 4.35667447E-02-1.34674523E-01
31  7 0.00000000E+00 3.44723235E-01-4.71275779E-01 4.75328966E-01 0.00000000E+00
31  8 1.92561525E-01-6.18863731E-02-1.30675152E-01-5.50335286E-01 0.00000000E+00
31  9 0.00000000E+00 4.81109979E-02-7.45292872E-02 1.26709423E-01 4.81109979E-02
31 10-7.45292872E-02 1.26709423E-01
32  1 0.00000000E+00 0.00000000E+00 0.00000000E+00 0.00000000E+00 0.00000000E+00
32  2 0.00000000E+00 0.00000000E+00-4.37180263E-02 0.00000000E+00 0.00000000E+00
32  3 0.00000000E+00-1.54008526E-02 0.00000000E+00 0.00000000E+00 0.00000000E+00
32  4 2.87216416E-01 0.00000000E+00 0.00000000E+00 0.00000000E+00 0.00000000E+00
32  5 8.96844449E-01 1.00552747E-01 0.00000000E+00 0.00000000E+00 0.00000000E+00
32  6 0.00000000E+00-1.46378245E-01 0.00000000E+00 0.00000000E+00 0.00000000E+00
32  7 3.48147375E-01 0.00000000E+00 0.00000000E+00 0.00000000E+00-4.67673268E-01
32  8 0.00000000E+00 0.00000000E+00 0.00000000E+00 0.00000000E+00 6.68279148E-01
32  9 3.18724487E-02-2.19059972E-01 6.63897566E-01-6.58321406E-01 2.19059972E-01
32 10-6.63897566E-01 6.58321406E-01
33  1-3.09981631E-01 1.63641808E+00-5.06045906E-01-5.50497845E-03-1.10838714E-02
33  2 1.35560359E-02-1.59983696E-02 0.00000000E+00 1.43449037E-01 4.11487213E-02
33  3-4.69600498E-02 0.00000000E+00-9.02205816E-01 2.79141361E-02-4.97835810E-01
33  4 0.00000000E+00-6.92180611E-02-3.70587743E-01 4.39805804E-01 8.01783142E-01
33  5 0.00000000E+00 0.00000000E+00 8.85343470E-05 1.26365127E-03 1.35377140E-02
33  6-1.98466802E-01 0.00000000E+00-2.22011900E-02-8.51770583E-02 2.44061984E-01
33  7 0.00000000E+00 2.00380523E-01-2.00732134E-01-1.05453546E-01 0.00000000E+00
33  8-7.08338448E-02 1.43446066E-01-7.26122213E-02 4.19133199E-01 0.00000000E+00
33  9 0.00000000E+00-7.72360925E-02 2.48424942E-01-6.82174988E-02-7.72360925E-02
33 10 2.48424942E-01-6.82174988E-02
34  1-2.84543438E-01 5.16538668E-01 1.78424833E-02 1.50649175E-02 3.50286143E-02
34  2 7.45348575E-03 1.01097367E-01 0.00000000E+00-5.21422299E-01-5.93625809E-02
34  3-7.74959227E-02 0.00000000E+00 1.94531676E+00 1.25080468E+00-9.95059084E-02
34  4 0.00000000E+00 8.05119493E-01-3.67439008E-01-4.37680485E-01 5.43854111E-02
34  5 0.00000000E+00 0.00000000E+00 2.83465063E-02 4.31172155E-02 6.94020573E-01
34  6 2.14150770E-01 0.00000000E+00-1.57565699E-01-3.95994039E-01-1.85086989E-01
34  7 0.00000000E+00-1.62785739E+00 1.32387551E+00 2.84218302E-01 0.00000000E+00
34  8-5.64097517E-01 3.06058215E-01 2.58039302E-01-1.71826662E-01 0.00000000E+00
34  9 0.00000000E+00 3.56589044E-02 7.72566970E-02-2.75063681E-02 3.56589044E-02
34 10 7.72566970E-02-2.75063681E-02
35  1 1.53632515E-01-1.58967521E-01 4.28401624E-01 4.19535293E-04-1.16217270E-04
35  2-3.42289359E-02-6.36056647E-02 0.00000000E+00 6.47110684E-02-5.02374788E-02
35  3 8.97115873E-02 0.00000000E+00-8.44136694E-02 9.54642876E-02-2.43213487E-01
35  4 0.00000000E+00-6.24288456E-02-3.30185305E-02 9.54473760E-02-2.62598077E-01
35  5 0.00000000E+00 0.00000000E+00-4.16232802E-03 2.36734317E-03 4.38229515E-01
35  6-8.45173926E-01 0.00000000E+00-2.07459167E-01-7.25528458E-01 1.10414481E+00
35  7 0.00000000E+00-3.64721735E-03 3.83136257E-01-4.01101599E-01 0.00000000E+00
35  8 2.79035774E-02-6.58810704E-02 3.79774930E-02-1.52674871E-01 0.00000000E+00
35  9 0.00000000E+00-6.25369178E-01 1.08189850E+00-5.72434204E-01-6.25369178E-01
35 10 1.08189850E+00-5.72434204E-01
36  1 0.00000000E+00 0.00000000E+00 0.00000000E+00 0.00000000E+00 0.00000000E+00
36  2 0.00000000E+00 0.00000000E+00-6.45263758E-02 0.00000000E+00 0.00000000E+00
36  3 0.00000000E+00 6.83341727E-02 0.00000000E+00 0.00000000E+00 0.00000000E+00
36  4-1.54762603E-01 0.00000000E+00 0.00000000E+00 0.00000000E+00 0.00000000E+00
36  5-3.65222493E-01-4.77409756E-02 0.00000000E+00 0.00000000E+00 0.00000000E+00
36  6 0.00000000E+00-9.81488515E-01 0.00000000E+00 0.00000000E+00 0.00000000E+00
36  7 1.52406857E+00 0.00000000E+00 0.00000000E+00 0.00000000E+00-7.45020809E-01
36  8 0.00000000E+00 0.00000000E+00 0.00000000E+00 0.00000000E+00-1.93337520E-01
36  9-2.54492931E-03-5.45923562E-01 1.14300727E+00-1.08603444E+00 5.45923562E-01
36 10-1.14300727E+00 1.08603444E+00
37  1-2.41846400E-01 1.43048114E-01-1.30823572E-02-3.29437303E-03-2.36728295E-03
37  2 3.53574032E-02 1.08905396E-02 0.00000000E+00-1.37243201E-01 4.97840650E-02
37  3-2.27759524E-02 0.00000000E+00 6.76769686E-01 4.96250817E-01 1.94932471E-01