!   H2C=C=O is the first of a series of cumulene inputs, up to the C8 case
!   They can be used as energy/gradient or hessian or MRPT calculations
!   to see how these scale with increasing active space size.
!   3 core, 5 filled valence, 5 active (6 e-)...49 AOs in 6-31G(d)
!   The active space generates 52 determinants in C2v.
!
!   FINAL E= -151.7936793811, 2 iters    26 response iterations.
!      FREQ=  447.84,  499.99,  639.54, 1078.65,
!      FREQ= 1220.80, 1566.57, 2355.43, 3376.21, 3477.22
!   the a1 mode at 2355 is the most intense, namely 14.862
!
!   If run as MRMP, expect E(MP2)= -152.1433605170
!
!   This job takes 9 seconds on a 2.66 GHz Cloverton (27 Apr 2015)
!   results have not changed appreciably since 2006
!
!   ------------------------------------------------------------------
!   The first cumulene is linear H2C=C=O...namely C2v
!   The higher cumulenes bend in the CH2 plane (odd number of C's), or
!   perpendicular to the CH2 plane (even number of C's), both being Cs.
!
!   cumulenes:         -- filled --
!                #AOs  core  valence     #orb  # e-   # determinants
!        H2C2O     49    3     5           5    6               52
!        H2C3O     64    4     6           7    8              617
!        H2C4O     79    5     7           9   10            7,956
!        H2C5O     94    6     8          11   12          106,772
!        H2C6O    109    7     9          13   14        1,472,528
!        H2C7O    124    8    10          15   16       20,705,225
!        H2C8O    139    9    11          17   18      295,490,500
!               MEMDDI    ------ MWORDS, for -------
!                (all)    gradient    MRMP   hessian
!        H2C4O     5          2          8        2
!        H2C5O    10         25         25       25
!        H2C6O    15         35         35      310
!        H2C7O    20        440        440     5150
!        H2C8O               hasn't been tried yet.
!
!    a more realistic sequence growing basis as well as active space
!    can be found in the small silicon surface models.
!
!   -------------------------------------------------------------------
!
!
 $contrl scftyp=mcscf runtyp=hessian mplevl=0 nzvar=8 $end
 $system mwords=2 memddi=15 parall=.true. $end
 $trans  dirtrf=.true. $end
 $basis  gbasis=n31 ngauss=6 ndfunc=1 $end
 $mcscf  cistep=aldet soscf=.true. $end
 $det    stsym=A1 ncore=8 nact=5 nels=6 $end
 $guess  guess=moread norb=49 $end
 $zmat   izmat(1)=1,3,1,  1,3,2,  1,3,4,  1,4,5,
         2,1,3,4,  2,2,3,4,  4,4,3,2,1,  5,3,4,5 $end
 $libe   apts(1)=0,1,0 $end
 $force  method=analytic nvib=2 $end
 $data
H2C=C=O cumulene
Cnv 2

H           1.0    .0000000000    .9325512593   -.2698333354
C           6.0    .0000000000    .0000000000    .2563161123
C           6.0    .0000000000    .0000000000   1.5731189752
O           8.0    .0000000000    .0000000000   2.7282400261
 $end

H2C=C=O cumulene ...  Mon Nov 17 20:26:13 2003 ...  E(MCSCF)= -151.7936793807
 $VEC   
 1  1 4.88348605E-06 7.50062953E-05 4.88348605E-06 7.50062953E-05 3.87291912E-05
 1  2 6.80635752E-05 0.00000000E+00 0.00000000E+00 4.79920253E-04-6.19775300E-04
 1  3 0.00000000E+00 0.00000000E+00-4.05273542E-05 1.33998076E-05-4.74194829E-07
 1  4 6.03403490E-04 0.00000000E+00 0.00000000E+00 0.00000000E+00-6.45652472E-05
 1  5 3.05771038E-04 0.00000000E+00 0.00000000E+00-2.76106382E-04-8.32474616E-04
 1  6 0.00000000E+00 0.00000000E+00-9.85250848E-04-3.66515181E-05-2.73079494E-06
 1  7-1.75622873E-03 0.00000000E+00 0.00000000E+00 0.00000000E+00 9.94656821E-01
 1  8 2.11363993E-02 0.00000000E+00 0.00000000E+00-2.00034824E-03 5.57110433E-03
 1  9 0.00000000E+00 0.00000000E+00-5.36628141E-04-4.15373570E-03-4.30674913E-03
 1 10-3.19309296E-03 0.00000000E+00 0.00000000E+00 0.00000000E+00
 2  1-2.21931528E-04 2.27500725E-04-2.21931528E-04 2.27500725E-04 6.12004595E-03
 2  2-5.88050611E-04 0.00000000E+00 0.00000000E+00-7.07709041E-04 1.14203925E-02
 2  3 0.00000000E+00 0.00000000E+00 4.82909610E-03-1.51696065E-04-1.28322394E-04
 2  4-8.61361660E-04 0.00000000E+00 0.00000000E+00 0.00000000E+00 9.95824663E-01
 2  5 2.79408765E-02 0.00000000E+00 0.00000000E+00 1.63011899E-03-8.33671669E-03
 2  6 0.00000000E+00 0.00000000E+00 1.15081722E-02-2.55045580E-03-2.71359031E-03
 2  7 1.04453709E-03 0.00000000E+00 0.00000000E+00 0.00000000E+00-2.58728689E-04
 2  8 1.52132648E-03 0.00000000E+00 0.00000000E+00 9.18913866E-05-1.19414923E-02
 2  9 0.00000000E+00 0.00000000E+00 4.32367569E-03 9.78748251E-04 1.04356095E-03
 2 10 2.98296798E-05 0.00000000E+00 0.00000000E+00 0.00000000E+00
 3  1-1.20493805E-04 1.95026517E-03-1.20493805E-04 1.95026517E-03 9.95469490E-01
 3  2 2.81751093E-02 0.00000000E+00 0.00000000E+00 1.06330561E-03-1.10635099E-02
 3  3 0.00000000E+00 0.00000000E+00-1.05773831E-03-2.59072186E-03-2.22046269E-03
 3  4-1.63042796E-03 0.00000000E+00 0.00000000E+00 0.00000000E+00-6.87838029E-03
 3  5-3.10431679E-04 0.00000000E+00 0.00000000E+00 5.25166715E-04 4.42210207E-03
 3  6 0.00000000E+00 0.00000000E+00-1.07182851E-03-3.91852923E-05-2.29171539E-04
 3  7-6.84380341E-04 0.00000000E+00 0.00000000E+00 0.00000000E+00 5.41942376E-05
 3  8 2.32390759E-04 0.00000000E+00 0.00000000E+00-6.63972707E-05-1.03726066E-03
 3  9 0.00000000E+00 0.00000000E+00 3.60893529E-04 8.43424984E-05 1.08054494E-04
 3 10 1.54792361E-04 0.00000000E+00 0.00000000E+00 0.00000000E+00
 4  1 2.72999015E-03-2.76359347E-03 2.72999015E-03-2.76359347E-03-8.38265334E-03
 4  2 1.69047043E-02 0.00000000E+00 0.00000000E+00 1.16870279E-02-4.87034946E-02
 4  3 0.00000000E+00 0.00000000E+00-2.28766127E-02-4.44300018E-05 1.59471328E-04
 4  4-3.59952133E-04 0.00000000E+00 0.00000000E+00 0.00000000E+00-1.15335926E-01
 4  5 2.10494819E-01 0.00000000E+00 0.00000000E+00 1.95629222E-01 7.49125424E-02
 4  6 0.00000000E+00 0.00000000E+00-7.54625851E-02-2.24014938E-02-1.98781154E-02
 4  7 3.67784661E-02 0.00000000E+00 0.00000000E+00 0.00000000E+00-2.01410282E-01
 4  8 4.39065592E-01 0.00000000E+00 0.00000000E+00-1.49785790E-01 4.16619260E-01
 4  9 0.00000000E+00 0.00000000E+00-5.49901521E-02-5.40868213E-03-4.67214119E-03
 4 10 1.69692999E-02 0.00000000E+00 0.00000000E+00 0.00000000E+00
 5  1 9.65913756E-02 1.97092394E-02 9.65913756E-02 1.97092394E-02-1.77009266E-01
 5  2 3.23440935E-01 0.00000000E+00 0.00000000E+00 1.11146035E-01 2.59058074E-01
 5  3 0.00000000E+00 0.00000000E+00 9.99239111E-03-1.47998986E-02 8.91168787E-03
 5  4 1.86845865E-02 0.00000000E+00 0.00000000E+00 0.00000000E+00-1.18059748E-01
 5  5 2.44097874E-01 0.00000000E+00 0.00000000E+00-2.39817660E-01 1.46957089E-01
 5  6 0.00000000E+00 0.00000000E+00-4.54764065E-02-6.47784914E-03-8.64771116E-03
 5  7 1.22196585E-02 0.00000000E+00 0.00000000E+00 0.00000000E+00 4.26893759E-02
 5  8-1.02316661E-01 0.00000000E+00 0.00000000E+00-2.75962293E-02-9.19627769E-02
 5  9 0.00000000E+00 0.00000000E+00-2.51919336E-02-2.04898351E-03-1.03964216E-03
 5 10-4.10671637E-04 0.00000000E+00 0.00000000E+00 0.00000000E+00
 6  1 8.40636795E-02 4.51414686E-02 8.40636795E-02 4.51414686E-02-6.04893174E-02
 6  2 1.12961478E-01 0.00000000E+00 0.00000000E+00-1.16179278E-01 1.82654700E-01
 6  3 0.00000000E+00 0.00000000E+00-1.59479420E-02-5.45894917E-03 1.58019016E-02
 6  4-3.18811766E-03 0.00000000E+00 0.00000000E+00 0.00000000E+00 1.08764102E-01
 6  5-2.37427511E-01 0.00000000E+00 0.00000000E+00-1.65431092E-01-1.60631997E-01
 6  6 0.00000000E+00 0.00000000E+00 5.50732300E-02 1.31986298E-02 1.19614304E-02
 6  7-1.21241127E-02 0.00000000E+00 0.00000000E+00 0.00000000E+00-9.49465363E-02
 6  8 2.33994008E-01 0.00000000E+00 0.00000000E+00 4.71726543E-01 3.27222413E-01
 6  9 0.00000000E+00 0.00000000E+00 2.53170403E-01 1.29792396E-02 1.14935573E-02
 6 10-2.54820448E-02 0.00000000E+00 0.00000000E+00 0.00000000E+00
 7  1-1.65874592E-01-1.07539043E-01-1.65874592E-01-1.07539043E-01 5.06172914E-02
 7  2-1.00752343E-01 0.00000000E+00 0.00000000E+00 3.78490221E-01-1.14792270E-01
 7  3 0.00000000E+00 0.00000000E+00 1.45305790E-01 3.47300366E-03-3.49523352E-02
 7  4 1.57638956E-02 0.00000000E+00 0.00000000E+00 0.00000000E+00-5.71255333E-02
 7  5 1.24924517E-01 0.00000000E+00 0.00000000E+00-3.27890581E-01 1.35993044E-01
 7  6 0.00000000E+00 0.00000000E+00-1.66142344E-02 3.13780268E-03 1.49363633E-03
 7  7-2.61174193E-03 0.00000000E+00 0.00000000E+00 0.00000000E+00-2.01379597E-02
 7  8 5.16809248E-02 0.00000000E+00 0.00000000E+00 2.51790168E-01 8.75001647E-02
 7  9 0.00000000E+00 0.00000000E+00 1.36328948E-01 6.11568050E-03 6.08831514E-03
 7 10-1.37858025E-02 0.00000000E+00 0.00000000E+00 0.00000000E+00
 8  1-2.33213751E-01-1.47804091E-01 2.33213751E-01 1.47804091E-01 0.00000000E+00
 8  2 0.00000000E+00 0.00000000E+00 4.39616530E-01 0.00000000E+00 0.00000000E+00
 8  3 0.00000000E+00 2.40953691E-01 0.00000000E+00 0.00000000E+00 0.00000000E+00
 8  4 0.00000000E+00 0.00000000E+00 0.00000000E+00-2.25404077E-02 0.00000000E+00
 8  5 0.00000000E+00 0.00000000E+00 9.56616500E-02 0.00000000E+00 0.00000000E+00
 8  6 0.00000000E+00 6.62791074E-03 0.00000000E+00 0.00000000E+00 0.00000000E+00
 8  7 0.00000000E+00 0.00000000E+00 0.00000000E+00-1.74150636E-02 0.00000000E+00
 8  8 0.00000000E+00 0.00000000E+00-9.64695472E-03 0.00000000E+00 0.00000000E+00
 8  9 0.00000000E+00-1.49996384E-02 0.00000000E+00 0.00000000E+00 0.00000000E+00
 8 10 0.00000000E+00 0.00000000E+00 0.00000000E+00-4.23238261E-03
 9  1 0.00000000E+00 0.00000000E+00 0.00000000E+00 0.00000000E+00 0.00000000E+00
 9  2 0.00000000E+00 3.40149589E-01 0.00000000E+00 0.00000000E+00 0.00000000E+00
 9  3 2.69276575E-01 0.00000000E+00 0.00000000E+00 0.00000000E+00 0.00000000E+00
 9  4 0.00000000E+00 0.00000000E+00 2.50987339E-02 0.00000000E+00 0.00000000E+00
 9  5 0.00000000E+00 4.07997686E-01 0.00000000E+00 0.00000000E+00 0.00000000E+00
 9  6 2.14012219E-01 0.00000000E+00 0.00000000E+00 0.00000000E+00 0.00000000E+00
 9  7 0.00000000E+00 0.00000000E+00-9.19205380E-03 0.00000000E+00 0.00000000E+00
 9  8 0.00000000E+00 2.36278364E-01 0.00000000E+00 0.00000000E+00 0.00000000E+00
 9  9 9.88208821E-02 0.00000000E+00 0.00000000E+00 0.00000000E+00 0.00000000E+00
 9 10 0.00000000E+00 0.00000000E+00-2.66214533E-02 0.00000000E+00
10  1 0.00000000E+00 0.00000000E+00 0.00000000E+00 0.00000000E+00 0.00000000E+00
10  2 0.00000000E+00 2.99508659E-01 0.00000000E+00 0.00000000E+00 0.00000000E+00
10  3 2.94747386E-01 0.00000000E+00 0.00000000E+00 0.00000000E+00 0.00000000E+00
10  4 0.00000000E+00 0.00000000E+00 8.72278358E-03 0.00000000E+00 0.00000000E+00
10  5 0.00000000E+00-1.31938590E-02 0.00000000E+00 0.00000000E+00 0.00000000E+00
10  6 3.78674063E-02 0.00000000E+00 0.00000000E+00 0.00000000E+00 0.00000000E+00
10  7 0.00000000E+00 0.00000000E+00-5.74170207E-02 0.00000000E+00 0.00000000E+00
10  8 0.00000000E+00-5.62653320E-01 0.00000000E+00 0.00000000E+00 0.00000000E+00
10  9-4.08154226E-01 0.00000000E+00 0.00000000E+00 0.00000000E+00 0.00000000E+00
10 10 0.00000000E+00 0.00000000E+00 2.58577991E-02 0.00000000E+00
11  1 3.55596625E-02 3.07839302E-02-3.55596625E-02-3.07839302E-02 0.00000000E+00
11  2 0.00000000E+00 0.00000000E+00-3.15066184E-02 0.00000000E+00 0.00000000E+00
11  3 0.00000000E+00-5.91771786E-02 0.00000000E+00 0.00000000E+00 0.00000000E+00
11  4 0.00000000E+00 0.00000000E+00 0.00000000E+00 1.51570549E-02 0.00000000E+00
11  5 0.00000000E+00 0.00000000E+00 3.20438483E-01 0.00000000E+00 0.00000000E+00
11  6 0.00000000E+00 1.67539835E-01 0.00000000E+00 0.00000000E+00 0.00000000E+00
11  7 0.00000000E+00 0.00000000E+00 0.00000000E+00 4.02929395E-02 0.00000000E+00
11  8 0.00000000E+00 0.00000000E+00 5.40147061E-01 0.00000000E+00 0.00000000E+00
11  9 0.00000000E+00 3.39922317E-01 0.00000000E+00 0.00000000E+00 0.00000000E+00
11 10 0.00000000E+00 0.00000000E+00 0.00000000E+00-4.02926596E-02
12  1-5.89094891E-02-2.61790171E-02 5.89094891E-02 2.61790171E-02 0.00000000E+00
12  2 0.00000000E+00 0.00000000E+00 5.48953162E-02 0.00000000E+00 0.00000000E+00
12  3 0.00000000E+00 1.65116162E-01 0.00000000E+00 0.00000000E+00 0.00000000E+00
12  4 0.00000000E+00 0.00000000E+00 0.00000000E+00-2.31580359E-02 0.00000000E+00
12  5 0.00000000E+00 0.00000000E+00-5.80534152E-01 0.00000000E+00 0.00000000E+00
12  6 0.00000000E+00-3.78319147E-01 0.00000000E+00 0.00000000E+00 0.00000000E+00
12  7 0.00000000E+00 0.00000000E+00 0.00000000E+00-4.05387257E-02 0.00000000E+00
12  8 0.00000000E+00 0.00000000E+00 7.13058419E-01 0.00000000E+00 0.00000000E+00
12  9 0.00000000E+00 1.50819407E-02 0.00000000E+00 0.00000000E+00 0.00000000E+00
12 10 0.00000000E+00 0.00000000E+00 0.00000000E+00 2.88969454E-02
13  1 0.00000000E+00 0.00000000E+00 0.00000000E+00 0.00000000E+00 0.00000000E+00
13  2 0.00000000E+00 4.31211388E-01 0.00000000E+00 0.00000000E+00 0.00000000E+00
13  3 3.40308780E-01 0.00000000E+00 0.00000000E+00 0.00000000E+00 0.00000000E+00
13  4 0.00000000E+00 0.00000000E+00-1.41777397E-02 0.00000000E+00 0.00000000E+00
13  5 0.00000000E+00-5.53259638E-01 0.00000000E+00 0.00000000E+00 0.00000000E+00
13  6-3.78285726E-01 0.00000000E+00 0.00000000E+00 0.00000000E+00 0.00000000E+00
13  7 0.00000000E+00 0.00000000E+00-3.26512345E-02 0.00000000E+00 0.00000000E+00
13  8 0.00000000E+00 5.81666322E-01 0.00000000E+00 0.00000000E+00 0.00000000E+00
13  9-2.38278778E-02 0.00000000E+00 0.00000000E+00 0.00000000E+00 0.00000000E+00
13 10 0.00000000E+00 0.00000000E+00 4.36810582E-02 0.00000000E+00
14  1 1.78991578E-02 1.36921517E+00 1.78991578E-02 1.36921517E+00 1.29716459E-01
14  2-2.07424442E-01 0.00000000E+00 0.00000000E+00 5.72926010E-02-1.27470752E+00
14  3 0.00000000E+00 0.00000000E+00 9.23218687E-01 2.94710650E-03 1.71852336E-03
14  4-1.76826479E-03 0.00000000E+00 0.00000000E+00 0.00000000E+00-2.70912824E-02
14  5-1.03338265E-02 0.00000000E+00 0.00000000E+00 1.73663399E-02 4.96164645E-01
14  6 0.00000000E+00 0.00000000E+00 9.91976007E-01-4.39231349E-03 1.28062646E-02
14  7-2.03107469E-02 0.00000000E+00 0.00000000E+00 0.00000000E+00 4.99582311E-02
14  8-8.94640301E-03 0.00000000E+00 0.00000000E+00 7.71035082E-02-1.06614411E+00
14  9 0.00000000E+00 0.00000000E+00 3.79148497E-01 3.77673783E-02 4.13360445E-02
14 10 1.06874885E-02 0.00000000E+00 0.00000000E+00 0.00000000E+00
15  1-1.75367781E-02 1.94238303E+00 1.75367781E-02-1.94238303E+00 0.00000000E+00
15  2 0.00000000E+00 0.00000000E+00 3.60341359E-01 0.00000000E+00 0.00000000E+00
15  3 0.00000000E+00 1.88638485E+00 0.00000000E+00 0.00000000E+00 0.00000000E+00
15  4 0.00000000E+00 0.00000000E+00 0.00000000E+00 3.46870829E-03 0.00000000E+00
15  5 0.00000000E+00 0.00000000E+00 2.04815521E-02 0.00000000E+00 0.00000000E+00
15  6 0.00000000E+00-5.96095628E-01 0.00000000E+00 0.00000000E+00 0.00000000E+00
15  7 0.00000000E+00 0.00000000E+00 0.00000000E+00-2.11114416E-02 0.00000000E+00
15  8 0.00000000E+00 0.00000000E+00 4.65016568E-02 0.00000000E+00 0.00000000E+00
15  9 0.00000000E+00 1.22694802E-01 0.00000000E+00 0.00000000E+00 0.00000000E+00
15 10 0.00000000E+00 0.00000000E+00 0.00000000E+00-2.27893600E-03
16  1 3.22150582E-02 7.02597607E-01 3.22150582E-02 7.02597607E-01 1.84423994E-02
16  2 1.73535800E-01 0.00000000E+00 0.00000000E+00 3.27285675E-01-2.55364387E+00
16  3 0.00000000E+00 0.00000000E+00-1.96642508E-01 1.39744030E-02 2.06345252E-02
16  4 1.71123211E-02 0.00000000E+00 0.00000000E+00 0.00000000E+00 3.45908432E-02
16  5 5.24262548E-02 0.00000000E+00 0.00000000E+00-1.07393252E-01-1.34674624E+00
16  6 0.00000000E+00 0.00000000E+00-2.64745890E+00-1.01719126E-02-2.08375874E-03
16  7 1.41524998E-02 0.00000000E+00 0.00000000E+00 0.00000000E+00-1.14913828E-01
16  8 3.01693680E-02 0.00000000E+00 0.00000000E+00-1.16110875E-01 2.68803102E+00
16  9 0.00000000E+00 0.00000000E+00-9.41997181E-01-8.60733608E-02-8.69964897E-02
16 10-7.79360670E-03 0.00000000E+00 0.00000000E+00 0.00000000E+00
17  1 7.88282166E-02 2.86587976E-01 7.88282166E-02 2.86587976E-01-9.57738118E-02
17  2-6.62705909E-02 0.00000000E+00 0.00000000E+00-9.63956005E-03 4.27298630E+00
17  3 0.00000000E+00 0.00000000E+00 3.42640285E+00-1.86466380E-02 3.03271118E-02
17  4-2.05070515E-02 0.00000000E+00 0.00000000E+00 0.00000000E+00 1.16098959E-01
17  5-1.80905182E-01 0.00000000E+00 0.00000000E+00 2.10449819E-01-3.63636485E+00
17  6 0.00000000E+00 0.00000000E+00 3.60111612E+00-1.35748622E-02-8.72387558E-03
17  7-1.06903226E-03 0.00000000E+00 0.00000000E+00 0.00000000E+00 2.82924741E-02
17  8 1.66222090E-01 0.00000000E+00 0.00000000E+00-1.48282935E-01-1.68784640E+00
17  9 0.00000000E+00 0.00000000E+00 2.13372235E-01 6.51733405E-02 6.57588823E-02
17 10 5.43255706E-02 0.00000000E+00 0.00000000E+00 0.00000000E+00
18  1 0.00000000E+00 0.00000000E+00 0.00000000E+00 0.00000000E+00 0.00000000E+00
18  2 0.00000000E+00-5.88069354E-01 0.00000000E+00 0.00000000E+00 0.00000000E+00
18  3 4.08593272E-01 0.00000000E+00 0.00000000E+00 0.00000000E+00 0.00000000E+00
18  4 0.00000000E+00 0.00000000E+00-5.78450012E-02 0.00000000E+00 0.00000000E+00
18  5 0.00000000E+00-8.10702385E-01 0.00000000E+00 0.00000000E+00 0.00000000E+00
18  6 8.99560194E-01 0.00000000E+00 0.00000000E+00 0.00000000E+00 0.00000000E+00
18  7 0.00000000E+00 0.00000000E+00 4.14074146E-02 0.00000000E+00 0.00000000E+00
18  8 0.00000000E+00-1.05392288E-01 0.00000000E+00 0.00000000E+00 0.00000000E+00
18  9-3.13818837E-02 0.00000000E+00 0.00000000E+00 0.00000000E+00 0.00000000E+00
18 10 0.00000000E+00 0.00000000E+00 6.44970978E-02 0.00000000E+00
19  1 1.34715462E-01 3.00305664E-01-1.34715462E-01-3.00305664E-01 0.00000000E+00
19  2 0.00000000E+00 0.00000000E+00-1.38337332E-01 0.00000000E+00 0.00000000E+00
19  3 0.00000000E+00 3.07037052E-01 0.00000000E+00 0.00000000E+00 0.00000000E+00
19  4 0.00000000E+00 0.00000000E+00 0.00000000E+00-8.87190211E-03 0.00000000E+00
19  5 0.00000000E+00 0.00000000E+00-9.42102546E-01 0.00000000E+00 0.00000000E+00
19  6 0.00000000E+00 1.20091615E+00 0.00000000E+00 0.00000000E+00 0.00000000E+00
19  7 0.00000000E+00 0.00000000E+00 0.00000000E+00-1.52407680E-02 0.00000000E+00
19  8 0.00000000E+00 0.00000000E+00-4.94260644E-02 0.00000000E+00 0.00000000E+00
19  9 0.00000000E+00-1.94066948E-01 0.00000000E+00 0.00000000E+00 0.00000000E+00
19 10 0.00000000E+00 0.00000000E+00 0.00000000E+00 9.17709150E-02
20  1-5.83076151E-02 6.30410889E-02-5.83076151E-02 6.30410889E-02-1.66384641E-02
20  2 3.45916973E-01 0.00000000E+00 0.00000000E+00 5.79467858E-01 1.97810558E+00
20  3 0.00000000E+00 0.00000000E+00 2.59136331E-01 6.13560542E-03 1.40584042E-03
20  4-1.35437485E-03 0.00000000E+00 0.00000000E+00 0.00000000E+00 1.13106093E-01
20  5 1.55117687E-01 0.00000000E+00 0.00000000E+00-3.46497515E-01-6.07514277E-01
20  6 0.00000000E+00 0.00000000E+00 3.20818975E+00-5.86703040E-02-6.02347893E-02
20  7 2.74778900E-01 0.00000000E+00 0.00000000E+00 0.00000000E+00 2.45757474E-02
20  8-9.22417908E-03 0.00000000E+00 0.00000000E+00-3.54321037E-01-1.84610670E+00
20  9 0.00000000E+00 0.00000000E+00 6.05415705E-01 3.99654955E-02 4.00531234E-02
20 10-1.85732863E-01 0.00000000E+00 0.00000000E+00 0.00000000E+00
21  1 0.00000000E+00 0.00000000E+00 0.00000000E+00 0.00000000E+00 0.00000000E+00
21  2 0.00000000E+00-8.25359411E-01 0.00000000E+00 0.00000000E+00 0.00000000E+00
21  3 1.37753329E+00 0.00000000E+00 0.00000000E+00 0.00000000E+00 0.00000000E+00
21  4 0.00000000E+00 0.00000000E+00-1.88523146E-02 0.00000000E+00 0.00000000E+00
21  5 0.00000000E+00 5.49088309E-01 0.00000000E+00 0.00000000E+00 0.00000000E+00
21  6-1.26795139E+00 0.00000000E+00 0.00000000E+00 0.00000000E+00 0.00000000E+00
21  7 0.00000000E+00 0.00000000E+00 8.10646728E-02 0.00000000E+00 0.00000000E+00
21  8 0.00000000E+00 7.58988600E-02 0.00000000E+00 0.00000000E+00 0.00000000E+00
21  9 2.21769644E-01 0.00000000E+00 0.00000000E+00 0.00000000E+00 0.00000000E+00
21 10 0.00000000E+00 0.00000000E+00-5.57667625E-02 0.00000000E+00
22  1-5.14126715E-01-2.57856409E-01-5.14126715E-01-2.57856409E-01-8.37494639E-02
22  2-6.08937993E-01 0.00000000E+00 0.00000000E+00 2.78766727E-01 1.10046396E+00
22  3 0.00000000E+00 0.00000000E+00-7.72501981E-01 7.92106282E-02-1.46112287E-01
22  4-1.74635739E-01 0.00000000E+00 0.00000000E+00 0.00000000E+00 5.01845681E-02
22  5-7.69896258E-01 0.00000000E+00 0.00000000E+00 2.50769395E-01 1.06259309E+00
22  6 0.00000000E+00 0.00000000E+00-5.55405782E-01-5.05241114E-02-1.04958403E-01
22  7 6.83786412E-02 0.00000000E+00 0.00000000E+00 0.00000000E+00-1.27721134E-02
22  8 1.60354221E-01 0.00000000E+00 0.00000000E+00-1.02172548E-01-1.54062329E-01
22  9 0.00000000E+00 0.00000000E+00 5.89742528E-02 5.55257548E-02 5.10528934E-02
22 10-1.27086553E-02 0.00000000E+00 0.00000000E+00 0.00000000E+00
23  1 4.28520635E-01 5.93726581E-01-4.28520635E-01-5.93726581E-01 0.00000000E+00
23  2 0.00000000E+00 0.00000000E+00-5.33173828E-01 0.00000000E+00 0.00000000E+00
23  3 0.00000000E+00 1.90988534E+00 0.00000000E+00 0.00000000E+00 0.00000000E+00
23  4 0.00000000E+00 0.00000000E+00 0.00000000E+00 1.42698312E-01 0.00000000E+00
23  5 0.00000000E+00 0.00000000E+00 2.92276668E-01 0.00000000E+00 0.00000000E+00
23  6 0.00000000E+00-5.95351189E-01 0.00000000E+00 0.00000000E+00 0.00000000E+00
23  7 0.00000000E+00 0.00000000E+00 0.00000000E+00 4.73981172E-03 0.00000000E+00
23  8 0.00000000E+00 0.00000000E+00 4.65003412E-01 0.00000000E+00 0.00000000E+00
23  9 0.00000000E+00-5.47837344E-01 0.00000000E+00 0.00000000E+00 0.00000000E+00
23 10 0.00000000E+00 0.00000000E+00 0.00000000E+00 3.71278047E-03
24  1-5.66201181E-02-3.69158815E-02-5.66201181E-02-3.69158815E-02-2.09706987E-02
24  2-6.32224808E-02 0.00000000E+00 0.00000000E+00 1.17438474E-01 3.41396634E-01
24  3 0.00000000E+00 0.00000000E+00-1.83884175E-02 2.64490451E-02-3.17633491E-03
24  4-1.15093271E-01 0.00000000E+00 0.00000000E+00 0.00000000E+00 2.35830668E-02
24  5 8.75571070E-01 0.00000000E+00 0.00000000E+00 7.23799425E-01-2.72424662E-01
24  6 0.00000000E+00 0.00000000E+00-1.29075325E-01 3.35658006E-02 2.41474846E-02
24  7 1.94859746E-01 0.00000000E+00 0.00000000E+00 0.00000000E+00 3.41880410E-02
24  8-4.43875743E-01 0.00000000E+00 0.00000000E+00-2.58968577E-01 2.19363564E-01
24  9 0.00000000E+00 0.00000000E+00 1.30490318E+00-1.81364468E-01-1.84415445E-01
24 10-9.55377875E-02 0.00000000E+00 0.00000000E+00 0.00000000E+00
25  1-5.08534778E-01 1.65641813E+00 5.08534778E-01-1.65641813E+00 0.00000000E+00
25  2 0.00000000E+00 0.00000000E+00-1.07043413E+00 0.00000000E+00 0.00000000E+00
25  3 0.00000000E+00 2.31670259E+00 0.00000000E+00 0.00000000E+00 0.00000000E+00
25  4 0.00000000E+00 0.00000000E+00 0.00000000E+00-1.79770065E-01 0.00000000E+00
25  5 0.00000000E+00 0.00000000E+00 6.65390727E-02 0.00000000E+00 0.00000000E+00
25  6 0.00000000E+00-7.13679035E-01 0.00000000E+00 0.00000000E+00 0.00000000E+00
25  7 0.00000000E+00 0.00000000E+00 0.00000000E+00 1.39014351E-01 0.00000000E+00
25  8 0.00000000E+00 0.00000000E+00-1.58645486E-01 0.00000000E+00 0.00000000E+00
25  9 0.00000000E+00 3.60014400E-01 0.00000000E+00 0.00000000E+00 0.00000000E+00
25 10 0.00000000E+00 0.00000000E+00 0.00000000E+00-2.51304004E-02
26  1 0.00000000E+00 0.00000000E+00 0.00000000E+00 0.00000000E+00 0.00000000E+00
26  2 0.00000000E+00 1.50595120E-01 0.00000000E+00 0.00000000E+00 0.00000000E+00
26  3 3.90036334E-01 0.00000000E+00 0.00000000E+00 0.00000000E+00 0.00000000E+00
26  4 0.00000000E+00 0.00000000E+00-6.85812118E-02 0.00000000E+00 0.00000000E+00
26  5 0.00000000E+00 1.48375518E-02 0.00000000E+00 0.00000000E+00 0.00000000E+00
26  6-9.77733872E-01 0.00000000E+00 0.00000000E+00 0.00000000E+00 0.00000000E+00
26  7 0.00000000E+00 0.00000000E+00-7.87477528E-02 0.00000000E+00 0.00000000E+00
26  8 0.00000000E+00-7.95947498E-01 0.00000000E+00 0.00000000E+00 0.00000000E+00
26  9 1.43103928E+00 0.00000000E+00 0.00000000E+00 0.00000000E+00 0.00000000E+00
26 10 0.00000000E+00 0.00000000E+00 3.18637989E-02 0.00000000E+00
27  1 6.37182804E-01-1.31953975E+00 6.37182804E-01-1.31953975E+00 2.62586347E-02
27  2-1.07972888E+00 0.00000000E+00 0.00000000E+00 6.65381189E-01 1.92650349E+00
27  3 0.00000000E+00 0.00000000E+00-1.08711205E+00-1.52736111E-01 1.03803628E-01
27  4-1.81603914E-01 0.00000000E+00 0.00000000E+00 0.00000000E+00-5.15745632E-03
27  5-2.83024534E-01 0.00000000E+00 0.00000000E+00 1.43102379E-01 7.56534141E-01
27  6 0.00000000E+00 0.00000000E+00-3.25618951E-01 1.15220971E-03-2.67736105E-02
27  7 3.04089372E-02 0.00000000E+00 0.00000000E+00 0.00000000E+00 2.09909692E-03
27  8 4.17823126E-02 0.00000000E+00 0.00000000E+00 5.22130246E-02-1.05777960E-01
27  9 0.00000000E+00 0.00000000E+00 1.36512859E-02 2.36340653E-02 9.94536620E-03
27 10 8.42062419E-03 0.00000000E+00 0.00000000E+00 0.00000000E+00
28  1 4.22400979E-01 4.78171840E-01-4.22400979E-01-4.78171840E-01 0.00000000E+00
28  2 0.00000000E+00 0.00000000E+00-2.13940434E-01 0.00000000E+00 0.00000000E+00
28  3 0.00000000E+00 1.86460369E+00 0.00000000E+00 0.00000000E+00 0.00000000E+00
28  4 0.00000000E+00 0.00000000E+00 0.00000000E+00 1.57677919E-01 0.00000000E+00
28  5 0.00000000E+00 0.00000000E+00 7.79553797E-02 0.00000000E+00 0.00000000E+00
28  6 0.00000000E+00-1.57284158E+00 0.00000000E+00 0.00000000E+00 0.00000000E+00
28  7 0.00000000E+00 0.00000000E+00 0.00000000E+00-1.83496755E-01 0.00000000E+00
28  8 0.00000000E+00 0.00000000E+00-5.58839786E-01 0.00000000E+00 0.00000000E+00
28  9 0.00000000E+00 1.40131890E+00 0.00000000E+00 0.00000000E+00 0.00000000E+00
28 10 0.00000000E+00 0.00000000E+00 0.00000000E+00 1.16430526E-01
29  1-1.82096252E-01-1.62303072E-01-1.82096252E-01-1.62303072E-01-5.00182018E-02
29  2-1.45993163E+00 0.00000000E+00 0.00000000E+00-1.65913849E-01 7.17877537E+00
29  3 0.00000000E+00 0.00000000E+00 2.88791487E+00 1.52907677E-03-2.56680008E-01
29  4 7.85291447E-02 0.00000000E+00 0.00000000E+00 0.00000000E+00 8.25976552E-03
29  5 1.16846668E+00 0.00000000E+00 0.00000000E+00-5.18433334E-01-6.57404959E+00
29  6 0.00000000E+00 0.00000000E+00 3.71175664E+00 1.71725635E-01 8.57498822E-02
29  7-1.67764718E-01 0.00000000E+00 0.00000000E+00 0.00000000E+00-9.11231963E-03
29  8-2.53021145E-01 0.00000000E+00 0.00000000E+00 1.00988123E-01 1.72889278E-01
29  9 0.00000000E+00 0.00000000E+00-6.80624224E-01-5.80446893E-02-7.62829017E-02
29 10-4.17401469E-02 0.00000000E+00 0.00000000E+00 0.00000000E+00
30  1-1.38099205E-01 1.67664554E-01-1.38099205E-01 1.67664554E-01-4.51932628E-02
30  2 5.08633583E-01 0.00000000E+00 0.00000000E+00 6.83728020E-01 1.51340391E+00
30  3 0.00000000E+00 0.00000000E+00 5.63439914E-01 1.20421682E-01 3.07257078E-02
30  4-3.69260423E-02 0.00000000E+00 0.00000000E+00 0.00000000E+00-2.23451913E-02
30  5 3.11941323E-01 0.00000000E+00 0.00000000E+00 5.37202262E-01-1.62557934E+00
30  6 0.00000000E+00 0.00000000E+00 1.82585714E+00 8.90523663E-02 8.04983161E-02
30  7-1.78677089E-01 0.00000000E+00 0.00000000E+00 0.00000000E+00 5.73882392E-02
30  8-1.64618473E-01 0.00000000E+00 0.00000000E+00 7.56172437E-01-8.61903036E-01
30  9 0.00000000E+00 0.00000000E+00-5.41056938E-01-2.26204938E-02-1.99897122E-02
30 10 2.33757921E-01 0.00000000E+00 0.00000000E+00 0.00000000E+00
31  1 0.00000000E+00 0.00000000E+00 0.00000000E+00 0.00000000E+00 0.00000000E+00
31  2 0.00000000E+00 2.61563068E-01 0.00000000E+00 0.00000000E+00 0.00000000E+00
31  3-1.50914337E-01 0.00000000E+00 0.00000000E+00 0.00000000E+00 0.00000000E+00
31  4 0.00000000E+00 0.00000000E+00-4.84816450E-01 0.00000000E+00 0.00000000E+00
31  5 0.00000000E+00-9.99105398E-02 0.00000000E+00 0.00000000E+00 0.00000000E+00
31  6 2.05018203E-01 0.00000000E+00 0.00000000E+00 0.00000000E+00 0.00000000E+00
31  7 0.00000000E+00 0.00000000E+00 5.38958137E-01 0.00000000E+00 0.00000000E+00
31  8 0.00000000E+00-9.26562209E-02 0.00000000E+00 0.00000000E+00 0.00000000E+00
31  9-1.78185444E-01 0.00000000E+00 0.00000000E+00 0.00000000E+00 0.00000000E+00
31 10 0.00000000E+00 0.00000000E+00-3.82735328E-01 0.00000000E+00
32  1 0.00000000E+00 0.00000000E+00 0.00000000E+00 0.00000000E+00 0.00000000E+00
32  2 0.00000000E+00 0.00000000E+00 0.00000000E+00 0.00000000E+00 0.00000000E+00
32  3 0.00000000E+00 0.00000000E+00 0.00000000E+00 0.00000000E+00 0.00000000E+00
32  4 0.00000000E+00 4.14954078E-01 0.00000000E+00 0.00000000E+00 0.00000000E+00
32  5 0.00000000E+00 0.00000000E+00 0.00000000E+00 0.00000000E+00 0.00000000E+00
32  6 0.00000000E+00 0.00000000E+00 0.00000000E+00 0.00000000E+00 0.00000000E+00
32  7 0.00000000E+00 7.05381035E-01 0.00000000E+00 0.00000000E+00 0.00000000E+00
32  8 0.00000000E+00 0.00000000E+00 0.00000000E+00 0.00000000E+00 0.00000000E+00
32  9 0.00000000E+00 0.00000000E+00 0.00000000E+00 0.00000000E+00 0.00000000E+00
32 10 0.00000000E+00 4.35505840E-01 0.00000000E+00 0.00000000E+00
33  1-1.10187921E-01-1.27440107E-01-1.10187921E-01-1.27440107E-01-1.49619056E-02
33  2-1.83932482E-01 0.00000000E+00 0.00000000E+00 1.09947810E-02 5.29374691E-01
33  3 0.00000000E+00 0.00000000E+00-4.05869328E-02-1.29432447E-01 1.37277164E-01
33  4-7.62749606E-03 0.00000000E+00 0.00000000E+00 0.00000000E+00 7.35208989E-04
33  5-1.18774912E-02 0.00000000E+00 0.00000000E+00-1.65670569E-02-4.70555333E-01
33  6 0.00000000E+00 0.00000000E+00-1.59899251E-01-6.12145053E-01 6.64660469E-01
33  7-2.68823920E-02 0.00000000E+00 0.00000000E+00 0.00000000E+00-1.03051265E-02
33  8-1.75280990E-01 0.00000000E+00 0.00000000E+00 8.48616792E-03 5.91277368E-01
33  9 0.00000000E+00 0.00000000E+00-1.87650977E-01-4.93444305E-01 4.34692441E-01
33 10-6.12676405E-02 0.00000000E+00 0.00000000E+00 0.00000000E+00
34  1 6.84277602E-03 2.46372066E-02 6.84277602E-03 2.46372066E-02 1.85347331E-02
34  2 2.82607127E-01 0.00000000E+00 0.00000000E+00-4.03300989E-02-5.05406844E+00
34  3 0.00000000E+00 0.00000000E+00-2.03418368E+00 3.16525294E-02 2.18677314E-01
34  4-1.43711608E-01 0.00000000E+00 0.00000000E+00 0.00000000E+00-3.84537527E-02
34  5-1.00221064E+00 0.00000000E+00 0.00000000E+00-3.50758306E-02 7.54008094E-01
34  6 0.00000000E+00 0.00000000E+00-6.04788493E+00 2.59483643E-01 1.61182672E-01
34  7-1.78944521E-01 0.00000000E+00 0.00000000E+00 0.00000000E+00-1.23118824E-01
34  8-1.86945435E+00 0.00000000E+00 0.00000000E+00-5.11909488E-02 7.34123949E+00
34  9 0.00000000E+00 0.00000000E+00-1.68806687E+00-1.96203524E-01-3.54240405E-01