!   H2C=C=C=O...this cumulene is bent, namely Cs.
!   4 core, 6 filled valence, 7 active (8 e-)...64 AOs in 6-31G(d)
!   The active space generates 617 determinants in Cs.
!
!   FINAL E= -189.6444203240, 2 iters    27 response iterations.
!      FREQ=  234.88,  274.57,  469.96,  695.25,  960.60,  966.23,
!      FREQ= 1156.65, 1601.13, 1786.38, 2282.48, 3318.54, 3402.17
!   the a' mode at 2282 is the most intense, namely 16.10
!
!   If run as MRMP, expect E(MP2)= -190.0941823003
!
!   This job takes 62 seconds on a 2.66 GHz Cloverton (27 Apr 2015)
!   results have not changed appreciably since 2006
!
!   ------------------------------------------------------------
!   in the past, the comparison to seminumerical result was
!   anal residual:  2.59  1.42  0.30  0.04  1.40  2.29
!    num residual: 51.47 11.25 10.26  1.63 17.18 56.03
!   anal F.EQ=  234.90  274.58  469.92  695.26  960.59  966.25
!    num F.EQ=  231.42  273.09  468.63  694.98  966.24  968.19
!   anal F.EQ= 1156.66 1601.12 1786.36 2282.45 3318.54 3402.17
!    num F.EQ= 1159.02 1601.10 1786.46 2282.85 3318.60 3401.73
!
 $contrl scftyp=mcscf runtyp=hessian mplevl=0 nzvar=12 $end
 $system mwords=2 memddi=20 parall=.true. $end
 $trans  dirtrf=.true. $end
 $basis  gbasis=n31 ngauss=6 ndfunc=1 $end
 $mcscf  cistep=aldet fullnr=.true. $end
 $det    ncore=10 nact=7 nels=8 $end
 $guess  guess=moread norb=64 $end
 $zmat   izmat(1)=1,3,1,  1,3,2,  1,3,4,  1,4,5,  1,5,6,
         2,1,3,4,  2,2,3,4,  4,4,3,2,1,
         2,3,4,5,  4,5,3,2,1,  2,3,5,6,  4,6,3,2,1 $end
--- $force  method=seminum nvib=2 $end
 $data
H2C=C=C=O bent cumulene
Cs

H           1.0   -.5791157798   -.4603220269    .0000000000
H           1.0    .0912320346   1.2405459004    .0000000000
C           6.0    .2839322536    .1813897727    .0000000000
C           6.0   1.5178241795   -.3397508232    .0000000000
C           6.0   2.7766660791    .0529668125    .0000000000
O           8.0   3.9383840832    .0824263301    .0000000000
 $end

The C2v geometry, has energy -189.6406789467 and one imag.freq. at 225.82i.
I do not have the orbitals for the C2v calculation.  Use of RHF with MVOQ=2
gives orbitals alread in the right order for these cumulenes, usually.

--- $contrl nzvar=10 $end
--- $zmat   izmat(1)=1,3,1,  1,3,2,  1,3,4,  1,4,5,  1,5,6,
---         2,1,3,4,  2,2,3,4,  4,4,3,2,1, 5,3,4,5,  5,4,5,6 $end
--- $libe   apts(1)=0,1,0,  0,1,0 $end
--- $data
---H2C=C=C=O bent cumulene
---Cs
---
---H           1.0    .0000000000    .9157340109   -.3618574828
---C           6.0    .0000000000    .0000000000    .2053741493 
---C           6.0    .0000000000    .0000000000   1.5332370707
---C           6.0    .0000000000    .0000000000   2.8079763225
---O           8.0    .0000000000    .0000000000   3.9771274231
--- $end

--- NATURAL ORBITALS OF MCSCF --- GENERATED AT Mon Jun 12 05:46:00 2006
H2C=C=C=O bent cumulene                                                         
E(MCSCF)=     -189.6444203218, E(NUC)=       88.6394715330
 $VEC   
 1  1-5.46139235E-06-6.14279150E-06 1.23820921E-05-1.30284858E-05 1.71759046E-06
 1  2 3.09644161E-05-2.37893023E-05 3.31668081E-05 0.00000000E+00 1.45030537E-04
 1  3 6.22078171E-06-5.64878900E-05 0.00000000E+00-2.73083788E-05-5.53177518E-05
 1  4 1.23673221E-05 6.47589053E-05 0.00000000E+00 0.00000000E+00 4.85946961E-05
 1  5 6.07822939E-06 3.48539888E-04 2.54907070E-04 0.00000000E+00-5.64328507E-04
 1  6 6.85928583E-05-5.71897735E-05 0.00000000E+00 4.87531494E-04 9.54948321E-05
 1  7 9.02047024E-06 2.47089987E-04 0.00000000E+00 0.00000000E+00-7.17140504E-05
 1  8 3.70010389E-04-2.64935005E-04 2.05527436E-04 0.00000000E+00-8.31196995E-04
 1  9-9.72443106E-04 4.55211121E-05 0.00000000E+00-1.61619548E-03-7.07969927E-05
 1 10-9.85519505E-06-1.69234893E-04 0.00000000E+00 0.00000000E+00 9.94663088E-01
 1 11 2.10720006E-02-1.96373330E-03 1.33512809E-04 0.00000000E+00 5.50790414E-03
 1 12-5.04484087E-04 9.87187355E-05 0.00000000E+00-3.24060894E-03-4.14391418E-03
 1 13-4.29028864E-03-1.51048516E-05 0.00000000E+00 0.00000000E+00
 2  1-9.63504151E-05 1.23165244E-04 2.83392328E-05 5.55326501E-04 1.17964713E-05
 2  2-1.55692604E-04-1.20908265E-04-4.77906204E-05 0.00000000E+00 3.37275321E-04
 2  3 4.17363695E-04-5.68959799E-04 0.00000000E+00 3.88256454E-05 9.62207310E-05
 2  4-1.02449031E-04-1.58312198E-04 0.00000000E+00 0.00000000E+00 7.64472960E-03
 2  5-2.52958495E-04-6.62884913E-04-1.03669057E-03 0.00000000E+00 1.15383957E-02
 2  6 5.19778793E-03 1.39610365E-03 0.00000000E+00-8.98954568E-04-3.03791629E-04
 2  7-2.96425867E-04-2.99705841E-04 0.00000000E+00 0.00000000E+00 9.95872422E-01
 2  8 2.76930077E-02 1.67844145E-03-1.42238900E-03 0.00000000E+00-9.72400338E-03
 2  9 1.05546177E-02 1.90932132E-03 0.00000000E+00 7.82931268E-04-2.51653122E-03
 2 10-2.71279918E-03 4.75783519E-04 0.00000000E+00 0.00000000E+00-2.93351848E-04
 2 11 1.35309076E-03 1.41436909E-04-2.83184027E-04 0.00000000E+00-1.01818979E-02
 2 12 3.91930763E-03-7.30146701E-04 0.00000000E+00-7.36923602E-05 8.37681682E-04
 2 13 8.98468256E-04 2.04851254E-04 0.00000000E+00 0.00000000E+00
 3  1-1.06643699E-04 2.09508411E-03-1.27688943E-04 2.04603133E-03 9.95248340E-01
 3  2 2.75229519E-02 3.16942315E-04-1.48268372E-04 0.00000000E+00-1.15230186E-02
 3  3-7.05467766E-04 3.80595485E-04 0.00000000E+00-1.64870343E-03-1.96574657E-03
 3  4-2.57337857E-03-1.97391019E-04 0.00000000E+00 0.00000000E+00 2.62318729E-02
 3  5 4.90752505E-04 2.91319168E-04-1.35232307E-04 0.00000000E+00 3.32889879E-03
 3  6-1.82062998E-03 5.96343887E-04 0.00000000E+00-5.20789557E-04-3.58690373E-04
 3  7-1.58858025E-04 5.24000724E-05 0.00000000E+00 0.00000000E+00-2.74164651E-04
 3  8-1.42916217E-04 2.64677357E-05 1.42680277E-05 0.00000000E+00 3.08775897E-04
 3  9-5.28429788E-04-1.40069706E-04 0.00000000E+00 1.12117691E-04-2.19326658E-05
 3 10-7.04679123E-05 2.78673104E-05 0.00000000E+00 0.00000000E+00-2.55275214E-05
 3 11-1.27063931E-04 2.74751856E-05 7.81603500E-05 0.00000000E+00 6.08446412E-04
 3 12-1.43056068E-04 5.02203584E-05 0.00000000E+00-8.46738391E-05-7.10501150E-05
 3 13-7.35517163E-05 8.91726719E-07 0.00000000E+00 0.00000000E+00
 4  1 2.52291100E-04 9.57178328E-04-4.09166859E-04-1.24249527E-03-2.69176841E-02
 4  2-1.10143562E-03-5.10491811E-04 8.50413629E-05 0.00000000E+00 4.52914518E-03
 4  3 2.39793368E-03 1.27575987E-03 0.00000000E+00-4.16762487E-04-4.00286049E-04
 4  4-5.23973592E-05 3.37676425E-04 0.00000000E+00 0.00000000E+00 9.95510059E-01
 4  5 2.73176997E-02 6.90587066E-04 3.05182296E-03 0.00000000E+00-1.67809857E-02
 4  6-2.54104522E-03-2.84246651E-03 0.00000000E+00-5.25217158E-04-2.28909840E-03
 4  7-2.48654671E-03-2.82048832E-06 0.00000000E+00 0.00000000E+00-8.82850780E-03
 4  8-3.30727821E-04 3.10033355E-04 1.59011438E-03 0.00000000E+00 7.99286804E-03
 4  9-4.91880243E-03 1.76569336E-04 0.00000000E+00-9.42023788E-04-4.61234064E-04
 4 10-2.12718370E-04-4.81095073E-04 0.00000000E+00 0.00000000E+00-7.49143416E-06
 4 11-1.89201110E-04-2.20211565E-04 3.82935020E-04 0.00000000E+00 1.56216837E-03
 4 12-2.05511868E-04 5.19101872E-05 0.00000000E+00 3.35912950E-05-1.38978233E-04
 4 13-1.47085685E-04-1.20551568E-04 0.00000000E+00 0.00000000E+00
 5  1-7.13523530E-04-5.59021240E-03 1.35896056E-03 1.59310536E-03-1.63047545E-03
 5  2 4.16716716E-03 3.73682198E-03-1.51933686E-05 0.00000000E+00 9.34828911E-03
 5  3-1.59858366E-03-5.58587492E-03 0.00000000E+00-5.26394297E-04 2.24285503E-04
 5  4 2.39881838E-04-6.13433737E-05 0.00000000E+00 0.00000000E+00-1.06957890E-02
 5  5 2.24199261E-02 1.40797948E-02-1.77518756E-03 0.00000000E+00-3.42695572E-02
 5  6-4.42905400E-03-9.64180818E-03 0.00000000E+00 2.97448866E-03-1.43386511E-03
 5  7-3.55979332E-04-2.08049647E-03 0.00000000E+00 0.00000000E+00-1.12722121E-01
 5  8 2.06629079E-01 1.92222376E-01-1.45620330E-02 0.00000000E+00 5.48574703E-02
 5  9-5.92276511E-02-1.27359190E-02 0.00000000E+00 3.52179117E-02-2.10032738E-02
 5 10-1.94023346E-02 1.75533579E-04 0.00000000E+00 0.00000000E+00-2.01796895E-01
 5 11 4.43089658E-01-1.44082314E-01-3.12002411E-02 0.00000000E+00 4.14381618E-01
 5 12-5.30693971E-02-1.69383429E-02 0.00000000E+00 1.76249611E-02-4.49338373E-03
 5 13-4.25497626E-03 2.79241315E-03 0.00000000E+00 0.00000000E+00
 6  1 6.65592035E-02 1.20633140E-02 6.91459017E-02 6.78263975E-03-1.32539273E-01
 6  2 2.54140860E-01 9.30925208E-02-2.82275019E-02 0.00000000E+00 1.94259557E-01
 6  3 8.22568464E-03 7.48772690E-04 0.00000000E+00 1.61069731E-02 4.66551643E-03
 6  4-1.09812330E-02-4.16849100E-03 0.00000000E+00 0.00000000E+00-1.62621344E-01
 6  5 3.06698373E-01-1.07910393E-02 9.80980201E-02 0.00000000E+00 1.90452999E-01
 6  6-1.32002711E-03 2.26338971E-02 0.00000000E+00 1.83241543E-02-5.64925178E-03
 6  7-1.25317236E-02-2.00098405E-03 0.00000000E+00 0.00000000E+00-8.23528141E-02
 6  8 1.69834121E-01-1.73268615E-01-1.73449640E-02 0.00000000E+00 1.03017890E-01
 6  9-3.72273605E-02 2.27448014E-03 0.00000000E+00 1.04629543E-02-4.03233598E-03
 6 10-5.54714807E-03 4.36767688E-03 0.00000000E+00 0.00000000E+00 3.16958302E-02
 6 11-7.67008854E-02-1.50156350E-02 2.11308671E-03 0.00000000E+00-6.30743154E-02
 6 12-1.58452145E-02 6.77999150E-04 0.00000000E+00-1.65466947E-03-1.58566069E-03
 6 13-9.53891239E-04 1.54772513E-04 0.00000000E+00 0.00000000E+00
 7  1-1.21261694E-01-3.86764285E-02-1.08370684E-01-3.73383682E-02 1.41009898E-01
 7  2-2.73980906E-01 3.35983514E-02 7.19280592E-03 0.00000000E+00-2.63599919E-01
 7  3 1.80028625E-02 4.80173822E-03 0.00000000E+00-7.48066882E-03-1.50895911E-02
 7  4 1.22387855E-02-1.85529881E-03 0.00000000E+00 0.00000000E+00-5.21617780E-02
 7  5 9.78321647E-02 2.75007594E-01-3.14823195E-03 0.00000000E+00 6.47138054E-02
 7  6 2.37628767E-02-1.14855523E-02 0.00000000E+00 7.49141967E-03-2.38951617E-03
 7  7-5.14508349E-03 1.57731873E-02 0.00000000E+00 0.00000000E+00-1.18565617E-01
 7  8 2.47283602E-01-1.80971860E-01-6.14917280E-02 0.00000000E+00 1.95927301E-01
 7  9-5.52223388E-02-1.71471972E-02 0.00000000E+00 7.87564382E-03-3.89875660E-03
 7 10-8.04635333E-03 9.20597606E-03 0.00000000E+00 0.00000000E+00 4.74186550E-02
 7 11-1.13316599E-01-8.23189329E-02-9.22929288E-03 0.00000000E+00-1.28485777E-01
 7 12-4.77882591E-02-4.74271064E-04 0.00000000E+00 3.77791040E-03-2.79114217E-03
 7 13-1.90192196E-03 2.49990825E-03 0.00000000E+00 0.00000000E+00
 8  1-7.01393264E-02-3.24153309E-02-5.72759132E-02-3.16539163E-02 2.98384069E-02
 8  2-5.93716733E-02 1.24895247E-01-3.02091054E-02 0.00000000E+00-7.92538742E-02
 8  3 4.62684289E-02-9.51782925E-03 0.00000000E+00 2.74636020E-03-9.98860725E-03
 8  4 2.50116362E-03-6.41526892E-03 0.00000000E+00 0.00000000E+00-5.29563772E-02
 8  5 9.89580810E-02 3.19504482E-03 5.39349912E-02 0.00000000E+00 1.38322880E-01
 8  6 1.60393804E-02 3.25504710E-02 0.00000000E+00-1.57637851E-04 2.86241848E-04
 8  7-4.26992414E-03 2.92850655E-03 0.00000000E+00 0.00000000E+00 6.80706858E-02
 8  8-1.49981777E-01-2.74800393E-01 2.44897975E-02 0.00000000E+00-7.82338303E-02
 8  9 2.54844230E-02 2.61869426E-02 0.00000000E+00-9.02877769E-03 1.13043138E-02
 8 10 1.05320048E-02 4.30335501E-03 0.00000000E+00 0.00000000E+00-8.71628148E-02
 8 11 2.13237563E-01 4.96789945E-01 7.26573142E-02 0.00000000E+00 3.17504442E-01
 8 12 2.66411613E-01 4.15132682E-02 0.00000000E+00-2.83567259E-02 1.24044384E-02
 8 13 1.15548896E-02-5.07067413E-03 0.00000000E+00 0.00000000E+00
 9  1-9.67090326E-02-6.50006483E-02-1.94612969E-01-1.25856380E-01 1.76839267E-02
 9  2-3.36566588E-02 3.42821682E-01-2.39090947E-01 0.00000000E+00-4.41987941E-02
 9  3 1.34761441E-01-1.12153298E-01 0.00000000E+00 9.56114859E-03-2.66833910E-02
 9  4 2.78634795E-03-1.33757051E-02 0.00000000E+00 0.00000000E+00-5.47240873E-02
 9  5 1.11306336E-01-3.21207124E-01 5.50364006E-02 0.00000000E+00 8.04522381E-02
 9  6-4.59819490E-02 3.35898167E-02 0.00000000E+00 2.15451835E-03-1.78410909E-03
 9  7-1.88997807E-03-1.41921154E-02 0.00000000E+00 0.00000000E+00 2.99252409E-02
 9  8-6.13997551E-02 1.87202558E-01 5.52324843E-02 0.00000000E+00-1.17680432E-01
 9  9 2.32125109E-02 2.05215280E-02 0.00000000E+00 5.76711333E-03-5.27238717E-03
 9 10-1.15905240E-03-9.90007120E-03 0.00000000E+00 0.00000000E+00 1.27583698E-02
 9 11-3.45761194E-02-1.58532187E-01-2.98054155E-02 0.00000000E+00-5.09931977E-02
 9 12-9.01339272E-02-2.82491505E-02 0.00000000E+00 8.02773627E-03-4.50676171E-03
 9 13-4.31267068E-03-3.67314866E-04 0.00000000E+00 0.00000000E+00
10  1-2.62246432E-01-1.87609591E-01 2.10914057E-01 1.50926495E-01-1.66050229E-03
10  2 3.09973900E-03 2.41469178E-01 3.77788340E-01 0.00000000E+00-1.10794934E-02
10  3 1.11856522E-01 1.96618145E-01 0.00000000E+00-1.81060642E-02 1.53422730E-02
10  4 2.89143528E-04-2.77879217E-02 0.00000000E+00 0.00000000E+00 2.28084179E-04
10  5 3.05422616E-03-6.84560573E-02 5.67056700E-02 0.00000000E+00-1.58783550E-02
10  6-5.71630788E-02-2.43684776E-02 0.00000000E+00-1.16459092E-02 9.33749267E-03
10  7 1.29153629E-03-1.44550204E-02 0.00000000E+00 0.00000000E+00 1.52411023E-02
10  8-3.20976199E-02 7.50171323E-02 7.17322261E-03 0.00000000E+00-1.18898644E-02
10  9-4.00272453E-03-1.56932920E-02 0.00000000E+00 6.59837066E-03-1.67676192E-03
10 10-1.21585016E-03-2.13042237E-03 0.00000000E+00 0.00000000E+00 3.14166824E-03
10 11-7.77568380E-03-5.76147937E-02 1.23769178E-03 0.00000000E+00-1.77888812E-02
10 12-2.94771351E-02 5.23870156E-03 0.00000000E+00 1.65017309E-03-7.09870230E-04
10 13-8.65481112E-04 8.23925363E-05 0.00000000E+00 0.00000000E+00
11  1-1.65185212E-02-2.34840554E-02 1.19531308E-02 1.16615287E-02-4.96848135E-03
11  2 9.16054246E-03 1.95932335E-02 5.11704319E-03 0.00000000E+00 2.73268846E-02
11  3 1.31289043E-02 3.89546207E-03 0.00000000E+00-4.61945771E-03 1.52856180E-03
11  4 2.44033656E-05-2.84589769E-03 0.00000000E+00 0.00000000E+00-2.24205128E-02
11  5 5.15913284E-02 4.06613707E-03-9.44767784E-02 0.00000000E+00 5.67671781E-02
11  6 9.23109122E-03-4.70354601E-02 0.00000000E+00 1.28428261E-02-9.60989910E-03
11  7 4.07821889E-04-1.19006238E-02 0.00000000E+00 0.00000000E+00 3.30959812E-02
11  8-7.37019329E-02 1.42708595E-02-3.35500408E-01 0.00000000E+00-9.08773418E-02
11  9 3.13137896E-02-1.52567109E-01 0.00000000E+00-6.99184103E-03 5.17916978E-03
11 10 1.44719316E-03-2.66028844E-02 0.00000000E+00 0.00000000E+00-3.39995173E-03
11 11 1.44434131E-02 6.93115398E-02-5.04030438E-01 0.00000000E+00 2.74707511E-02
11 12 3.34459577E-02-3.09685497E-01 0.00000000E+00-2.86225522E-03 3.34517742E-03
11 13 1.84270176E-03 3.53356222E-02 0.00000000E+00 0.00000000E+00
12  1 0.00000000E+00 0.00000000E+00 0.00000000E+00 0.00000000E+00 0.00000000E+00
12  2 0.00000000E+00 0.00000000E+00 0.00000000E+00-8.18241293E-02 0.00000000E+00
12  3 0.00000000E+00 0.00000000E+00-5.41662064E-02 0.00000000E+00 0.00000000E+00
12  4 0.00000000E+00 0.00000000E+00-7.12516837E-03 2.41484781E-03 0.00000000E+00
12  5 0.00000000E+00 0.00000000E+00 0.00000000E+00-1.54377913E-01 0.00000000E+00
12  6 0.00000000E+00 0.00000000E+00-6.98249378E-02 0.00000000E+00 0.00000000E+00
12  7 0.00000000E+00 0.00000000E+00-9.15160775E-03-8.66470328E-03 0.00000000E+00
12  8 0.00000000E+00 0.00000000E+00 0.00000000E+00-3.51636624E-01 0.00000000E+00
12  9 0.00000000E+00 0.00000000E+00-1.70345302E-01 0.00000000E+00 0.00000000E+00
12 10 0.00000000E+00 0.00000000E+00-2.49849371E-02 2.48173792E-03 0.00000000E+00
12 11 0.00000000E+00 0.00000000E+00 0.00000000E+00-4.71019327E-01 0.00000000E+00
12 12 0.00000000E+00 0.00000000E+00-2.89501759E-01 0.00000000E+00 0.00000000E+00
12 13 0.00000000E+00 0.00000000E+00 3.75977371E-02 9.00177928E-04
13  1 5.28584068E-02 9.33680411E-02-5.20489957E-02-9.89428168E-02-7.34015478E-03
13  2 2.24780376E-02 1.41927158E-02-2.33999711E-02 0.00000000E+00-5.99747855E-02
13  3-1.32302595E-02 4.61389443E-03 0.00000000E+00 1.55355341E-02-1.27993413E-02
13  4-7.65616697E-04 1.64882216E-02 0.00000000E+00 0.00000000E+00 6.87940099E-02
13  5-1.44194724E-01 5.65452526E-04 4.19381154E-01 0.00000000E+00-3.13128472E-01
13  6-9.10386643E-02 3.19462442E-01 0.00000000E+00-6.07376876E-03 1.64211462E-02
13  7-5.32750111E-03 1.66257155E-02 0.00000000E+00 0.00000000E+00-3.71408905E-02
13  8 8.28691456E-02-1.03134564E-01 1.98047231E-01 0.00000000E+00 1.92774352E-01
13  9-1.14133223E-01 1.28024860E-01 0.00000000E+00 1.02484461E-02-1.40959534E-02
13 10 7.72781439E-04-4.22399927E-02 0.00000000E+00 0.00000000E+00 3.00193134E-03
13 11-1.94398660E-02 2.78358958E-02-3.28943470E-01 0.00000000E+00 3.66704298E-02
13 12 1.03512634E-02-2.72507145E-01 0.00000000E+00-6.08751183E-03-2.71844101E-03
13 13-2.53625933E-03 7.29708211E-03 0.00000000E+00 0.00000000E+00
14  1 0.00000000E+00 0.00000000E+00 0.00000000E+00 0.00000000E+00 0.00000000E+00
14  2 0.00000000E+00 0.00000000E+00 0.00000000E+00 3.63344770E-01 0.00000000E+00
14  3 0.00000000E+00 0.00000000E+00 2.75328365E-01 0.00000000E+00 0.00000000E+00
14  4 0.00000000E+00 0.00000000E+00 1.91335017E-02-7.41188585E-03 0.00000000E+00
14  5 0.00000000E+00 0.00000000E+00 0.00000000E+00 3.60815688E-01 0.00000000E+00
14  6 0.00000000E+00 0.00000000E+00 2.50512735E-01 0.00000000E+00 0.00000000E+00
14  7 0.00000000E+00 0.00000000E+00-1.25440526E-02 1.59722823E-02 0.00000000E+00
14  8 0.00000000E+00 0.00000000E+00 0.00000000E+00 7.52373234E-03 0.00000000E+00
14  9 0.00000000E+00 0.00000000E+00 1.64939338E-03 0.00000000E+00 0.00000000E+00
14 10 0.00000000E+00 0.00000000E+00-3.54694229E-02-4.83885005E-03 0.00000000E+00
14 11 0.00000000E+00 0.00000000E+00 0.00000000E+00-2.68643094E-01 0.00000000E+00
14 12 0.00000000E+00 0.00000000E+00-1.97430798E-01 0.00000000E+00 0.00000000E+00
14 13 0.00000000E+00 0.00000000E+00 1.27722916E-02 2.35355879E-04
15  1 0.00000000E+00 0.00000000E+00 0.00000000E+00 0.00000000E+00 0.00000000E+00
15  2 0.00000000E+00 0.00000000E+00 0.00000000E+00 5.00124885E-01 0.00000000E+00
15  3 0.00000000E+00 0.00000000E+00 3.68782425E-01 0.00000000E+00 0.00000000E+00
15  4 0.00000000E+00 0.00000000E+00 5.97749814E-03-3.15456625E-03 0.00000000E+00
15  5 0.00000000E+00 0.00000000E+00 0.00000000E+00-3.69878596E-01 0.00000000E+00
15  6 0.00000000E+00 0.00000000E+00-2.04700261E-01 0.00000000E+00 0.00000000E+00
15  7 0.00000000E+00 0.00000000E+00-3.78174773E-02-1.47210470E-03 0.00000000E+00
15  8 0.00000000E+00 0.00000000E+00 0.00000000E+00-2.84710676E-01 0.00000000E+00
15  9 0.00000000E+00 0.00000000E+00-1.66394276E-01 0.00000000E+00 0.00000000E+00
15 10 0.00000000E+00 0.00000000E+00 2.06116121E-02 8.05841228E-03 0.00000000E+00
15 11 0.00000000E+00 0.00000000E+00 0.00000000E+00 3.68373471E-01 0.00000000E+00
15 12 0.00000000E+00 0.00000000E+00 1.23091166E-01 0.00000000E+00 0.00000000E+00
15 13 0.00000000E+00 0.00000000E+00 2.77997455E-03-6.63011531E-04
16  1 2.19372856E-02-7.00506908E-04-3.83648916E-02-2.41558827E-02-2.36570707E-02
16  2 4.77223878E-02 6.73493556E-02-5.04988017E-02 0.00000000E+00 7.30551460E-02
16  3 1.73456881E-02-9.90282712E-02 0.00000000E+00 6.52762728E-03-1.16493024E-02
16  4-1.10588037E-03 1.00428575E-02 0.00000000E+00 0.00000000E+00 3.27955227E-02
16  5-1.39495956E-01 6.22657013E-02 4.81219175E-01 0.00000000E+00-1.49680783E-01
16  6 4.50133231E-02 2.65007078E-01 0.00000000E+00 4.73183688E-02-4.39878122E-02
16  7 1.37224171E-02-2.06240826E-02 0.00000000E+00 0.00000000E+00 1.21329467E-02
16  8-7.09115235E-02 2.36760511E-02-5.50808788E-01 0.00000000E+00-8.43162083E-02
16  9 5.65064791E-02-4.04655942E-01 0.00000000E+00 1.79021985E-02-1.18143977E-02
16 10 2.37717331E-03 1.17671412E-02 0.00000000E+00 0.00000000E+00-5.38474644E-03
16 11 2.20119608E-02-6.87528673E-02 4.38140237E-01 0.00000000E+00-5.44196452E-03
16 12-1.71568915E-02 1.53741812E-01 0.00000000E+00-7.60404240E-04 5.22026229E-03
16 13 1.87769651E-03 1.96944005E-02 0.00000000E+00 0.00000000E+00
17  1 0.00000000E+00 0.00000000E+00 0.00000000E+00 0.00000000E+00 0.00000000E+00
17  2 0.00000000E+00 0.00000000E+00 0.00000000E+00-2.41768072E-01 0.00000000E+00
17  3 0.00000000E+00 0.00000000E+00-2.13020061E-01 0.00000000E+00 0.00000000E+00
17  4 0.00000000E+00 0.00000000E+00 4.96343874E-03-6.76261948E-03 0.00000000E+00
17  5 0.00000000E+00 0.00000000E+00 0.00000000E+00 5.09996443E-01 0.00000000E+00
17  6 0.00000000E+00 0.00000000E+00 3.56493453E-01 0.00000000E+00 0.00000000E+00
17  7 0.00000000E+00 0.00000000E+00-6.51585165E-03-1.89086550E-02 0.00000000E+00
17  8 0.00000000E+00 0.00000000E+00 0.00000000E+00-5.36622816E-01 0.00000000E+00
17  9 0.00000000E+00 0.00000000E+00-3.64017037E-01 0.00000000E+00 0.00000000E+00
17 10 0.00000000E+00 0.00000000E+00-4.85376929E-02-1.51054489E-02 0.00000000E+00
17 11 0.00000000E+00 0.00000000E+00 0.00000000E+00 5.33401771E-01 0.00000000E+00
17 12 0.00000000E+00 0.00000000E+00 2.99892896E-02 0.00000000E+00 0.00000000E+00
17 13 0.00000000E+00 0.00000000E+00 2.75619657E-02-1.22623970E-03
18  1-3.92312757E-02-1.75208909E+00-1.42919730E-02-1.24916843E+00-1.23502009E-01
18  2 1.48438173E-01-1.80208653E-01 3.36420073E-02 0.00000000E+00 2.02172818E+00
18  3-8.70516515E-01 3.66499425E-02 0.00000000E+00-9.01170093E-03-3.57106138E-03
18  4-5.73828043E-03-6.05713361E-03 0.00000000E+00 0.00000000E+00 1.32120441E-02
18  5-2.93755254E-02 1.30596092E-02-5.34006009E-02 0.00000000E+00 3.98845244E-01
18  6 2.17737257E-01 1.37695227E-01 0.00000000E+00 1.36950773E-02-7.62492305E-03
18  7 6.55391883E-04 2.40159900E-04 0.00000000E+00 0.00000000E+00-1.41450196E-02
18  8 5.91744759E-02-2.99480586E-02 4.22685586E-02 0.00000000E+00-9.84261820E-02
18  9 3.75047365E-01 5.66806594E-02 0.00000000E+00-9.12785289E-03 6.19418832E-03
18 10 8.53239118E-03 2.66589406E-03 0.00000000E+00 0.00000000E+00 1.29467521E-02
18 11-6.68428710E-03 2.51436096E-02-1.31536520E-02 0.00000000E+00-2.73315274E-01
18 12 8.00727100E-02-6.53523614E-03 0.00000000E+00 5.84463490E-03 7.02006434E-03
18 13 7.57955189E-03-4.16661470E-03 0.00000000E+00 0.00000000E+00
19  1-8.52159973E-03-1.43022167E+00 1.35796033E-02 2.05441270E+00 3.84878912E-03
19  2 2.09438230E-02-3.19408729E-02-3.47937948E-01 0.00000000E+00-1.70775821E-02
19  3-2.56648522E-01-1.75347470E+00 0.00000000E+00-6.71027876E-03 8.86827270E-03
19  4 1.88548057E-03-6.15630318E-03 0.00000000E+00 0.00000000E+00 3.01283905E-02
19  5-9.62537596E-02-9.28005335E-02-8.82144587E-03 0.00000000E+00 3.41808378E-01
19  6 8.01204390E-01 5.26229192E-01 0.00000000E+00 2.74931378E-02-1.90611663E-02
19  7-1.26547433E-02 1.44374503E-02 0.00000000E+00 0.00000000E+00-3.62087536E-02
19  8 8.18716977E-02-3.92770756E-02-6.41411808E-02 0.00000000E+00-1.17105549E-01
19  9 1.01088223E+00 1.24627680E-01 0.00000000E+00-2.33024442E-02 3.60197171E-03
19 10 1.26986750E-02-6.75627076E-03 0.00000000E+00 0.00000000E+00 3.75575257E-02
19 11-2.10151044E-02 6.06645436E-02 1.52536799E-02 0.00000000E+00-8.00176000E-01
19 12 2.57676822E-01-2.11065202E-02 0.00000000E+00 1.00867344E-02 2.22503289E-02
19 13 2.34782934E-02 8.16319451E-03 0.00000000E+00 0.00000000E+00
20  1 8.55508095E-03-8.12871554E-01-6.23881070E-03 4.59420194E-01 2.95343870E-02
20  2-2.75164942E-02-1.20607878E-01-8.09326164E-02 0.00000000E+00-6.45629296E-01
20  3-8.76829220E-01-2.65320998E-01 0.00000000E+00 9.93425558E-03-7.82412852E-03
20  4 2.21160938E-03 4.88182450E-03 0.00000000E+00 0.00000000E+00-6.90197070E-02
20  5 2.49338778E-01 1.59250098E-01 7.16621489E-02 0.00000000E+00-3.74324208E-01
20  6-9.38917397E-01 1.34839936E-01 0.00000000E+00 1.73761777E-02 1.74431703E-02
20  7 1.53198748E-02 1.64128267E-02 0.00000000E+00 0.00000000E+00 4.43319098E-02
20  8 7.18227636E-02-1.02084495E-01 6.74316100E-02 0.00000000E+00-1.24661343E+00
20  9-2.19382620E+00-3.04131461E-01 0.00000000E+00 2.17194324E-02-4.61487516E-03
20 10-3.99931169E-03 7.08135038E-03 0.00000000E+00 0.00000000E+00-1.05798430E-01
20 11 5.81720646E-02-1.36233303E-01-2.95072899E-02 0.00000000E+00 2.29896557E+00
20 12-8.56961441E-01 3.33378365E-02 0.00000000E+00 2.97688905E-04-7.15199517E-02
20 13-7.12682323E-02-9.23034079E-03 0.00000000E+00 0.00000000E+00
21  1-8.80505385E-02-3.05406014E-01-7.63794404E-02-1.18575225E-01 8.31640712E-02
21  2 6.41348328E-02 9.80056170E-02-6.99421188E-03 0.00000000E+00-3.00042251E+00
21  3-2.70969417E+00 7.54609858E-01 0.00000000E+00 7.82924857E-03-2.35165950E-02
21  4 1.82903117E-02-2.47663922E-02 0.00000000E+00 0.00000000E+00-1.08670653E-01
21  5 3.39152457E-02-2.13085408E-01 8.53096199E-02 0.00000000E+00 5.47207517E+00
21  6-8.53918212E-01 1.61934282E+00 0.00000000E+00 2.74262610E-02-7.50848611E-03
21  7-6.41436259E-03-2.08098269E-02 0.00000000E+00 0.00000000E+00 4.24886260E-02
21  8-1.35058568E-02 7.48788749E-02 6.72486309E-02 0.00000000E+00-4.19937457E-01
21  9 2.55727897E+00-1.52901021E-01 0.00000000E+00 2.00229769E-02-1.34728836E-02
21 10 1.01235778E-02-7.23632266E-03 0.00000000E+00 0.00000000E+00 5.42333952E-02
21 11 7.40335171E-02-5.88042726E-02-6.55202388E-03 0.00000000E+00-1.86270833E+00
21 12 4.93378380E-01 6.63227124E-02 0.00000000E+00 1.81623233E-02 6.06437455E-02
21 13 6.77864644E-02-9.86352033E-03 0.00000000E+00 0.00000000E+00
22  1 2.18254513E-01-3.90442837E-01-1.71074492E-01 6.55042089E-01-5.68110063E-03
22  2-2.04859751E-01-2.58927830E-01-4.59461351E-02 0.00000000E+00 2.03856463E+00
22  3 1.00311500E+00-1.14661791E+00 0.00000000E+00 3.14086327E-02-4.77878836E-02
22  4-1.00817856E-02 3.73409684E-02 0.00000000E+00 0.00000000E+00-9.49683586E-02
22  5-1.17599035E-01 1.84916602E-01-5.66717140E-02 0.00000000E+00 2.99881430E+00
22  6 4.07683498E+00 7.17529960E-01 0.00000000E+00-6.99910603E-02-6.11971801E-03
22  7 1.16147384E-02-3.75724408E-03 0.00000000E+00 0.00000000E+00 1.27623595E-01
22  8-3.71928354E-01 2.30681418E-01-1.23574845E-01 0.00000000E+00-3.78329919E+00
22  9 3.20562776E+00 1.34746331E+00 0.00000000E+00 3.01624036E-02-3.25622461E-02
22 10-4.90878542E-02 6.89387394E-03 0.00000000E+00 0.00000000E+00 1.45070367E-02
22 11 1.31657716E-01-1.88171440E-01-5.89113219E-02 0.00000000E+00-1.32451891E+00
22 12 1.65243105E-01-2.74999266E-01 0.00000000E+00 8.98298134E-03 5.54819406E-02
22 13 4.66074916E-02 1.81473810E-02 0.00000000E+00 0.00000000E+00
23  1 2.19927458E-02 2.19411717E-01 2.33777104E-01 4.79634565E-01-1.60601279E-02
23  2 3.96207981E-01 3.10257194E-01 9.24560469E-02 0.00000000E+00 6.09577103E-01
23  3 6.28639543E-01-1.04792824E+00 0.00000000E+00-1.91994514E-02 7.67130900E-02
23  4 9.81932271E-03-4.30086086E-03 0.00000000E+00 0.00000000E+00 1.06783592E-02
23  5 6.21787168E-01 2.40064778E-01-1.99916859E-01 0.00000000E+00 1.10830734E+00
23  6 2.52422366E+00 4.91569660E-01 0.00000000E+00 1.55242484E-01 3.52698227E-02
23  7 4.60708152E-03-6.33534736E-03 0.00000000E+00 0.00000000E+00 5.69082008E-02
23  8 4.87792517E-01-3.17700705E-01-8.98065279E-02 0.00000000E+00-2.88786458E+00
23  9 2.88939006E+00 9.45666668E-01 0.00000000E+00 6.21821917E-02 4.06348290E-02
23 10 5.33298511E-03 3.28760128E-02 0.00000000E+00 0.00000000E+00 1.55468849E-02
23 11 3.29473396E-02-1.36302606E-01-1.41335659E-01 0.00000000E+00-1.09260762E+00
23 12 1.26818704E-01-1.01559899E-01 0.00000000E+00-3.07374650E-02 2.49024763E-02
23 13 1.76330070E-02-1.35870498E-02 0.00000000E+00 0.00000000E+00
24  1 0.00000000E+00 0.00000000E+00 0.00000000E+00 0.00000000E+00 0.00000000E+00
24  2 0.00000000E+00 0.00000000E+00 0.00000000E+00-5.11597988E-01 0.00000000E+00
24  3 0.00000000E+00 0.00000000E+00 5.13437668E-01 0.00000000E+00 0.00000000E+00
24  4 0.00000000E+00 0.00000000E+00-2.92155019E-02 1.98429943E-02 0.00000000E+00
24  5 0.00000000E+00 0.00000000E+00 0.00000000E+00-4.43388524E-01 0.00000000E+00
24  6 0.00000000E+00 0.00000000E+00 9.81916574E-02 0.00000000E+00 0.00000000E+00
24  7 0.00000000E+00 0.00000000E+00-4.04503781E-03-3.00192146E-02 0.00000000E+00
24  8 0.00000000E+00 0.00000000E+00 0.00000000E+00-7.34536967E-01 0.00000000E+00
24  9 0.00000000E+00 0.00000000E+00 9.50491350E-01 0.00000000E+00 0.00000000E+00
24 10 0.00000000E+00 0.00000000E+00 1.81227522E-02 1.59869159E-02 0.00000000E+00
24 11 0.00000000E+00 0.00000000E+00 0.00000000E+00-6.08647114E-02 0.00000000E+00
24 12 0.00000000E+00 0.00000000E+00-1.25902851E-01 0.00000000E+00 0.00000000E+00
24 13 0.00000000E+00 0.00000000E+00 6.52117562E-02 2.47691577E-03
25  1 9.26402341E-02-1.18411284E-01 1.60096185E-01 5.70946956E-01 7.82799502E-03
25  2 5.95126088E-02-6.29379470E-02 1.12803363E-01 0.00000000E+00 3.08913556E-01
25  3 5.71805823E-01-8.10866764E-01 0.00000000E+00 4.55171189E-02 1.92248338E-02
25  4-8.71694443E-03 4.64083853E-03 0.00000000E+00 0.00000000E+00-2.33893726E-02
25  5-7.31587497E-02 1.07667638E-01 4.66776110E-01 0.00000000E+00 6.60852655E-01
25  6 1.15761765E+00-7.55971636E-02 0.00000000E+00-1.13188885E-01 2.17136530E-02
25  7-7.18295420E-03 3.38891120E-02 0.00000000E+00 0.00000000E+00 4.77493812E-02
25  8-4.12118939E-02-1.26426026E-01 7.95864167E-01 0.00000000E+00-9.62093051E-01
25  9 1.32520192E+00-5.83112241E-01 0.00000000E+00 1.25987229E-01-3.82058344E-02
25 10-2.02769135E-02 3.22575161E-03 0.00000000E+00 0.00000000E+00 3.08697569E-03
25 11-3.35958963E-04-1.26005474E-01 6.11953553E-02 0.00000000E+00-5.61799410E-01
25 12 1.50356953E-01-1.03984838E-02 0.00000000E+00-7.02609300E-02 1.06920783E-02
25 13 1.12798849E-02-6.67770589E-02 0.00000000E+00 0.00000000E+00
26  1 2.78281117E-01 2.24575474E-01-1.08321380E-01 5.98054307E-02 1.74922151E-03
26  2 3.22192517E-01 2.48124741E-01-2.91415924E-01 0.00000000E+00 9.29984779E-01
26  3 5.76137413E-01 1.05274330E-01 0.00000000E+00 7.43461706E-02 1.34839773E-02
26  4-6.68215713E-03 2.02456343E-02 0.00000000E+00 0.00000000E+00 2.42833303E-02
26  5 1.99390828E-01-3.57963930E-01-3.40822221E-01 0.00000000E+00-1.31502173E+00
26  6 1.88196345E+00 1.24659570E-02 0.00000000E+00 8.45711707E-02 3.84283004E-02
26  7-2.89528760E-03-1.98110524E-02 0.00000000E+00 0.00000000E+00-5.05444520E-02
26  8 7.01558400E-02 1.24036756E-01 3.60470802E-01 0.00000000E+00-1.41634512E+00
26  9-8.65729329E-01-3.37623288E-01 0.00000000E+00-1.87865102E-01 7.10209196E-02
26 10 3.41232226E-02 2.62792383E-03 0.00000000E+00 0.00000000E+00-1.38710183E-02
26 11 3.16667577E-02 1.90914975E-01 4.69499233E-02 0.00000000E+00 8.88928081E-01
26 12-4.44487642E-01 5.12076050E-02 0.00000000E+00 1.32628554E-01-1.74613126E-02
26 13-2.22877945E-02-3.02866270E-02 0.00000000E+00 0.00000000E+00