!  H2CO...G.S. wfn... the ansatz is CISD with optimal orbitals, using ORMAS
!  test case is probably from Aaron, as part of the ORMAS response bug fixing.
!  231 A1 symmetry determinants, there are only 24 AOs.
!
!  This calculation divides the valence orbitals of formaldehyde into 
!  two groups:  
!       1.  6 doubly occupied valence orbitals from HF calculation
!       2.  4 empty valence orbitals
!  The ORMAS calculation allows 1 and 2 electron excitations from 
!  group 1 into group 2.  This calculation is essentially the same as
!  that reported in Mark Hoffmann's paper on MCSCF 2nd derivatives:
!                 JCP, Vol. 80, 2660-2668 (1984)
!
!  FINAL E= -113.9642480999, 2 iters (lit says -113.9462, probably a typo),
!             50 CP-MCHF iters
!        lit= 1194.2,  1280.2,  1553.0,  1713.3,  2958.2,  3025.5
!       FREQ= 1194.26, 1280.28, 1553.13, 1713.54, 2958.28, 3025.56
!  IR intens= 0.18402, 0.20674, 0.43050, 1.24052, 1.97988, 3.62309
!        residuals are no bigger than 8 cm-1
!
!  this run takes 11 seconds on a 2.66 GHz GHz Cloverton (27 Apr 2015)
!  results have not changed since 2014.
!
 $CONTRL SCFTYP=MCSCF RUNTYP=HESSIAN $END
 $SYSTEM MWORDS=5 MEMDDI=5 PARALL=.TRUE. $END
 $trans  dirtrf=.true. $end
 $GUESS  GUESS=MOREAD NORB=24 $END
 $MCSCF  CISTEP=ORMAS FULLNR=.TRUE. $END
 $DET    GROUP=C2V NCORE=2 NACT=10 NELS=12  $END
 $ORMAS  NSPACE=2 MSTART(1)=3,9 MINE(1)=10,0  MAXE(1)=12,2 $END 
 $DATA
Formaldehyde MCSCF calculation...old Dunning DZ contraction of Huzinaga?
Cnv 2

OXYGEN      8.0   0.0000000000   0.0000000000   1.1532183247
 S   6
  1        7816.540000         0.2031000000E-02
  2        1175.820000         0.1543600000E-01
  3        273.1880000         0.7377100000E-01
  4        81.16960000         0.2476060000    
  5        27.18360000         0.6118320000    
  6        3.413600000         0.2412050000    
 S   1
  1        9.532200000          1.000000000    
 S   1
  1       0.9398000000          1.000000000    
 S   1
  1       0.2846000000          1.000000000    
 P   4
  1        35.18320000         0.1958000000E-01
  2        7.904000000         0.1241890000    
  3        2.305100000         0.3947270000    
  4       0.7171000000         0.6273750000    
 P   1
  1       0.2137000000          1.000000000

CARBON      6.0   0.0000000000   0.0000000000  -0.0916020590
 S   6
  1        4232.610000         0.2029000000E-02
  2        634.8820000         0.1553500000E-01
  3        146.0970000         0.7541100000E-01
  4        42.49740000         0.2571210000    
  5        14.18920000         0.5965550000    
  6        1.966600000         0.2425170000    
 S   1
  1        5.147700000          1.000000000    
 S   1
  1       0.4962000000          1.000000000    
 S   1
  1       0.1533000000          1.000000000    
 P   4
  1        18.15570000         0.1853400000E-01
  2        3.986400000         0.1154420000    
  3        1.142900000         0.3862060000    
  4       0.3594000000         0.6400890000    
 P   1
  1       0.1146000000          1.000000000

HYDROGEN    1.0   0.0000000000   0.9384356553  -0.6808081327
 S   3
  1        19.24060000         0.3282800000E-01
  2        2.899200000         0.2312080000    
  3       0.6534000000         0.8172380000    
 S   1
  1       0.1776000000          1.000000000

 $END
 $VEC   
 1  1 5.86307779E-01 4.68951494E-01-2.36617892E-02-1.97137194E-02 0.00000000E+00
 1  2 0.00000000E+00-1.04811483E-02 0.00000000E+00 0.00000000E+00-4.25525360E-03
 1  3 6.22069750E-05 1.93906265E-04 2.37447695E-05-5.64391262E-04 0.00000000E+00
 1  4 0.00000000E+00 5.52491135E-04 0.00000000E+00 0.00000000E+00-3.10244900E-04
 1  5-3.91476724E-04-7.44453595E-04-3.91476724E-04-7.44453595E-04
 2  1 6.91570722E-04 8.56184022E-04-2.16745774E-03-3.20616268E-03 0.00000000E+00
 2  2 0.00000000E+00-2.92625210E-03 0.00000000E+00 0.00000000E+00-4.14761360E-04
 2  3 6.01703825E-01 4.38663870E-01 1.53116999E-03-2.34027566E-03 0.00000000E+00
 2  4 0.00000000E+00 4.39048881E-03 0.00000000E+00 0.00000000E+00 9.04074157E-05
 2  5-1.28548527E-03-1.00042033E-03-1.28548527E-03-1.00042033E-03
 3  1-1.02384328E-01-1.53411244E-01 4.86360069E-01 3.45280187E-01-7.51374462E-20
 3  2 4.54413930E-20-1.83775544E-01 6.60193371E-19-2.91183968E-18 1.22143131E-03
 3  3-6.47889856E-02-8.83605282E-02 2.56059593E-01 9.84420329E-02-8.04594024E-19
 3  4-3.09641563E-18 1.97821606E-01-7.66732369E-19 2.51747132E-17-3.14833463E-02
 3  5 2.99340496E-02-8.25811318E-03 2.99340496E-02-8.25811318E-03
 4  1 4.71795665E-02 7.08665866E-02-2.25633886E-01-2.48808305E-01-1.08857879E-18
 4  2-5.72014548E-18-1.48007957E-01 7.58201221E-18-6.79509042E-20-5.04503533E-02
 4  3-9.79079848E-02-1.35768851E-01 4.07192744E-01 2.67223456E-01-5.58494822E-18
 4  4-5.80913738E-17-2.11783648E-01-1.41862823E-17 3.99729886E-17-4.03741929E-02
 4  5 1.82687694E-01 7.35681307E-02 1.82687694E-01 7.35681307E-02
 5  1 1.47127831E-17-1.81704328E-17 2.10935959E-17-2.37856064E-18 1.22345036E-18
 5  2 4.10125964E-01-3.12461255E-18-8.30565709E-18 1.24944891E-01-4.98893895E-17
 5  3 8.70879947E-18-3.05446851E-17 1.58185448E-16-5.99560261E-16 5.61633603E-18
 5  4 4.77109816E-01 3.75527860E-19 1.62786092E-17 8.73845746E-02 2.00552385E-16
 5  5-1.78017957E-01-1.03699512E-01 1.78017957E-01 1.03699512E-01
 6  1-3.30870742E-02-5.34888259E-02 1.80419264E-01 3.10003095E-01-8.03077463E-19
 6  2 3.50583967E-17 5.78827624E-01 5.24277371E-18-9.14962662E-17 1.70082237E-01
 6  3 1.76176206E-02 2.23176482E-02-9.01693123E-02 3.96644764E-02-3.04633948E-18
 6  4 9.72704114E-18-4.35093633E-01-1.10097679E-17 2.09557432E-16 1.52329142E-02
 6  5 9.03875823E-02 8.84391200E-02 9.03875823E-02 8.84391200E-02
 7  1 4.96361587E-19-7.76521793E-19 5.73195179E-18-3.35533213E-17 5.71253443E-01
 7  2-2.65479496E-17 2.90976213E-18 2.46104851E-01 1.06190188E-16 3.63501739E-17
 7  3-4.22883623E-18 7.61605697E-18-5.12583156E-17 2.91575988E-16 4.36562338E-01
 7  4-1.83878427E-17 2.75509012E-18 1.27765561E-01-3.05773933E-16-8.85903616E-17
 7  5 4.01921382E-17-4.10143892E-16-1.96612348E-17 1.06248583E-16
 8  1 1.68980279E-17-3.31429331E-17 1.11075639E-16-2.91407663E-16 1.30435561E-17
 8  2 6.51234709E-01-1.06049178E-17 1.92185481E-17 3.22170558E-01 1.08713172E-16
 8  3 1.69269539E-19 1.16522953E-17-7.33617613E-17 3.36912275E-16 5.06638410E-18
 8  4-2.62088273E-01 4.53708415E-17-2.47868827E-17 2.05131505E-02 8.52765914E-17
 8  5 1.77190506E-01 2.59053423E-01-1.77190506E-01-2.59053423E-01
 9  1-6.45103731E-19 1.07517000E-18-7.28086297E-18 3.65720664E-17 7.27555365E-01
 9  2 7.90923167E-18-3.14011055E-18-1.12945056E-03-1.13584317E-16-3.69683345E-17
 9  3 4.25367852E-18-5.87514647E-18 4.70926009E-17-2.86452300E-16-7.23299547E-01
 9  4 3.18284028E-17 8.80095970E-19-1.33157414E-01 2.94359283E-16 8.50428990E-17
 9  5-2.54263770E-17 3.76385755E-16 2.33084868E-17-9.19690246E-17
10  1 6.09253469E-02 8.85041109E-02-3.81325341E-01-3.69416884E-01 1.71760207E-18
10  2-5.95055418E-18 8.68369001E-01-4.19171247E-18 2.97970303E-17 1.84281874E-02
10  3-9.07860005E-02-1.34294984E-01 6.30400747E-01 2.50102199E-01-6.11789649E-18
10  4-1.82543044E-19 9.14708975E-01 4.99163988E-18-1.02217895E-16-2.49804893E-02
10  5-2.24298513E-02-7.21925541E-02-2.24298513E-02-7.21925541E-02
11  1-1.71800782E-17 6.85398559E-17-3.25237676E-16 8.63727461E-16-1.90749695E-17
11  2-5.27538722E-01 2.03498981E-17 4.16080399E-17 3.36525732E-01-3.74732306E-16
11  3 2.32120521E-17-1.28294865E-16 5.64056781E-16-1.99897767E-15 5.74755346E-17
11  4 8.82026248E-01-1.42282212E-16-4.45093733E-17 2.24754571E-01 1.05658795E-16
11  5 3.98354111E-01 5.44793194E-01-3.98354111E-01-5.44793194E-01
12  1-3.04523952E-03-3.30096202E-03 3.15620361E-02 7.81700400E-02 1.90764776E-17
12  2 7.05691636E-17 9.99135746E-05-3.72026516E-17-2.34565701E-16-6.32704913E-02
12  3-1.12686645E-01-1.57717891E-01 7.99701888E-01 1.51817012E-01-4.81451010E-17
12  4-6.79066047E-18-7.12909737E-01 3.47688417E-17 7.13835747E-16 3.69973703E-02
12  5-5.31500060E-01-3.15680376E-01-5.31500060E-01-3.15680376E-01
13  1 2.34299555E-02 2.78505355E-02 3.48894301E-02-1.10036335E+00 0.00000000E+00
13  2 0.00000000E+00-1.20313700E-01 0.00000000E+00 0.00000000E+00 1.58480373E-01
13  3 7.42433536E-03 1.11613283E-02-7.06728261E-02-1.72452185E-01 0.00000000E+00
13  4 0.00000000E+00-2.79444862E-01 0.00000000E+00 0.00000000E+00 1.89216265E+00
13  5 2.53493022E-02 6.75555240E-01 2.53493022E-02 6.75555240E-01
14  1 0.00000000E+00 0.00000000E+00 0.00000000E+00 0.00000000E+00 0.00000000E+00
14  2-1.19192486E-01 0.00000000E+00 0.00000000E+00-5.16421169E-01 0.00000000E+00
14  3 0.00000000E+00 0.00000000E+00 0.00000000E+00 0.00000000E+00 0.00000000E+00
14  4-5.13960275E-01 0.00000000E+00 0.00000000E+00 2.54484832E+00 0.00000000E+00
14  5 7.66372423E-02 1.22988546E+00-7.66372423E-02-1.22988546E+00
15  1 0.00000000E+00 0.00000000E+00 0.00000000E+00 0.00000000E+00-1.73683579E-02
15  2 0.00000000E+00 0.00000000E+00-3.35330612E-01 0.00000000E+00 0.00000000E+00
15  3 0.00000000E+00 0.00000000E+00 0.00000000E+00 0.00000000E+00-7.79822795E-01
15  4 0.00000000E+00 0.00000000E+00 1.30637921E+00 0.00000000E+00 0.00000000E+00
15  5 0.00000000E+00 0.00000000E+00 0.00000000E+00 0.00000000E+00
16  1 2.94776238E-02 4.11413136E-02-9.90016324E-02-8.68520966E-01 0.00000000E+00
16  2 0.00000000E+00-1.93460278E-01 0.00000000E+00 0.00000000E+00 9.10510979E-01
16  3 7.47204123E-02 1.37853659E-01-1.29042434E+00 4.03718971E+00 0.00000000E+00
16  4 0.00000000E+00 3.12097657E-01 0.00000000E+00 0.00000000E+00-5.76660766E-01
16  5-1.99076984E-01-1.22094902E+00-1.99076984E-01-1.22094902E+00
17  1 2.69136706E-02 3.64126235E-02-6.49206308E-02-4.27118346E-01 0.00000000E+00
17  2 0.00000000E+00-4.86398231E-01 0.00000000E+00 0.00000000E+00 1.50323641E+00
17  3-6.17445827E-02-1.13834208E-01 1.03974161E+00 5.62814853E-02 0.00000000E+00
17  4 0.00000000E+00 4.65074804E-01 0.00000000E+00 0.00000000E+00-8.72423049E-02
17  5 1.65093267E-01-9.10818036E-02 1.65093267E-01-9.10818036E-02
18  1 0.00000000E+00 0.00000000E+00 0.00000000E+00 0.00000000E+00-7.31538274E-01
18  2 0.00000000E+00 0.00000000E+00 1.37424856E+00 0.00000000E+00 0.00000000E+00
18  3 0.00000000E+00 0.00000000E+00 0.00000000E+00 0.00000000E+00-3.03063101E-01
18  4 0.00000000E+00 0.00000000E+00-4.60259366E-01 0.00000000E+00 0.00000000E+00
18  5 0.00000000E+00 0.00000000E+00 0.00000000E+00 0.00000000E+00
19  1-1.72314272E-02-2.85691382E-02 1.79629503E-01-3.44853070E-01 0.00000000E+00
19  2 0.00000000E+00 9.13984424E-02 0.00000000E+00 0.00000000E+00 1.63502540E-02
19  3 2.50479977E-02 4.24761766E-02-4.35369260E-01 2.44693747E+00 0.00000000E+00
19  4 0.00000000E+00 2.53967738E-02 0.00000000E+00 0.00000000E+00-5.78763881E-01
19  5 8.01148603E-01-1.91115442E+00 8.01148603E-01-1.91115442E+00
20  1 0.00000000E+00 0.00000000E+00 0.00000000E+00 0.00000000E+00 0.00000000E+00
20  2 7.29780726E-01 0.00000000E+00 0.00000000E+00-1.76417336E+00 0.00000000E+00
20  3 0.00000000E+00 0.00000000E+00 0.00000000E+00 0.00000000E+00 0.00000000E+00
20  4 4.39633177E-01 0.00000000E+00 0.00000000E+00 2.32852339E+00 0.00000000E+00
20  5-8.27466299E-02 1.82270155E+00 8.27466299E-02-1.82270155E+00
21  1 0.00000000E+00 0.00000000E+00 0.00000000E+00 0.00000000E+00 0.00000000E+00
21  2-1.59409746E-01 0.00000000E+00 0.00000000E+00-8.06388880E-03 0.00000000E+00
21  3 0.00000000E+00 0.00000000E+00 0.00000000E+00 0.00000000E+00 0.00000000E+00
21  4-2.57388439E-01 0.00000000E+00 0.00000000E+00 1.51150662E+00 0.00000000E+00
21  5-9.97200915E-01 2.12190043E+00 9.97200915E-01-2.12190043E+00
22  1 1.40914525E-01 2.49909024E-01-2.05758288E+00 3.40115854E+00 0.00000000E+00
22  2 0.00000000E+00-6.23363628E-02 0.00000000E+00 0.00000000E+00-9.48187768E-01
22  3 6.30156378E-03 2.02442235E-02-1.87152310E-01-1.62919829E+00 0.00000000E+00
22  4 0.00000000E+00-4.91218839E-01 0.00000000E+00 0.00000000E+00-7.81956935E-01
22  5 1.50211748E-01-6.20669011E-02 1.50211748E-01-6.20669011E-02
23  1-7.45409626E-03 2.02751796E-03 6.49146697E-03 3.52251341E-03 0.00000000E+00
23  2 0.00000000E+00-3.29038780E-02 0.00000000E+00 0.00000000E+00-2.44052294E-02
23  3-1.76187657E+00 1.92364114E+00-4.03056406E-01 3.47066436E-01 0.00000000E+00
23  4 0.00000000E+00-1.55645200E-02 0.00000000E+00 0.00000000E+00-5.30895369E-02
23  5 4.43764219E-02-1.21250916E-01 4.43764219E-02-1.21250916E-01
24  1-1.73137152E+00 1.88051716E+00-4.18396877E-01 4.19826482E-01 0.00000000E+00
24  2 0.00000000E+00 8.74966501E-03 0.00000000E+00 0.00000000E+00-9.71573158E-02
24  3 7.27889327E-03-1.26387392E-02 1.32615687E-03-1.87173160E-01 0.00000000E+00
24  4 0.00000000E+00-2.12276631E-02 0.00000000E+00 0.00000000E+00-9.90639391E-02
24  5 1.11438563E-02 3.36365692E-04 1.11438563E-02 3.36365692E-04
 $END   

! TRAVIS-CI SMALL

! TRAVIS-CI SKIP
