!  diatomic C2...analytic MCSCF hessian...full valence active space
!             28 AOs, 26 MOs, 4900 determinants
!  using spherical harmonics and an effective core potential basis set.
!  The nominal configuration
!    ..(sig)2(sig*)2(pi)4(sig)0(pi*)0(sig*)0
!  mixes with a strong double excitation from the 2s sigma* to the sigma
!  made from 2p-z AOs, to the tune of 0.36 e- occupying the "vacant"
!  sigma, in this basis set.  The entire valence space is included.
!  Three roots are found in order to also see the low-lying 3-Pi state.
!
!  FINAL E= -10.8470804580, 12 iters, FREQ= 1809.09 (seminum=1809.29)
!  the CP-MCHF response equations required 23 iterations.
!  The 3-Pi state is at -10.822675, by the way.
!
!  This run takes 13 seconds on a 2.66 GHz Cloverton (27 Apr 2015)
!  results haven't changed since 2006.
!
 $CONTRL SCFTYP=MCSCF RUNTYP=hessian ECP=SBKJC
         ISPHER=1 NZVAR=1 $END
 $SYSTEM mwords=1 memddi=5 $END
 $ZMAT   IZMAT(1)=1,1,2 $END
 $BASIS  GBASIS=SBKJC NDFUNC=1 $END
 $GUESS  GUESS=MOREAD NORB=26 $END
 $mcscf  cistep=aldet soscf=.true. $end
 $DET    NCORE=0 NACT=8 NELS=8 NSTATE=3 $END
 $DATA
diatomic C2
Dnh 4
 
CARBON      6.0   0.0000000000   0.0000000000   0.6520167265
 $END

--- CLOSED SHELL ORBITALS --- GENERATED AT Sun Apr  4 16:28:21 2004
diatomic C2                                                                     
E(RHF)=      -10.6156313599, E(NUC)=    6.4928058160,    9 ITERS
 $VEC
 1  1 4.92097901E-01 0.00000000E+00 0.00000000E+00 1.65278256E-01 6.19532224E-02
 1  2 0.00000000E+00 0.00000000E+00-2.97983552E-02-9.39599203E-03-9.39599203E-03
 1  3 1.87919841E-02 0.00000000E+00 0.00000000E+00 0.00000000E+00 4.92097901E-01
 1  4 0.00000000E+00 0.00000000E+00-1.65278256E-01 6.19532224E-02 0.00000000E+00
 1  5 0.00000000E+00 2.97983552E-02-9.39599203E-03-9.39599203E-03 1.87919841E-02
 1  6 0.00000000E+00 0.00000000E+00 0.00000000E+00
 2  1 4.86874888E-01 0.00000000E+00 0.00000000E+00-2.08759228E-01 4.04936821E-01
 2  2 0.00000000E+00 0.00000000E+00-1.30521766E-02 3.78570574E-03 3.78570574E-03
 2  3-7.57141148E-03 0.00000000E+00 0.00000000E+00 0.00000000E+00-4.86874888E-01
 2  4 0.00000000E+00 0.00000000E+00-2.08759228E-01-4.04936821E-01 0.00000000E+00
 2  5 0.00000000E+00-1.30521766E-02-3.78570574E-03-3.78570574E-03 7.57141148E-03
 2  6 0.00000000E+00 0.00000000E+00 0.00000000E+00
 3  1 0.00000000E+00 5.06017838E-01 0.00000000E+00 0.00000000E+00 0.00000000E+00
 3  2 1.57737935E-01 0.00000000E+00 0.00000000E+00 0.00000000E+00 0.00000000E+00
 3  3 0.00000000E+00 0.00000000E+00 3.44545214E-02 0.00000000E+00 0.00000000E+00
 3  4 5.06017838E-01 0.00000000E+00 0.00000000E+00 0.00000000E+00 1.57737935E-01
 3  5 0.00000000E+00 0.00000000E+00 0.00000000E+00 0.00000000E+00 0.00000000E+00
 3  6 0.00000000E+00-3.44545214E-02 0.00000000E+00
 4  1 0.00000000E+00 0.00000000E+00 5.06017838E-01 0.00000000E+00 0.00000000E+00
 4  2 0.00000000E+00 1.57737935E-01 0.00000000E+00 0.00000000E+00 0.00000000E+00
 4  3 0.00000000E+00 0.00000000E+00 0.00000000E+00 3.44545214E-02 0.00000000E+00
 4  4 0.00000000E+00 5.06017838E-01 0.00000000E+00 0.00000000E+00 0.00000000E+00
 4  5 1.57737935E-01 0.00000000E+00 0.00000000E+00 0.00000000E+00 0.00000000E+00
 4  6 0.00000000E+00 0.00000000E+00-3.44545214E-02
 5  1-8.19048722E-02 0.00000000E+00 0.00000000E+00 4.84637150E-01-3.04289422E-01
 5  2 0.00000000E+00 0.00000000E+00 2.22281247E-01-5.91122583E-03-5.91122583E-03
 5  3 1.18224517E-02 0.00000000E+00 0.00000000E+00 0.00000000E+00-8.19048722E-02
 5  4 0.00000000E+00 0.00000000E+00-4.84637150E-01-3.04289422E-01 0.00000000E+00
 5  5 0.00000000E+00-2.22281247E-01-5.91122583E-03-5.91122583E-03 1.18224517E-02
 5  6 0.00000000E+00 0.00000000E+00 0.00000000E+00
 6  1 0.00000000E+00 0.00000000E+00 4.54245500E-01 0.00000000E+00 0.00000000E+00
 6  2 0.00000000E+00 7.70010762E-01 0.00000000E+00 0.00000000E+00 0.00000000E+00
 6  3 0.00000000E+00 0.00000000E+00 0.00000000E+00-2.37855049E-02 0.00000000E+00
 6  4 0.00000000E+00-4.54245500E-01 0.00000000E+00 0.00000000E+00 0.00000000E+00
 6  5-7.70010762E-01 0.00000000E+00 0.00000000E+00 0.00000000E+00 0.00000000E+00
 6  6 0.00000000E+00 0.00000000E+00-2.37855049E-02
 7  1 0.00000000E+00 4.54245500E-01 0.00000000E+00 0.00000000E+00 0.00000000E+00
 7  2 7.70010762E-01 0.00000000E+00 0.00000000E+00 0.00000000E+00 0.00000000E+00
 7  3 0.00000000E+00 0.00000000E+00-2.37855049E-02 0.00000000E+00 0.00000000E+00
 7  4-4.54245500E-01 0.00000000E+00 0.00000000E+00 0.00000000E+00-7.70010762E-01
 7  5 0.00000000E+00 0.00000000E+00 0.00000000E+00 0.00000000E+00 0.00000000E+00
 7  6 0.00000000E+00-2.37855049E-02 0.00000000E+00
 8  1 2.60034078E-01 0.00000000E+00 0.00000000E+00-5.69908297E-02 5.54124469E+00
 8  2 0.00000000E+00 0.00000000E+00 3.11797140E+00 2.34486467E-03 2.34486467E-03
 8  3-4.68972934E-03 0.00000000E+00 0.00000000E+00 0.00000000E+00-2.60034078E-01
 8  4 0.00000000E+00 0.00000000E+00-5.69908297E-02-5.54124469E+00 0.00000000E+00
 8  5 0.00000000E+00 3.11797140E+00-2.34486467E-03-2.34486467E-03 4.68972934E-03
 8  6 0.00000000E+00 0.00000000E+00 0.00000000E+00
 9  1 1.27520517E-01 0.00000000E+00 0.00000000E+00-5.19743926E-01-3.90032577E-01
 9  2 0.00000000E+00 0.00000000E+00 1.05189760E+00 8.53453690E-03 8.53453690E-03
 9  3-1.70690738E-02 0.00000000E+00 0.00000000E+00 0.00000000E+00 1.27520517E-01
 9  4 0.00000000E+00 0.00000000E+00 5.19743926E-01-3.90032577E-01 0.00000000E+00
 9  5 0.00000000E+00-1.05189760E+00 8.53453690E-03 8.53453690E-03-1.70690738E-02
 9  6 0.00000000E+00 0.00000000E+00 0.00000000E+00
10  1 0.00000000E+00-5.96461048E-01 0.00000000E+00 0.00000000E+00 0.00000000E+00
10  2 6.49928910E-01 0.00000000E+00 0.00000000E+00 0.00000000E+00 0.00000000E+00
10  3 0.00000000E+00 0.00000000E+00-4.06225020E-02 0.00000000E+00 0.00000000E+00
10  4-5.96461048E-01 0.00000000E+00 0.00000000E+00 0.00000000E+00 6.49928910E-01
10  5 0.00000000E+00 0.00000000E+00 0.00000000E+00 0.00000000E+00 0.00000000E+00
10  6 0.00000000E+00 4.06225020E-02 0.00000000E+00
11  1 0.00000000E+00 0.00000000E+00-5.96461048E-01 0.00000000E+00 0.00000000E+00
11  2 0.00000000E+00 6.49928910E-01 0.00000000E+00 0.00000000E+00 0.00000000E+00
11  3 0.00000000E+00 0.00000000E+00 0.00000000E+00-4.06225020E-02 0.00000000E+00
11  4 0.00000000E+00-5.96461048E-01 0.00000000E+00 0.00000000E+00 0.00000000E+00
11  5 6.49928910E-01 0.00000000E+00 0.00000000E+00 0.00000000E+00 0.00000000E+00
11  6 0.00000000E+00 0.00000000E+00 4.06225020E-02
12  1 0.00000000E+00 0.00000000E+00-7.70781765E-01 0.00000000E+00 0.00000000E+00
12  2 0.00000000E+00 1.27525811E+00 0.00000000E+00 0.00000000E+00 0.00000000E+00
12  3 0.00000000E+00 0.00000000E+00 0.00000000E+00 2.85542704E-02 0.00000000E+00
12  4 0.00000000E+00 7.70781765E-01 0.00000000E+00 0.00000000E+00 0.00000000E+00
12  5-1.27525811E+00 0.00000000E+00 0.00000000E+00 0.00000000E+00 0.00000000E+00
12  6 0.00000000E+00 0.00000000E+00 2.85542704E-02
13  1 0.00000000E+00-7.70781765E-01 0.00000000E+00 0.00000000E+00 0.00000000E+00
13  2 1.27525811E+00 0.00000000E+00 0.00000000E+00 0.00000000E+00 0.00000000E+00
13  3 0.00000000E+00 0.00000000E+00 2.85542704E-02 0.00000000E+00 0.00000000E+00
13  4 7.70781765E-01 0.00000000E+00 0.00000000E+00 0.00000000E+00-1.27525811E+00
13  5 0.00000000E+00 0.00000000E+00 0.00000000E+00 0.00000000E+00 0.00000000E+00
13  6 0.00000000E+00 2.85542704E-02 0.00000000E+00
14  1-8.15528868E-03 0.00000000E+00 0.00000000E+00 9.60722638E-01 2.95155218E+00
14  2 0.00000000E+00 0.00000000E+00 8.82401138E-01 5.93848708E-02 5.93848708E-02
14  3-1.18769742E-01 0.00000000E+00 0.00000000E+00 0.00000000E+00 8.15528868E-03
14  4 0.00000000E+00 0.00000000E+00 9.60722638E-01-2.95155218E+00 0.00000000E+00
14  5 0.00000000E+00 8.82401138E-01-5.93848708E-02-5.93848708E-02 1.18769742E-01
14  6 0.00000000E+00 0.00000000E+00 0.00000000E+00
15  1 9.53246269E-01 0.00000000E+00 0.00000000E+00-1.45568264E-01-8.20794071E-01
15  2 0.00000000E+00 0.00000000E+00-2.58076587E-01-8.44139828E-02-8.44139828E-02
15  3 1.68827966E-01 0.00000000E+00 0.00000000E+00 0.00000000E+00 9.53246269E-01
15  4 0.00000000E+00 0.00000000E+00 1.45568264E-01-8.20794071E-01 0.00000000E+00
15  5 0.00000000E+00 2.58076587E-01-8.44139828E-02-8.44139828E-02 1.68827966E-01
15  6 0.00000000E+00 0.00000000E+00 0.00000000E+00
16  1 0.00000000E+00-1.98915518E-01 0.00000000E+00 0.00000000E+00 0.00000000E+00
16  2 6.12799293E-02 0.00000000E+00 0.00000000E+00 0.00000000E+00 0.00000000E+00
16  3 0.00000000E+00 0.00000000E+00 6.18272048E-01 0.00000000E+00 0.00000000E+00
16  4-1.98915518E-01 0.00000000E+00 0.00000000E+00 0.00000000E+00 6.12799293E-02
16  5 0.00000000E+00 0.00000000E+00 0.00000000E+00 0.00000000E+00 0.00000000E+00
16  6 0.00000000E+00-6.18272048E-01 0.00000000E+00
17  1 0.00000000E+00 0.00000000E+00-1.98915518E-01 0.00000000E+00 0.00000000E+00
17  2 0.00000000E+00 6.12799293E-02 0.00000000E+00 0.00000000E+00 0.00000000E+00
17  3 0.00000000E+00 0.00000000E+00 0.00000000E+00 6.18272048E-01 0.00000000E+00
17  4 0.00000000E+00-1.98915518E-01 0.00000000E+00 0.00000000E+00 0.00000000E+00
17  5 6.12799293E-02 0.00000000E+00 0.00000000E+00 0.00000000E+00 0.00000000E+00
17  6 0.00000000E+00 0.00000000E+00-6.18272048E-01
18  1 0.00000000E+00 0.00000000E+00 0.00000000E+00 0.00000000E+00 0.00000000E+00
18  2 0.00000000E+00 0.00000000E+00 0.00000000E+00 5.87052586E-01-5.87052586E-01
18  3 0.00000000E+00 0.00000000E+00 0.00000000E+00 0.00000000E+00 0.00000000E+00
18  4 0.00000000E+00 0.00000000E+00 0.00000000E+00 0.00000000E+00 0.00000000E+00
18  5 0.00000000E+00 0.00000000E+00 5.87052586E-01-5.87052586E-01 0.00000000E+00
18  6 0.00000000E+00 0.00000000E+00 0.00000000E+00
19  1 0.00000000E+00 0.00000000E+00 0.00000000E+00 0.00000000E+00 0.00000000E+00
19  2 0.00000000E+00 0.00000000E+00 0.00000000E+00 0.00000000E+00 0.00000000E+00
19  3 0.00000000E+00 6.77869937E-01 0.00000000E+00 0.00000000E+00 0.00000000E+00
19  4 0.00000000E+00 0.00000000E+00 0.00000000E+00 0.00000000E+00 0.00000000E+00
19  5 0.00000000E+00 0.00000000E+00 0.00000000E+00 0.00000000E+00 0.00000000E+00
19  6 6.77869937E-01 0.00000000E+00 0.00000000E+00
20  1-9.24340291E-01 0.00000000E+00 0.00000000E+00 2.12515778E-01 8.61613168E+00
20  2 0.00000000E+00 0.00000000E+00 3.46654954E+00-2.93646755E-01-2.93646755E-01
20  3 5.87293510E-01 0.00000000E+00 0.00000000E+00 0.00000000E+00 9.24340291E-01
20  4 0.00000000E+00 0.00000000E+00 2.12515778E-01-8.61613168E+00 0.00000000E+00
20  5 0.00000000E+00 3.46654954E+00 2.93646755E-01 2.93646755E-01-5.87293510E-01
20  6 0.00000000E+00 0.00000000E+00 0.00000000E+00
21  1 0.00000000E+00 0.00000000E+00 0.00000000E+00 0.00000000E+00 0.00000000E+00
21  2 0.00000000E+00 0.00000000E+00 0.00000000E+00 0.00000000E+00 0.00000000E+00
21  3 0.00000000E+00 7.40485286E-01 0.00000000E+00 0.00000000E+00 0.00000000E+00
21  4 0.00000000E+00 0.00000000E+00 0.00000000E+00 0.00000000E+00 0.00000000E+00
21  5 0.00000000E+00 0.00000000E+00 0.00000000E+00 0.00000000E+00 0.00000000E+00
21  6-7.40485286E-01 0.00000000E+00 0.00000000E+00
22  1 0.00000000E+00 0.00000000E+00 0.00000000E+00 0.00000000E+00 0.00000000E+00
22  2 0.00000000E+00 0.00000000E+00 0.00000000E+00 6.41279069E-01-6.41279069E-01
22  3 0.00000000E+00 0.00000000E+00 0.00000000E+00 0.00000000E+00 0.00000000E+00
22  4 0.00000000E+00 0.00000000E+00 0.00000000E+00 0.00000000E+00 0.00000000E+00
22  5 0.00000000E+00 0.00000000E+00-6.41279069E-01 6.41279069E-01 0.00000000E+00
22  6 0.00000000E+00 0.00000000E+00 0.00000000E+00
23  1-5.88191783E-01 0.00000000E+00 0.00000000E+00-1.70470951E-01 3.48261322E-01
23  2 0.00000000E+00 0.00000000E+00 4.11293326E-01-3.35568950E-01-3.35568950E-01
23  3 6.71137900E-01 0.00000000E+00 0.00000000E+00 0.00000000E+00-5.88191783E-01
23  4 0.00000000E+00 0.00000000E+00 1.70470951E-01 3.48261322E-01 0.00000000E+00
23  5 0.00000000E+00-4.11293326E-01-3.35568950E-01-3.35568950E-01 6.71137900E-01
23  6 0.00000000E+00 0.00000000E+00 0.00000000E+00
24  1 0.00000000E+00 0.00000000E+00 2.42607246E-01 0.00000000E+00 0.00000000E+00
24  2 0.00000000E+00 1.53658660E-01 0.00000000E+00 0.00000000E+00 0.00000000E+00
24  3 0.00000000E+00 0.00000000E+00 0.00000000E+00 9.19012986E-01 0.00000000E+00
24  4 0.00000000E+00-2.42607246E-01 0.00000000E+00 0.00000000E+00 0.00000000E+00
24  5-1.53658660E-01 0.00000000E+00 0.00000000E+00 0.00000000E+00 0.00000000E+00
24  6 0.00000000E+00 0.00000000E+00 9.19012986E-01
25  1 0.00000000E+00 2.42607246E-01 0.00000000E+00 0.00000000E+00 0.00000000E+00
25  2 1.53658660E-01 0.00000000E+00 0.00000000E+00 0.00000000E+00 0.00000000E+00
25  3 0.00000000E+00 0.00000000E+00 9.19012986E-01 0.00000000E+00 0.00000000E+00
25  4-2.42607246E-01 0.00000000E+00 0.00000000E+00 0.00000000E+00-1.53658660E-01
25  5 0.00000000E+00 0.00000000E+00 0.00000000E+00 0.00000000E+00 0.00000000E+00
25  6 0.00000000E+00 9.19012986E-01 0.00000000E+00
26  1-1.54704375E+00 0.00000000E+00 0.00000000E+00-1.13936516E+00 2.98193451E+00
26  2 0.00000000E+00 0.00000000E+00 1.15006952E+00 4.73560927E-01 4.73560927E-01
26  3-9.47121854E-01 0.00000000E+00 0.00000000E+00 0.00000000E+00 1.54704375E+00
26  4 0.00000000E+00 0.00000000E+00-1.13936516E+00-2.98193451E+00 0.00000000E+00
26  5 0.00000000E+00 1.15006952E+00-4.73560927E-01-4.73560927E-01 9.47121854E-01
26  6 0.00000000E+00 0.00000000E+00 0.00000000E+00
 $END

! TRAVIS-CI SMALL

