!   cytosine...C4 N3 O H5...CAS #71-30-7
!   one of the five nucleic acids...13 atoms...cc-pVDZ basis set
!   there are 145 AOs, 137 MOs, 8 core, 21 valence, 108 virtual orbs.
!
!   FINAL RHF ENERGY IS  -392.6377129961, 14 iters
!       MBPT(2) ENERGY:  -393.8190416510, 23 iters
!       CCSD    ENERGY:  -393.8529017307
!       CCSD[T] ENERGY:  -393.9058279031
!       CCSD(T) ENERGY:  -393.9024493982
!
!   This run takes 3865 seconds on 2.66 GHz Cloverton ( 5 Apr 2015)
!   results haven't changed since at least 2012
!
 $contrl scftyp=rhf cctyp=ccsd(t) runtyp=energy 
         coord=zmt nzvar=33 ispher=1 $end

     memory required for serial and DDI codes, respectively:
x$system mwords=100 memddi=0 $end
 $system mwords=10  memddi=100 parall=.true. $end

 $basis  gbasis=ccd $end
 $guess  guess=huckel $end
 $scf    dirscf=.true. $end
 $data
cytosine...one of the bases found in nucleic acids...geom from RHF/AM1
C1
C   
C      1   1.4650373
C      2   1.3716299  1   117.7958997
N      3   1.3647282  2   121.3155803  1      .3498173  0
C      4   1.4396187  3   119.9661479  2      .2091058  0
N      5   1.4011663  3    90.9801250  2      .2114610  0
O      5   1.2468098  4   115.9883744  3   179.7178226  0
N      1   1.3788003  2   118.0962168  3   176.8645647  0
H      2   1.0941969  3   121.2004089  4   179.6832397  0
H      3   1.1066467  4   117.1420349  5  -179.7448468  0
H      4    .9940077  5   118.5566942  6  -179.8953981  0
H      8    .9887008  1   117.8840921  2    15.7868234  0
H      8    .9916901  1   119.8259677  2   173.2680833  0
 $end

! TRAVIS-CI LARGE

