!    My arbitrary molecule S=Bi(SnH3)(SeH)At, meant to have lots
!    of core electrons to be removed by the potential, with lots of
!    polarization functions used to stress the PP integral package.
!    Basis on Bi,Sn,Se,At,S goes up to G functions, and H up to F.
!    Some of the f and g functions are contracted!
!    499 AOs, 401 MOs using spherical harmonics, 36 occupied MOs
!
!    FINAL E= -381.4584404509, 17 iters, RMS grad= 0.005922055
!
!    This run takes 2920 seconds on 2.66 GHz Cloverton ( 7 Apr 2015)
!    The AOINTS disk file takes 66 GBytes of storage. 
!    this has been a stable run since 2005
!
!    ------------------------------------------------------------------
!    a geometry optimization (direct SCF, 64 cores) went pretty well:
!        NSERCH:   0  E=     -381.4584404452  R.M.S.=  0.0059223
!        NSERCH:   1  E=     -381.4594319850  R.M.S.=  0.0040299
!        NSERCH:   2  E=     -381.4600494966  R.M.S.=  0.0020918
!        NSERCH:   3  E=     -381.4602551656  R.M.S.=  0.0005324
!        NSERCH:   4  E=     -381.4602663211  R.M.S.=  0.0002624
!        NSERCH:   5  E=     -381.4602751790  R.M.S.=  0.0002095
!        NSERCH:   6  E=     -381.4602798724  R.M.S.=  0.0002519
!           ...snipped...
!        NSERCH:  18  E=     -381.4604003832  R.M.S.=  0.0000218
!        NSERCH:  19  E=     -381.4604003903  R.M.S.=  0.0000182
!        NSERCH:  20  E=     -381.4604004183  R.M.S.=  0.0000155
!        NSERCH:  21  E=     -381.4604004751  R.M.S.=  0.0000132
!           ...snipped...
!        NSERCH:  28  E=     -381.4604016696  R.M.S.=  0.0000218
!        NSERCH:  29  E=     -381.4604016851  R.M.S.=  0.0000122
!        NSERCH:  30  E=     -381.4604016859  R.M.S.=  0.0000077    <---
!        NSERCH:  31  E=     -381.4604016822  R.M.S.=  0.0000046
!        NSERCH:  32  E=     -381.4604016817  R.M.S.=  0.0000025
!    although lowest E occurs at the antepenultimate geometry.
! 
 $contrl scftyp=rhf runtyp=gradient pp=mcp nzvar=21 ispher=1 $end
 $system mwords=5 $end
 $basis  gbasis=mcp-qzp $end
 $guess  guess=huckel $end
 $scf    dirscf=.false. $end
 $data
test on artificial molecule...Bi(SnH3)(SeH)At=S
C1
BI         83.0    .4070872775    .7782398266   -.3936725280
SN         50.0   1.1414728458   1.1356145862   2.3848588864
H           1.0   1.2527257999   -.4214651586   3.0224606970
H           1.0   2.6177043590   1.9484947995   2.3495726821
H           1.0   -.1127047214   2.0405969627   3.0535321693
SE         34.0   2.0684890776  -1.1125182760  -1.2134154093
H           1.0   2.1422107340   -.5803659875  -2.5852472725
AT         85.0  -2.1302318016   -.6171154150   -.2143212107
S          16.0    .3754817088   2.6319401078  -1.8885256240
 $end
 $zmat izmat(1)=1,1,2,  1,2,3,  1,2,4,  1,2,5,
           1,1,6,  1,6,7,  1,1,8,  1,1,9
           2,2,1,6,  2,8,1,6,  2,9,1,6,
           3,2,1,6,7,  3,8,1,6,7,  3,9,1,6,7
           2,3,2,1,  2,4,2,1,  2,5,2,1,   2,7,6,1,
           3,3,2,1,6,  3,4,2,1,6,  3,5,2,1,6  $end

Geometry optimization gives these coordinates:
BI   83.0   0.4248034061   0.7815742155  -0.4030834883
SN   50.0   1.0950489297   1.1362169535   2.3996274973
H     1.0   1.1602475756  -0.4302730250   3.0362338221
H     1.0   2.5935340413   1.9232779847   2.4079971843
H     1.0  -0.1626547895   2.0708060550   3.0353639877
SE   34.0   2.0290975836  -1.1121315129  -1.2601235108
H     1.0   2.3402084063  -0.3501470166  -2.4556442652
AT   85.0  -2.1073716815  -0.6112072866  -0.1980013166
S    16.0   0.3811135395   2.5609793723  -1.8786223340
! TRAVIS-CI SKIP
! Requires 66GB of AOINTS on disk!

