!  AgH...test of internally uncontracted RESC gradient
!
!  FINAL E= -5291.7464340939, 12 iters, RMS grad=0.007267355
!
!  This run takes 11 seconds on 2.66 GHz Cloverton (7 May 2013)
!     results have not changed very much since at least 2005
!
 $contrl scftyp=rhf runtyp=gradient relwfn=resc $end 
 $SYSTEM mwords=1 $END
 $relwfn modeqr=1 $end
 $guess  guess=moread norb=96 $end
 $scf    soscf=.f. $end
 $data
AgH molecule at RHF NR optimised geometry
C1
SILVER     47.0    .0000000000    .0000000000   -.1391459073
  S    1
    1 .24664478D+07         0.000077
  S   12
    2 .36512837D+06         0.000616
    3 .80073473D+05         0.003465
    4 .21268394D+05         0.015911
    5 .64341100D+04         0.060595
    6 .21663029D+04         0.181244
    7 .80083475D+03         0.372256
    8 .32188857D+03         0.387164
    9 .13916735D+03         0.122296
   10 .54807387D+02         0.004813
   11 .24693249D+02         -.000549
   12 .87455636D+01         0.000246
   13 .43406869D+01         -.000195
  S   12
    2 .36512837D+06         0.000199
    3 .80073473D+05         0.001114
    4 .21268394D+05         0.005211
    5 .64341100D+04         0.020159
    6 .21663029D+04         0.066065
    7 .80083475D+03         0.159857
    8 .32188857D+03         0.256316
    9 .13916735D+03         0.015836
   10 .54807387D+02         -.630683
   11 .24693249D+02         -.470188
   12 .87455636D+01         -.049068
   13 .43406869D+01         0.011207
  S   12
    2 .36512837D+06         -.000086
    3 .80073473D+05         -.000485
    4 .21268394D+05         -.002253
    5 .64341100D+04         -.008837
    6 .21663029D+04         -.028899
    7 .80083475D+03         -.073184
    8 .32188857D+03         -.120469
    9 .13916735D+03         -.015563
   10 .54807387D+02         0.509000
   11 .24693249D+02         0.451248
   12 .87455636D+01         -.768089
   13 .43406869D+01         -.545291
  S   12
    2 .36512837D+06         -.000036
    3 .80073473D+05         -.000203
    4 .21268394D+05         -.000946
    5 .64341100D+04         -.003691
    6 .21663029D+04         -.012189
    7 .80083475D+03         -.030697
    8 .32188857D+03         -.052169
    9 .13916735D+03         -.004959
   10 .54807387D+02         0.233128
   11 .24693249D+02         0.248017
   12 .87455636D+01         -.629623
   13 .43406869D+01         -.541479
  S    1
    1 .14361951D+01         1.000000
  S    1
    1 .62039870D+00         1.000000
  S    1
    1 .10009996D+00         1.000000
  S    1
    1 .36414185D-01         1.000000
  S    1
    1 .014565674            1.000000
  P   10
    1 .15926060D+05         0.000441
    2 .13487612D+04         0.016542
    3 .38771796D+04         0.003563
    4 .54691358D+03         0.061054
    5 .28257251D+03         0.070404
    6 .17615632D+03         0.214416
    7 .78878744D+02         0.440345
    8 .34122269D+02         0.330516
    9 .12737152D+02         0.048323
   10 .54645251D+01         -.004929
  P   10
    1 .15926060D+05         -.000204
    2 .13487612D+04         -.007854
    3 .38771796D+04         -.001561
    4 .54691358D+03         -.026871
    5 .28257251D+03         -.040702
    6 .17615632D+03         -.096776
    7 .78878744D+02         -.253885
    8 .34122269D+02         -.066380
    9 .12737152D+02         0.575387
   10 .54645251D+01         0.500301
  P   10
    1 .15926060D+05         0.000079
    2 .13487612D+04         0.003036
    3 .38771796D+04         0.000633
    4 .54691358D+03         0.011191
    5 .28257251D+03         0.014567
    6 .17615632D+03         0.041846
    7 .78878744D+02         0.100622
    8 .34122269D+02         0.024824
    9 .12737152D+02         -.357178
   10 .54645251D+01         -.213207
  P    1
   11 .17446082D+01         1.000000
  P    1
    1 .63233187D+00         1.000000
  P    1
    1 .25293275             1.000000
  P    1
    1 .10117310             1.000000
  P    1
    1 .04046924             1.000000
  D    6
    1 .51326732D+03         0.004488
    2 .15189997D+03         0.037912
    3 .54850920D+02         0.172013
    4 .21319618D+02         0.420746
    5 .84550623D+01         0.466916
    6 .32668348D+01         0.138006
  D    6
    1 .51326732D+03         -.001515
    2 .15189997D+03         -.012773
    3 .54850920D+02         -.059537
    4 .21319618D+02         -.143517
    5 .84550623D+01         -.131032
    6 .32668348D+01         0.240073
  D    1
    7 .11758928D+01         1.000000
  D    1
    1 .36162557D+00         1.000000
  D    1
    1 .14465023             1.000000
  F    1
    1 .17000000D+01         1.000000
  F    1
    1 .45000000             1.000000

HYDROGEN    1.0    .0000000000    .0000000000   1.6391459073
  S    4
    1    402.0100000        0.0002790000
    2     60.2420000        0.0021650000
    3     13.7322000        0.0112000000
    4      3.9045100        0.0448990000
  S    1
    1      1.2827100        1.0000000000
  S    1
    1      0.4655440        1.0000000000
  S    1
    1      0.1811200        1.0000000000
  S    1
    1      0.0727910        1.0000000000
  S    1
    1      0.0267000        1.0000000000
  P    1
    1      1.4000000        1.0000000000
  P    1
    1      0.2500000        1.0000000000

 $end

--- OPTIMIZED RHF      MO-S --- GENERATED AT  2:45:25 CST 23-FEB-2000
E=    -5198.1540376916, E(NUC)=   13.9860795116
 $VEC   
 1  1 7.73592367E-05 1.00003306E+00-1.38497746E-04-2.78310487E-04 2.56515335E-04
 1  2-5.13191088E-04-2.13056846E-04-7.58804369E-04 4.45933831E-05-7.33893181E-06
 1  3-1.57099888E-11 0.00000000E+00-5.68345474E-06-1.11676836E-10-3.44670710E-11
 1  4-2.05243155E-05-1.06660557E-10-3.29228535E-11-2.08540834E-05 1.18794368E-11
 1  5 0.00000000E+00 1.13521877E-06 0.00000000E+00 0.00000000E+00-1.24629261E-06
 1  6 1.61151086E-11 0.00000000E+00 9.82142230E-06 0.00000000E+00 0.00000000E+00
 1  7-3.19692980E-06 0.00000000E+00 0.00000000E+00 2.01343239E-06 3.21701663E-04
 1  8 3.21701663E-04 3.21824502E-04 0.00000000E+00 0.00000000E+00 0.00000000E+00
 1  9 1.96921148E-04 1.96921148E-04 1.97099635E-04 0.00000000E+00 0.00000000E+00
 1 10 0.00000000E+00 1.81439275E-04 1.81439275E-04 1.81096226E-04 0.00000000E+00
 1 11 0.00000000E+00 0.00000000E+00 1.33773161E-04 1.33773161E-04 1.34517211E-04
 1 12 0.00000000E+00 0.00000000E+00 0.00000000E+00 1.84044105E-04 1.84044105E-04
 1 13 1.84232756E-04 0.00000000E+00 0.00000000E+00 0.00000000E+00-1.13562345E-11
 1 14 0.00000000E+00-1.13186258E-06 0.00000000E+00-4.20942325E-07 0.00000000E+00
 1 15-4.20942325E-07 0.00000000E+00 0.00000000E+00 0.00000000E+00-1.00908588E-11
 1 16 0.00000000E+00-3.58248247E-06 0.00000000E+00-1.91440388E-06 0.00000000E+00
 1 17-1.91440388E-06 0.00000000E+00 0.00000000E+00 0.00000000E+00-1.19923294E-08
 1 18-4.27011945E-08-1.22840952E-07-1.33547422E-06 2.03375456E-06-3.73869187E-06
 1 19 0.00000000E+00 0.00000000E+00 2.27891652E-07 0.00000000E+00 0.00000000E+00
 1 20 8.34104582E-07
 2  1-2.48790092E-05 1.07931137E-03-1.00544186E+00-1.03864243E-02 6.11780823E-03
 2  2-9.57823749E-03-3.73512073E-03-1.75061908E-02 1.02163713E-03-1.68021750E-04
 2  3 0.00000000E+00-1.92245576E-11-7.35804260E-04 0.00000000E+00-1.34507888E-10
 2  4 3.29852261E-04 0.00000000E+00-1.28607919E-10 3.52197548E-04 0.00000000E+00
 2  5 1.43947565E-11-1.73329324E-05 0.00000000E+00 1.09726307E-11-4.09919953E-05
 2  6 0.00000000E+00 2.06202887E-11 2.11905975E-04 0.00000000E+00 0.00000000E+00
 2  7-7.18058878E-05 0.00000000E+00 0.00000000E+00 4.51767691E-05 4.64597356E-03
 2  8 4.64597356E-03 4.63990976E-03 0.00000000E+00 0.00000000E+00 0.00000000E+00
 2  9 4.30990269E-03 4.30990269E-03 4.32402891E-03 0.00000000E+00 0.00000000E+00
 2 10 0.00000000E+00 3.53524456E-03 3.53524456E-03 3.52221339E-03 0.00000000E+00
 2 11 0.00000000E+00 0.00000000E+00 3.05369243E-03 3.05369243E-03 3.07425605E-03
 2 12 0.00000000E+00 0.00000000E+00 0.00000000E+00 4.25255199E-03 4.25255199E-03
 2 13 4.25509516E-03 0.00000000E+00 0.00000000E+00 0.00000000E+00 0.00000000E+00
 2 14-1.38623396E-11-3.68837766E-06 0.00000000E+00 4.97638758E-07 0.00000000E+00
 2 15 4.97638749E-07 0.00000000E+00 0.00000000E+00 0.00000000E+00 0.00000000E+00
 2 16-1.26718731E-11-7.25221351E-05 0.00000000E+00-3.99594289E-05 0.00000000E+00
 2 17-3.99594289E-05 0.00000000E+00 0.00000000E+00 0.00000000E+00 3.93949574E-07
 2 18-1.05344654E-06-3.10422972E-06-2.94961856E-05 4.72952707E-05-8.50222702E-05
 2 19 0.00000000E+00 0.00000000E+00 6.53899417E-06 0.00000000E+00 0.00000000E+00
 2 20 1.82105302E-05
 3  1 0.00000000E+00 0.00000000E+00-2.77685564E-11 4.44715185E-11-1.54291898E-10
 3  2-2.51793967E-10 4.59725117E-11-1.34029067E-09 7.10345967E-11-1.01362537E-11
 3  3 9.47767008E-01 3.08741111E-01-9.17922395E-10-2.08395323E-02-6.78860977E-03
 3  4-2.28168615E-10-1.96487249E-02-6.40069670E-03-2.17983473E-10 4.19351185E-03
 3  5 1.36606307E-03 2.22221959E-11 2.02078066E-03 6.58282111E-04 1.59200624E-11
 3  6 2.82739060E-03 9.21040413E-04 5.16935749E-11-4.30900196E-04-1.40368470E-04
 3  7-1.21081721E-11 9.61879783E-05 3.13338437E-05 0.00000000E+00 1.14896204E-10
 3  8 1.14845377E-10 1.15016498E-10 0.00000000E+00-1.88691381E-05-6.14674136E-06
 3  9 9.45111145E-11 9.45487761E-11 9.46022536E-11 0.00000000E+00 2.91481022E-05
 3 10 9.49517908E-06 1.25829424E-10 1.25830710E-10 1.25537111E-10 0.00000000E+00
 3 11-1.21401747E-05-3.95473888E-06 2.20190615E-10 2.20181458E-10 2.20980335E-10
 3 12 0.00000000E+00 5.97999690E-06 1.94802190E-06 3.30611856E-10 3.30601550E-10
 3 13 3.30544777E-10 0.00000000E+00-1.82610965E-06-5.94866795E-07-2.93975738E-03
 3 14-9.57644603E-04-2.36888602E-11-4.28271686E-04-1.05199479E-11-1.31469947E-03
 3 15-1.05199509E-11-1.31603485E-03-4.28706696E-04 0.00000000E+00-1.84558179E-03
 3 16-6.01209967E-04-2.81014250E-11-2.68869271E-04-1.28228759E-11-8.25369267E-04
 3 17-1.28228705E-11-8.24735779E-04-2.68662908E-04 0.00000000E+00 0.00000000E+00
 3 18 0.00000000E+00 0.00000000E+00 0.00000000E+00 0.00000000E+00 0.00000000E+00
 3 19-5.34065510E-07-1.73975225E-07 0.00000000E+00-8.91817975E-07-2.90515358E-07
 3 20 0.00000000E+00
 4  1 0.00000000E+00 0.00000000E+00 6.67520559E-11 2.60012973E-10-3.45638175E-10
 4  2-1.96276651E-10-2.33126006E-10-1.84078205E-10 1.71591469E-11 0.00000000E+00
 4  3 3.08741111E-01-9.47767008E-01-7.17036163E-10-6.78860977E-03 2.08395323E-02
 4  4-6.72501641E-11-6.40069670E-03 1.96487249E-02-6.43132064E-11 1.36606307E-03
 4  5-4.19351185E-03 0.00000000E+00 6.58282111E-04-2.02078066E-03 0.00000000E+00
 4  6 9.21040413E-04-2.82739060E-03 2.11055182E-11-1.40368470E-04 4.30900196E-04
 4  7 0.00000000E+00 3.13338437E-05-9.61879783E-05 0.00000000E+00 1.07564345E-10
 4  8 1.07477009E-10 1.07679460E-10 0.00000000E+00-6.14674136E-06 1.88691381E-05
 4  9 7.69135669E-11 7.69782875E-11 7.70730998E-11 0.00000000E+00 9.49517908E-06
 4 10-2.91481022E-05 1.09329394E-10 1.09331604E-10 1.08953907E-10 0.00000000E+00
 4 11-3.95473888E-06 1.21401747E-05 4.15775311E-11 4.15617920E-11 4.24515443E-11
 4 12 0.00000000E+00 1.94802190E-06-5.97999690E-06 4.07699008E-11 4.07521837E-11
 4 13 4.15751762E-11 0.00000000E+00-5.94866794E-07 1.82610965E-06-9.57644603E-04
 4 14 2.93975738E-03 0.00000000E+00 1.31469947E-03 0.00000000E+00-4.28271686E-04
 4 15 0.00000000E+00-4.28706696E-04 1.31603485E-03 0.00000000E+00-6.01209967E-04
 4 16 1.84558179E-03-1.00412164E-11 8.25369267E-04 0.00000000E+00-2.68869271E-04
 4 17 0.00000000E+00-2.68662908E-04 8.24735779E-04 0.00000000E+00 0.00000000E+00
 4 18 0.00000000E+00 0.00000000E+00 0.00000000E+00 0.00000000E+00 0.00000000E+00
 4 19-1.73975226E-07 5.34065510E-07 0.00000000E+00-2.90515360E-07 8.91817975E-07
 4 20 0.00000000E+00
 5  1-1.96513886E-08 1.13851473E-05-8.64463642E-04-3.79879697E-05-1.18381389E-04
 5  2-9.98210192E-05 4.94504077E-05-7.12757430E-04 6.41200748E-05 6.40451649E-05
 5  3 1.05835621E-09-3.97069542E-10 9.96767995E-01-2.13371905E-11 0.00000000E+00
 5  4-2.20479910E-02-2.00994965E-11 0.00000000E+00-2.07831920E-02 0.00000000E+00
 5  5 0.00000000E+00 4.41351758E-03 0.00000000E+00 0.00000000E+00 2.09926122E-03
 5  6 0.00000000E+00 0.00000000E+00 3.39207153E-03 0.00000000E+00 0.00000000E+00
 5  7-5.59390195E-04 0.00000000E+00 0.00000000E+00 1.79387602E-04-7.62684081E-07
 5  8-7.62684078E-07-3.55068321E-05 0.00000000E+00 0.00000000E+00 0.00000000E+00
 5  9 2.76648629E-05 2.76648629E-05 8.06795939E-05 0.00000000E+00 0.00000000E+00
 5 10 0.00000000E+00 6.43601952E-05 6.43601952E-05 4.13474251E-05 0.00000000E+00
 5 11 0.00000000E+00 0.00000000E+00 1.16360139E-04 1.16360139E-04 1.40620069E-04
 5 12 0.00000000E+00 0.00000000E+00 0.00000000E+00 1.75396841E-04 1.75396841E-04
 5 13 2.00605111E-04 0.00000000E+00 0.00000000E+00 0.00000000E+00 0.00000000E+00
 5 14 0.00000000E+00-3.13278233E-03 0.00000000E+00-1.40088087E-03 0.00000000E+00
 5 15-1.40088087E-03 0.00000000E+00 0.00000000E+00 0.00000000E+00 0.00000000E+00
 5 16 0.00000000E+00-2.11313168E-03 0.00000000E+00-9.51096432E-04 0.00000000E+00
 5 17-9.51096432E-04 0.00000000E+00 0.00000000E+00 0.00000000E+00-7.69584604E-06
 5 18 1.53438262E-05-1.15933115E-05-7.57412032E-05 7.62544684E-05-1.50657038E-04
 5 19 0.00000000E+00 0.00000000E+00-2.84080124E-05 0.00000000E+00 0.00000000E+00
 5 20 5.38008087E-05
 6  1-1.07959034E-05-5.73565212E-04-4.28518426E-04 9.60031130E-01 2.12802136E-02
 6  2-4.25116806E-03 6.78273598E-03 7.44465537E-02-4.30977450E-03 7.08223392E-04
 6  3 0.00000000E+00-2.99730008E-11 2.95234194E-04 4.21577322E-11-2.19700614E-10
 6  4 5.37751210E-03 3.75877810E-11-2.03130457E-10 2.21577525E-03 0.00000000E+00
 6  5 2.19438987E-11 1.25241856E-04 0.00000000E+00 1.79520764E-11 1.71354189E-04
 6  6 0.00000000E+00 3.89239247E-11-7.59246799E-04 0.00000000E+00 0.00000000E+00
 6  7 2.84748778E-04 0.00000000E+00 0.00000000E+00-1.87605208E-04-1.76267466E-02
 6  8-1.76267466E-02-1.73973776E-02 0.00000000E+00 0.00000000E+00 0.00000000E+00
 6  9-1.25908816E-02-1.25908816E-02-1.24441770E-02 0.00000000E+00 0.00000000E+00
 6 10 0.00000000E+00-9.89853992E-03-9.89853992E-03-9.94410247E-03 0.00000000E+00
 6 11 0.00000000E+00 0.00000000E+00-1.28354594E-02-1.28354594E-02-1.28463472E-02
 6 12 0.00000000E+00 0.00000000E+00 0.00000000E+00-1.81150361E-02-1.81150361E-02
 6 13-1.81414218E-02 0.00000000E+00 0.00000000E+00 0.00000000E+00 0.00000000E+00
 6 14-2.33545743E-11 1.28028195E-05-1.04763184E-11-1.11883449E-06 0.00000000E+00
 6 15-1.11883449E-06 0.00000000E+00-1.04855219E-11 0.00000000E+00 0.00000000E+00
 6 16-2.38790415E-11 2.58770074E-04-1.07146559E-11 1.40846770E-04 0.00000000E+00
 6 17 1.40846770E-04 0.00000000E+00-1.07324791E-11 0.00000000E+00-4.18242363E-06
 6 18 9.48790148E-06 7.03679619E-06 1.15863418E-04-1.93891310E-04 3.54083948E-04
 6 19 0.00000000E+00 0.00000000E+00-2.99687417E-05 0.00000000E+00 0.00000000E+00
 6 20-5.77409050E-05
 7  1 0.00000000E+00 0.00000000E+00 0.00000000E+00-3.36756308E-11 4.01093207E-11
 7  2 0.00000000E+00 6.58824269E-11-1.28128888E-10 0.00000000E+00 0.00000000E+00
 7  3 2.26650112E-03 5.39398620E-03 0.00000000E+00-3.62743299E-01-8.63283203E-01
 7  4-1.16899496E-09 1.48908569E-02 3.54383573E-02 2.88274511E-11-1.97907730E-02
 7  5-4.70995383E-02-6.09346488E-11 4.79944179E-04 1.14220648E-03 0.00000000E+00
 7  6 2.30402518E-03 5.48328871E-03 1.78085077E-11-3.83425659E-04-9.12504605E-04
 7  7 0.00000000E+00 8.79893446E-05 2.09403519E-04 0.00000000E+00 0.00000000E+00
 7  8 0.00000000E+00 0.00000000E+00 0.00000000E+00 5.46168270E-04 1.29981145E-03
 7  9 0.00000000E+00 0.00000000E+00 0.00000000E+00 0.00000000E+00 6.13924689E-05
 7 10 1.46106316E-04-1.03145378E-11-1.02838394E-11-1.03963795E-11 0.00000000E+00
 7 11-2.67306513E-05-6.36155714E-05 1.79164257E-11 1.78627938E-11 1.80237852E-11
 7 12 0.00000000E+00 2.02456818E-05 4.81821638E-05 3.30114041E-11 3.29594909E-11
 7 13 3.30526240E-11 0.00000000E+00-6.83431516E-06-1.62648063E-05 1.91422243E-03
 7 14 4.55560744E-03 0.00000000E+00 2.03732958E-03 0.00000000E+00 8.56066297E-04
 7 15 0.00000000E+00 8.56541312E-04 2.03846006E-03 0.00000000E+00-1.41207939E-03
 7 16-3.36057047E-03 0.00000000E+00-1.50289280E-03 0.00000000E+00-6.31501100E-04
 7 17 0.00000000E+00-6.32982674E-04-1.50641876E-03 0.00000000E+00 0.00000000E+00
 7 18 0.00000000E+00 0.00000000E+00 0.00000000E+00 0.00000000E+00 0.00000000E+00
 7 19-8.98473109E-07-2.13825244E-06 0.00000000E+00 1.22404727E-06 2.91307779E-06
 7 20 0.00000000E+00
 8  1 0.00000000E+00 0.00000000E+00 1.21109961E-11 8.63084046E-11-1.09837992E-10
 8  2-7.67938081E-11-6.99967891E-11-1.88011142E-10 1.30316624E-11 0.00000000E+00
 8  3 5.39398620E-03-2.26650112E-03 0.00000000E+00-8.63283203E-01 3.62743299E-01
 8  4-2.57756392E-09 3.54383573E-02-1.48908569E-02 5.31350970E-11-4.70995383E-02
 8  5 1.97907730E-02-1.31634844E-10 1.14220648E-03-4.79944179E-04 0.00000000E+00
 8  6 5.48328871E-03-2.30402518E-03 3.19829183E-11-9.12504605E-04 3.83425659E-04
 8  7 0.00000000E+00 2.09403519E-04-8.79893446E-05 0.00000000E+00 3.94432300E-11
 8  8 3.71305887E-11 4.47728811E-11 0.00000000E+00 1.29981145E-03-5.46168270E-04
 8  9 3.13065776E-11 3.17252323E-11 3.22683098E-11 0.00000000E+00 1.46106316E-04
 8 10-6.13924690E-05 4.59312599E-11 4.60082612E-11 4.53570744E-11 0.00000000E+00
 8 11-6.36155714E-05 2.67306513E-05 3.49314595E-11 3.47969061E-11 3.55702127E-11
 8 12 0.00000000E+00 4.81821638E-05-2.02456818E-05 4.47303848E-11 4.46000503E-11
 8 13 4.49419701E-11 0.00000000E+00-1.62648063E-05 6.83431516E-06 4.55560744E-03
 8 14-1.91422243E-03 0.00000000E+00-8.56066297E-04 0.00000000E+00 2.03732959E-03
 8 15 0.00000000E+00 2.03846006E-03-8.56541312E-04 0.00000000E+00-3.36057047E-03
 8 16 1.41207939E-03-1.82329247E-11 6.31501100E-04 0.00000000E+00-1.50289280E-03
 8 17 0.00000000E+00-1.50641876E-03 6.32982674E-04 0.00000000E+00 0.00000000E+00
 8 18 0.00000000E+00 0.00000000E+00 0.00000000E+00 0.00000000E+00 0.00000000E+00
 8 19-2.13825242E-06 8.98473103E-07 0.00000000E+00 2.91307785E-06-1.22404730E-06
 8 20 0.00000000E+00
 9  1-3.52879946E-08-2.17062491E-05 1.29211515E-04 3.87230209E-03-1.03079363E-03
 9  2-6.06914012E-04 2.57492841E-05 9.56754527E-06 4.50424119E-05 1.63751621E-04
 9  3-1.70129943E-11 0.00000000E+00 6.04426645E-03 2.77496389E-09 8.31362399E-11
 9  4-9.34951554E-01-1.11611138E-10 0.00000000E+00 3.98806748E-02 1.50985604E-10
 9  5 0.00000000E+00-5.11589044E-02 0.00000000E+00 0.00000000E+00 1.18253607E-03
 9  6-1.80793746E-11 0.00000000E+00 6.91620883E-03 0.00000000E+00 0.00000000E+00
 9  7-1.22474058E-03 0.00000000E+00 0.00000000E+00 3.97275758E-04-7.29430283E-04
 9  8-7.29430283E-04 1.71628157E-03 0.00000000E+00 0.00000000E+00 0.00000000E+00
 9  9 8.26681409E-05 8.26681408E-05 3.68095102E-04 0.00000000E+00 0.00000000E+00
 9 10 0.00000000E+00 8.97471181E-05 8.97471181E-05-3.47497563E-05 0.00000000E+00
 9 11 0.00000000E+00 0.00000000E+00-2.44412541E-05-2.44412541E-05 1.04795361E-04
 9 12 0.00000000E+00 0.00000000E+00 0.00000000E+00 8.81998674E-06 8.81998677E-06
 9 13 4.51833893E-05 0.00000000E+00 0.00000000E+00 0.00000000E+00-1.43459524E-11
 9 14 0.00000000E+00 4.87180015E-03 0.00000000E+00 2.16652076E-03 0.00000000E+00
 9 15 2.16652076E-03 0.00000000E+00 0.00000000E+00 0.00000000E+00 1.11174362E-11
 9 16 0.00000000E+00-4.03382661E-03 0.00000000E+00-1.81707992E-03 0.00000000E+00
 9 17-1.81707992E-03 0.00000000E+00 0.00000000E+00 0.00000000E+00-1.55124651E-05
 9 18 1.99663084E-05-1.77944571E-06-1.84258569E-04 1.86979383E-04-3.38911457E-04
 9 19 0.00000000E+00 0.00000000E+00-6.25557801E-05 0.00000000E+00 0.00000000E+00
 9 20 1.28113845E-04
10  1 0.00000000E+00 0.00000000E+00 0.00000000E+00 0.00000000E+00 0.00000000E+00
10  2 0.00000000E+00 0.00000000E+00-2.17336533E-11 0.00000000E+00 0.00000000E+00
10  3 0.00000000E+00 0.00000000E+00 0.00000000E+00 0.00000000E+00 0.00000000E+00
10  4 0.00000000E+00 0.00000000E+00 0.00000000E+00 0.00000000E+00 0.00000000E+00
10  5 0.00000000E+00 0.00000000E+00 0.00000000E+00 0.00000000E+00 0.00000000E+00
10  6 0.00000000E+00 0.00000000E+00 0.00000000E+00 0.00000000E+00 0.00000000E+00
10  7 0.00000000E+00 0.00000000E+00 0.00000000E+00 0.00000000E+00-8.65886966E-01
10  8 8.65886966E-01 0.00000000E+00-1.16382528E-04 2.78157095E-09-1.84009953E-09
10  9 2.98633297E-04-2.98633298E-04 0.00000000E+00 4.01388398E-08 0.00000000E+00
10 10 0.00000000E+00 4.26724569E-04-4.26724571E-04 0.00000000E+00 5.73553897E-08
10 11 0.00000000E+00 0.00000000E+00-1.81537235E-03 1.81537235E-03 0.00000000E+00
10 12-2.44001391E-07 0.00000000E+00 0.00000000E+00 7.44572019E-04-7.44572008E-04
10 13 0.00000000E+00 1.00076773E-07 0.00000000E+00 0.00000000E+00 0.00000000E+00
10 14 0.00000000E+00 0.00000000E+00 0.00000000E+00 1.09194660E-04 0.00000000E+00
10 15-1.09194660E-04 0.00000000E+00 0.00000000E+00 1.46766855E-08 0.00000000E+00
10 16 0.00000000E+00 0.00000000E+00 0.00000000E+00-2.42200298E-05 0.00000000E+00
10 17 2.42200298E-05 0.00000000E+00 0.00000000E+00-3.25537676E-09 0.00000000E+00
10 18 0.00000000E+00 0.00000000E+00 0.00000000E+00 0.00000000E+00 0.00000000E+00
10 19 0.00000000E+00 0.00000000E+00 0.00000000E+00 0.00000000E+00 0.00000000E+00
10 20 0.00000000E+00
11  1 0.00000000E+00 0.00000000E+00 0.00000000E+00 0.00000000E+00 0.00000000E+00
11  2 0.00000000E+00 0.00000000E+00 0.00000000E+00 0.00000000E+00 0.00000000E+00
11  3 0.00000000E+00 0.00000000E+00 0.00000000E+00 0.00000000E+00 0.00000000E+00
11  4 0.00000000E+00 0.00000000E+00 0.00000000E+00 0.00000000E+00 0.00000000E+00
11  5 0.00000000E+00 0.00000000E+00 0.00000000E+00 0.00000000E+00 0.00000000E+00
11  6 0.00000000E+00 0.00000000E+00 0.00000000E+00 0.00000000E+00 0.00000000E+00
11  7 0.00000000E+00 0.00000000E+00 0.00000000E+00 0.00000000E+00-1.00790226E-04
11  8 1.00790226E-04 0.00000000E+00 9.99840146E-01 0.00000000E+00 0.00000000E+00
11  9 3.47612542E-08-3.47612554E-08 0.00000000E+00-3.44832030E-04 0.00000000E+00
11 10 0.00000000E+00 4.96712236E-08-4.96712258E-08 0.00000000E+00-4.92739091E-04
11 11 0.00000000E+00 0.00000000E+00-2.11311407E-07 2.11311399E-07 0.00000000E+00
11 12 2.09621143E-03 0.00000000E+00 0.00000000E+00 8.66690223E-08-8.66690335E-08
11 13 0.00000000E+00-8.59757705E-04 0.00000000E+00 0.00000000E+00 0.00000000E+00
11 14 0.00000000E+00 0.00000000E+00 0.00000000E+00 1.27103824E-08 0.00000000E+00
11 15-1.27103826E-08 0.00000000E+00 0.00000000E+00-1.26087133E-04 0.00000000E+00
11 16 0.00000000E+00 0.00000000E+00 0.00000000E+00-2.81924055E-09 0.00000000E+00
11 17 2.81923736E-09 0.00000000E+00 0.00000000E+00 2.79668816E-05 0.00000000E+00
11 18 0.00000000E+00 0.00000000E+00 0.00000000E+00 0.00000000E+00 0.00000000E+00
11 19 0.00000000E+00 0.00000000E+00 0.00000000E+00 0.00000000E+00 0.00000000E+00
11 20 0.00000000E+00
12  1 0.00000000E+00 0.00000000E+00 0.00000000E+00 0.00000000E+00 0.00000000E+00
12  2 0.00000000E+00 1.93361008E-11-5.74007308E-11 0.00000000E+00 0.00000000E+00
12  3 1.71813927E-05 8.77112750E-05 0.00000000E+00-6.77842379E-05-3.46039581E-04
12  4 0.00000000E+00 1.87449526E-04 9.56932726E-04 0.00000000E+00-1.77121767E-06
12  5-9.04209346E-06 0.00000000E+00 8.47449902E-06 4.32624484E-05 0.00000000E+00
12  6 4.96583247E-06 2.53506514E-05 0.00000000E+00 6.03491124E-06 3.08083150E-05
12  7 0.00000000E+00-3.12645475E-07-1.59606002E-06 0.00000000E+00 1.08036857E-09
12  8-1.12143015E-09 3.73104271E-11 0.00000000E+00-1.92196423E-01-9.81165708E-01
12  9 0.00000000E+00 0.00000000E+00 0.00000000E+00 0.00000000E+00 7.24059163E-05
12 10 3.69633321E-04 0.00000000E+00 0.00000000E+00 0.00000000E+00 0.00000000E+00
12 11 8.54145853E-05 4.36042776E-04 1.08346668E-11 0.00000000E+00 0.00000000E+00
12 12 0.00000000E+00-3.98894408E-04-2.03636211E-03 1.35298854E-11 1.54824336E-11
12 13 1.43982029E-11 0.00000000E+00 1.72501785E-04 8.80624276E-04-2.12650595E-05
12 14-1.08558457E-04 0.00000000E+00-4.85488178E-05 0.00000000E+00-9.51002370E-06
12 15 0.00000000E+00 3.20659800E-05 1.63697323E-04 0.00000000E+00-5.50395175E-07
12 16-2.80977591E-06 0.00000000E+00-1.25657004E-06 0.00000000E+00-2.46144215E-07
12 17 0.00000000E+00-4.75114348E-06-2.42546608E-05 0.00000000E+00 0.00000000E+00
12 18 0.00000000E+00 0.00000000E+00 0.00000000E+00 0.00000000E+00 0.00000000E+00
12 19 8.65720248E-06 4.41951523E-05 0.00000000E+00-1.56014894E-05-7.96458441E-05
12 20 0.00000000E+00
13  1 0.00000000E+00 0.00000000E+00 0.00000000E+00 0.00000000E+00 0.00000000E+00
13  2 0.00000000E+00 0.00000000E+00-1.30009742E-11 0.00000000E+00 0.00000000E+00
13  3 8.77112751E-05-1.71813927E-05 0.00000000E+00-3.46039581E-04 6.77842378E-05
13  4 1.31641064E-11 9.56932726E-04-1.87449526E-04 1.14157054E-11-9.04209352E-06
13  5 1.77121765E-06 0.00000000E+00 4.32624483E-05-8.47449903E-06 0.00000000E+00
13  6 2.53506514E-05-4.96583248E-06 0.00000000E+00 3.08083150E-05-6.03491123E-06
13  7 0.00000000E+00-1.59605999E-06 3.12645486E-07 0.00000000E+00-2.63055535E-09
13  8 2.71064788E-09-8.01116742E-11 0.00000000E+00-9.81165708E-01 1.92196423E-01
13  9 0.00000000E+00 0.00000000E+00 0.00000000E+00 0.00000000E+00 3.69633321E-04
13 10-7.24059163E-05 0.00000000E+00 0.00000000E+00 0.00000000E+00 0.00000000E+00
13 11 4.36042776E-04-8.54145853E-05 0.00000000E+00 0.00000000E+00 0.00000000E+00
13 12 0.00000000E+00-2.03636211E-03 3.98894408E-04 0.00000000E+00 0.00000000E+00
13 13 0.00000000E+00 0.00000000E+00 8.80624276E-04-1.72501785E-04-1.08558457E-04
13 14 2.12650595E-05 0.00000000E+00 9.51002369E-06 0.00000000E+00-4.85488178E-05
13 15 0.00000000E+00 1.63697323E-04-3.20659800E-05 0.00000000E+00-2.80977588E-06
13 16 5.50395194E-07 0.00000000E+00 2.46144221E-07 0.00000000E+00-1.25657002E-06
13 17 0.00000000E+00-2.42546608E-05 4.75114349E-06 0.00000000E+00 0.00000000E+00
13 18 0.00000000E+00 0.00000000E+00 0.00000000E+00 0.00000000E+00 0.00000000E+00
13 19 4.41951523E-05-8.65720248E-06 0.00000000E+00-7.96458441E-05 1.56014894E-05
13 20 0.00000000E+00
14  1 2.01832160E-09 9.60961092E-06 2.28703601E-05 1.88058110E-05-3.37664763E-04
14  2 3.70651709E-04-2.44792480E-03-8.57637765E-05-4.95381650E-04 7.94256153E-05
14  3 0.00000000E+00 0.00000000E+00-1.08418216E-04 0.00000000E+00 0.00000000E+00
14  4 3.62936689E-04 0.00000000E+00 0.00000000E+00-1.17887051E-03 0.00000000E+00
14  5 0.00000000E+00-4.40081403E-06 0.00000000E+00 0.00000000E+00-8.30191071E-04
14  6 0.00000000E+00 0.00000000E+00 2.63616917E-03 0.00000000E+00 0.00000000E+00
14  7-3.98549720E-04 0.00000000E+00 0.00000000E+00-1.90354761E-04-4.99711693E-01
14  8-4.99711693E-01 1.00016628E+00 0.00000000E+00-7.11915439E-11 5.32395520E-11
14  9 2.22930388E-04 2.22930388E-04-1.16708162E-04 0.00000000E+00 0.00000000E+00
14 10 0.00000000E+00 1.01935425E-03 1.01935425E-03 7.55865029E-05 0.00000000E+00
14 11 0.00000000E+00 0.00000000E+00-9.19040472E-04-9.19040472E-04 2.82028710E-03
14 12 0.00000000E+00 0.00000000E+00 0.00000000E+00 5.34273383E-04 5.34273383E-04
14 13-7.46660677E-04 0.00000000E+00 0.00000000E+00 0.00000000E+00 0.00000000E+00
14 14 0.00000000E+00-1.96265433E-04 0.00000000E+00 1.67086115E-04 0.00000000E+00
14 15 1.67086115E-04 0.00000000E+00 0.00000000E+00 0.00000000E+00 0.00000000E+00
14 16 0.00000000E+00-5.73977010E-04 0.00000000E+00-5.45480615E-04 0.00000000E+00
14 17-5.45480615E-04 0.00000000E+00 0.00000000E+00 0.00000000E+00 2.16238195E-06
14 18 1.76614349E-04-5.89735470E-04-1.95101780E-04 3.68508416E-04 3.54552387E-05
14 19 0.00000000E+00 0.00000000E+00 2.38496707E-04 0.00000000E+00 0.00000000E+00
14 20 6.04909693E-04
15  1 4.51419653E-06 5.18964107E-05-1.19943625E-02-9.00820396E-02-7.72002585E-01
15  2-7.70266460E-01-4.03409061E-01 1.79080651E-01-1.03992449E-02 1.76018913E-03
15  3 0.00000000E+00-2.37067998E-11-3.54667400E-04 4.22843625E-11-1.67752162E-10
15  4-2.76685739E-03 4.28618417E-11-1.64325512E-10 2.13254497E-03 0.00000000E+00
15  5 1.09557437E-11 5.82934114E-03 0.00000000E+00 1.03517309E-11 6.81233846E-03
15  6-1.08901340E-11 4.75903631E-11 8.77924488E-04 0.00000000E+00 0.00000000E+00
15  7 2.20404348E-04 0.00000000E+00 0.00000000E+00-2.92316849E-04-5.81929973E-02
15  8-5.81929973E-02-5.87000818E-02 0.00000000E+00 0.00000000E+00 0.00000000E+00
15  9-4.55668206E-02-4.55668206E-02-4.67706632E-02 0.00000000E+00 0.00000000E+00
15 10 0.00000000E+00-5.43159811E-02-5.43159811E-02-5.56578176E-02 0.00000000E+00
15 11 0.00000000E+00 0.00000000E+00-3.85631175E-02-3.85631175E-02-3.83009565E-02
15 12 0.00000000E+00 0.00000000E+00 0.00000000E+00-4.36198391E-02-4.36198391E-02
15 13-4.36233539E-02 0.00000000E+00 0.00000000E+00 0.00000000E+00 0.00000000E+00
15 14-2.06271923E-11-2.46748950E-04 0.00000000E+00-2.26841558E-04 0.00000000E+00
15 15-2.26841558E-04 0.00000000E+00 0.00000000E+00 0.00000000E+00 0.00000000E+00
15 16-2.74066873E-11-4.41599774E-04-1.24218945E-11-7.94093711E-05 0.00000000E+00
15 17-7.94093711E-05 0.00000000E+00-1.22874594E-11 0.00000000E+00-1.12318462E-04
15 18-2.29881890E-04-5.12982517E-04 4.10217069E-04-6.06091720E-04 7.96283896E-04
15 19 0.00000000E+00 0.00000000E+00 1.50598188E-04 0.00000000E+00 0.00000000E+00
15 20-6.62890356E-05
16  1 6.02193817E-08 3.04316297E-05-4.82223490E-04-2.42823754E-03-8.84290140E-03
16  2-1.58897657E-02 2.92620513E-03 2.02759549E-02-3.57453866E-03-5.30668120E-03
16  3 4.44677550E-10-1.97844957E-10 1.96678636E-02 3.10731022E-09-1.38225464E-09
16  4 1.37215711E-01-8.83265485E-09 3.91237999E-09-3.83004624E-01-1.67491454E-08
16  5 7.42789889E-09-7.30428954E-01-1.05132787E-08 4.66229752E-09-4.53315251E-01
16  6-5.12779833E-09 2.27686170E-09-2.41911572E-01 7.21201682E-10-3.19526010E-10
16  7 3.83837123E-02-1.80089887E-10 8.04061279E-11-1.35303724E-02-1.41725618E-03
16  8-1.41725618E-03-2.13652975E-03 0.00000000E+00 0.00000000E+00 0.00000000E+00
16  9-2.14838195E-03-2.14838195E-03 3.04276884E-04 0.00000000E+00 3.37348040E-11
16 10-1.47093216E-11-5.40451364E-03-5.40451364E-03 2.16644669E-03 0.00000000E+00
16 11 9.42926189E-11-4.15114520E-11-3.88616655E-03-3.88616655E-03-4.33669698E-04
16 12 0.00000000E+00 6.95772901E-11-3.08390028E-11-4.28112475E-03-4.28112475E-03
16 13-7.26309318E-03 0.00000000E+00-1.73470052E-11 0.00000000E+00 8.64652769E-10
16 14-3.84073673E-10 3.89607457E-02-1.71658512E-10 1.70203376E-02 3.86420510E-10