!  AgH at 10 Angstroms separation...RESC influence upon SOC
!  using one electron spin-orbit operator.  The starting orbitals
!  are not symmetric enough to allow use of symmetry in the run.
!
!    RELATIVE E= -182.511 (2), 0.0, 0.452, 213.780(2), 41750.947
!
!  This run takes 8 seconds on 2.66 GHz Cloverton (17 Apr 2015)
!  results mostly same since at least 2005
!
!  ---------------------------------------------------------------------
!  With MODEQR=0, the singlet state CI energies are
!  -5314.253915714, -5314.253773955, -5314.253773955, -5314.063454343
!  and the triplet state CI energy is -5314.253913658
!  results of spin-orbit coupling are
!  MODEQR=0: R.LATIVE E= -193.685 (2), 0.0, 0.451, 225.250 (2), 41802.151
!  with a single non-zero coupling element of 295.44
!
!  With MODEQR=1, the singlet state CI energies are
!     -5291.2446137  -5291.2444732  -5291.2444732  -5291.0543856
!  and the triplet state CI energy is -5291.2446116
!  results of spin-orbit coupling are
!  MODEQR=1: R.LATIVE E= -182.511 (2), 0.0, 0.452, 213.780(2), 41750.947
!  with a single non-zero coupling element of 279.40
!
 $CONTRL SCFTYP=NONE CITYP=GUGA RUNTYP=transitn relwfn=resc nosym=1 $END
 $SYSTEM mwords=1 $END
 $relwfn MODEQR=1 nesoc=1 $end
 $TRANST operat=hso1 NFZC=23 NOCC=27 NUMCI=2 IROOTS(1)=4,1 $END
 $DRT1   GROUP=C1 FORS=.true. NFZC=23 NDOC=1 NVAL=3 $END
 $DRT2   GROUP=C1 FORS=.true. NFZC=23 NALP=2 NVAL=2 $END
 $DATA
SOC for AgH molecule
Cnv 4

SILVER      47.0
  S    1
    1 .24664478D+07         0.000077
  S   12
    2 .36512837D+06         0.000616
    3 .80073473D+05         0.003465
    4 .21268394D+05         0.015911
    5 .64341100D+04         0.060595
    6 .21663029D+04         0.181244
    7 .80083475D+03         0.372256
    8 .32188857D+03         0.387164
    9 .13916735D+03         0.122296
   10 .54807387D+02         0.004813
   11 .24693249D+02         -.000549
   12 .87455636D+01         0.000246
   13 .43406869D+01         -.000195
  S   12
    2 .36512837D+06         0.000199
    3 .80073473D+05         0.001114
    4 .21268394D+05         0.005211
    5 .64341100D+04         0.020159
    6 .21663029D+04         0.066065
    7 .80083475D+03         0.159857
    8 .32188857D+03         0.256316
    9 .13916735D+03         0.015836
   10 .54807387D+02         -.630683
   11 .24693249D+02         -.470188
   12 .87455636D+01         -.049068
   13 .43406869D+01         0.011207
  S   12
    2 .36512837D+06         -.000086
    3 .80073473D+05         -.000485
    4 .21268394D+05         -.002253
    5 .64341100D+04         -.008837
    6 .21663029D+04         -.028899
    7 .80083475D+03         -.073184
    8 .32188857D+03         -.120469
    9 .13916735D+03         -.015563
   10 .54807387D+02         0.509000
   11 .24693249D+02         0.451248
   12 .87455636D+01         -.768089
   13 .43406869D+01         -.545291
  S   12
    2 .36512837D+06         -.000036
    3 .80073473D+05         -.000203
    4 .21268394D+05         -.000946
    5 .64341100D+04         -.003691
    6 .21663029D+04         -.012189
    7 .80083475D+03         -.030697
    8 .32188857D+03         -.052169
    9 .13916735D+03         -.004959
   10 .54807387D+02         0.233128
   11 .24693249D+02         0.248017
   12 .87455636D+01         -.629623
   13 .43406869D+01         -.541479
  S    1
    1 .14361951D+01         1.000000
  S    1
    1 .62039870D+00         1.000000
  S    1
    1 .10009996D+00         1.000000
  S    1
    1 .36414185D-01         1.000000
  S    1
    1 .014565674            1.000000
  P   10
    1 .15926060D+05         0.000441
    2 .13487612D+04         0.016542
    3 .38771796D+04         0.003563
    4 .54691358D+03         0.061054
    5 .28257251D+03         0.070404
    6 .17615632D+03         0.214416
    7 .78878744D+02         0.440345
    8 .34122269D+02         0.330516
    9 .12737152D+02         0.048323
   10 .54645251D+01         -.004929
  P   10
    1 .15926060D+05         -.000204
    2 .13487612D+04         -.007854
    3 .38771796D+04         -.001561
    4 .54691358D+03         -.026871
    5 .28257251D+03         -.040702
    6 .17615632D+03         -.096776
    7 .78878744D+02         -.253885
    8 .34122269D+02         -.066380
    9 .12737152D+02         0.575387
   10 .54645251D+01         0.500301
  P   10
    1 .15926060D+05         0.000079
    2 .13487612D+04         0.003036
    3 .38771796D+04         0.000633
    4 .54691358D+03         0.011191
    5 .28257251D+03         0.014567
    6 .17615632D+03         0.041846
    7 .78878744D+02         0.100622
    8 .34122269D+02         0.024824
    9 .12737152D+02         -.357178
   10 .54645251D+01         -.213207
  P    1
   11 .17446082D+01         1.000000
  P    1
    1 .63233187D+00         1.000000
  P    1
    1 .25293275             1.000000
  P    1
    1 .10117310             1.000000
  P    1
    1 .04046924             1.000000
  D    6
    1 .51326732D+03         0.004488
    2 .15189997D+03         0.037912
    3 .54850920D+02         0.172013
    4 .21319618D+02         0.420746
    5 .84550623D+01         0.466916
    6 .32668348D+01         0.138006
  D    6
    1 .51326732D+03         -.001515
    2 .15189997D+03         -.012773
    3 .54850920D+02         -.059537
    4 .21319618D+02         -.143517
    5 .84550623D+01         -.131032
    6 .32668348D+01         0.240073
  D    1
    7 .11758928D+01         1.000000
  D    1
    1 .36162557D+00         1.000000
  D    1
    1 .14465023             1.000000
  F    1
    1 .17000000D+01         1.000000
  F    1
    1 .45000000             1.000000

HYDROGEN   1.0   0.0   0.0    10.0
  S    4
    1    402.0100000        0.0002790000
    2     60.2420000        0.0021650000
    3     13.7322000        0.0112000000
    4      3.9045100        0.0448990000
  S    1
    1      1.2827100        1.0000000000
  S    1
    1      0.4655440        1.0000000000
  S    1
    1      0.1811200        1.0000000000
  S    1
    1      0.0727910        1.0000000000
  S    1
    1      0.0267000        1.0000000000
  P    1
    1      1.4000000        1.0000000000
  P    1
    1      0.2500000        1.0000000000

 $END
 $VEC1
 1  1  .32016609E-02  .12632236E+01 -.15149130E+01 -.40917573E+01  .43871765E+01
 1  2 -.74421358E+00 -.23406261E+00  .27799681E+00 -.14521806E-01  .28870986E-02
 1  3  .00000000E+00  .00000000E+00 -.17856901E-05  .00000000E+00  .00000000E+00
 1  4 -.12478692E-04  .00000000E+00  .00000000E+00 -.11694350E-04  .00000000E+00
 1  5  .00000000E+00  .72781143E-06  .00000000E+00  .00000000E+00 -.31905772E-05
 1  6  .00000000E+00  .00000000E+00  .34716923E-04  .00000000E+00  .00000000E+00
 1  7 -.13289989E-04  .00000000E+00  .00000000E+00  .68610748E-05  .41363961E+00
 1  8  .41363961E+00  .41363955E+00  .00000000E+00  .00000000E+00  .00000000E+00
 1  9  .26485655E+00  .26485655E+00  .26485649E+00  .00000000E+00  .00000000E+00
 1 10  .00000000E+00  .11718094E+00  .11718094E+00  .11718105E+00  .00000000E+00
 1 11  .00000000E+00  .00000000E+00 -.41599222E-01 -.41599222E-01 -.41599464E-01
 1 12  .00000000E+00  .00000000E+00  .00000000E+00 -.68908617E-01 -.68908617E-01
 1 13 -.68908319E-01  .00000000E+00  .00000000E+00  .00000000E+00  .00000000E+00
 1 14  .00000000E+00 -.31006500E-05  .00000000E+00 -.13844227E-05  .00000000E+00
 1 15 -.13844228E-05  .00000000E+00  .00000000E+00  .00000000E+00  .00000000E+00
 1 16  .00000000E+00 -.14847174E-04  .00000000E+00 -.66460784E-05  .00000000E+00
 1 17 -.66460784E-05  .00000000E+00  .00000000E+00  .00000000E+00  .64183491E-05
 1 18 -.29073313E-04  .77926416E-04 -.15218514E-03  .21307348E-03 -.16827379E-03
 1 19  .00000000E+00  .00000000E+00 -.26657726E-05  .00000000E+00  .00000000E+00
 1 20  .77221330E-05
 2  1  .10951781E-02  .25042054E+00 -.43425685E+00 -.43309050E+01  .51381207E+01
 2  2 -.83697486E+00 -.25521687E+00  .40892503E+00 -.21818580E-01  .43821670E-02
 2  3  .00000000E+00  .00000000E+00 -.23780285E-05  .00000000E+00  .00000000E+00
 2  4 -.16724605E-04  .00000000E+00  .00000000E+00 -.15645866E-04  .00000000E+00
 2  5  .00000000E+00  .86487705E-06  .00000000E+00  .00000000E+00 -.51081529E-05
 2  6  .00000000E+00  .00000000E+00  .52191255E-04  .00000000E+00  .00000000E+00
 2  7 -.20128706E-04  .00000000E+00  .00000000E+00  .10430071E-04  .71459383E+00
 2  8  .71459383E+00  .71459377E+00  .00000000E+00  .00000000E+00  .00000000E+00
 2  9  .26835939E+00  .26835939E+00  .26835933E+00  .00000000E+00  .00000000E+00
 2 10  .00000000E+00  .12011171E+00  .12011171E+00  .12011187E+00  .00000000E+00
 2 11  .00000000E+00  .00000000E+00 -.63291036E-01 -.63291036E-01 -.63291401E-01
 2 12  .00000000E+00  .00000000E+00  .00000000E+00 -.10094684E+00 -.10094684E+00
 2 13 -.10094639E+00  .00000000E+00  .00000000E+00  .00000000E+00  .00000000E+00
 2 14  .00000000E+00 -.44115636E-05  .00000000E+00 -.19696070E-05  .00000000E+00
 2 15 -.19696070E-05  .00000000E+00  .00000000E+00  .00000000E+00  .00000000E+00
 2 16  .00000000E+00 -.22208398E-04  .00000000E+00 -.99412646E-05  .00000000E+00
 2 17 -.99412646E-05  .00000000E+00  .00000000E+00  .00000000E+00  .93094350E-05
 2 18 -.43415628E-04  .11800348E-03 -.23196045E-03  .32542256E-03 -.25687390E-03
 2 19  .00000000E+00  .00000000E+00 -.39732486E-05  .00000000E+00  .00000000E+00
 2 20  .11657771E-04
 3  1 -.24894415E-10 -.66556730E-07  .81924128E-06  .43841824E-05 -.65627451E-05
 3  2 -.40071477E-05  .46894029E-05 -.45162706E-04  .39316096E-05 -.15658402E-05
 3  3  .00000000E+00  .00000000E+00  .10476971E+01  .00000000E+00  .00000000E+00
 3  4  .33187041E+00  .00000000E+00  .00000000E+00  .34135601E+00  .00000000E+00
 3  5  .00000000E+00 -.15406592E-01  .00000000E+00  .00000000E+00 -.63142977E-02
 3  6  .00000000E+00  .00000000E+00 -.73771919E-02  .00000000E+00  .00000000E+00
 3  7  .10909700E-02  .00000000E+00  .00000000E+00 -.24114414E-03  .20756031E-05
 3  8  .20755563E-05  .20769944E-05  .00000000E+00  .00000000E+00  .00000000E+00
 3  9  .16322153E-05  .16321758E-05  .16327277E-05  .00000000E+00  .00000000E+00
 3 10  .00000000E+00  .26927871E-05  .26928158E-05  .26881012E-05  .00000000E+00
 3 11  .00000000E+00  .00000000E+00  .73212218E-05  .73212086E-05  .73339284E-05
 3 12  .00000000E+00  .00000000E+00  .00000000E+00  .10856155E-04  .10856160E-04
 3 13  .10840160E-04  .00000000E+00  .00000000E+00  .00000000E+00  .00000000E+00
 3 14  .00000000E+00  .96635865E-02  .00000000E+00  .43216874E-02  .00000000E+00
 3 15  .43216874E-02  .00000000E+00  .00000000E+00  .00000000E+00  .00000000E+00
 3 16  .00000000E+00  .49364050E-02  .00000000E+00  .22076278E-02  .00000000E+00
 3 17  .22076278E-02  .00000000E+00  .00000000E+00  .00000000E+00 -.63403843E-06
 3 18  .29183284E-05 -.76502101E-05  .13755453E-04 -.16004968E-04  .93624431E-05
 3 19  .00000000E+00  .00000000E+00  .58118022E-08  .00000000E+00  .00000000E+00
 3 20 -.15171517E-07
 4  1  .00000000E+00  .00000000E+00  .00000000E+00  .00000000E+00  .00000000E+00
 4  2  .00000000E+00  .00000000E+00  .00000000E+00  .00000000E+00  .00000000E+00
 4  3  .10476969E+01  .00000000E+00  .00000000E+00  .33186981E+00  .00000000E+00
 4  4  .00000000E+00  .34135547E+00  .00000000E+00  .00000000E+00 -.15406560E-01
 4  5  .00000000E+00  .00000000E+00 -.63144774E-02  .00000000E+00  .00000000E+00
 4  6 -.73753470E-02  .00000000E+00  .00000000E+00  .10902572E-02  .00000000E+00
 4  7  .00000000E+00 -.24077379E-03  .00000000E+00  .00000000E+00  .00000000E+00
 4  8  .00000000E+00  .00000000E+00  .00000000E+00 -.51061455E-09  .00000000E+00
 4  9  .00000000E+00  .00000000E+00  .00000000E+00  .00000000E+00 -.11779061E-08
 4 10  .00000000E+00  .00000000E+00  .00000000E+00  .00000000E+00  .00000000E+00
 4 11  .76222179E-09  .00000000E+00  .00000000E+00  .00000000E+00  .00000000E+00
 4 12  .00000000E+00 -.39827328E-09  .00000000E+00  .00000000E+00  .00000000E+00
 4 13  .00000000E+00  .00000000E+00  .18115363E-09  .00000000E+00  .96634300E-02
 4 14  .00000000E+00  .00000000E+00  .00000000E+00  .00000000E+00  .43216171E-02
 4 15  .00000000E+00  .43216171E-02  .00000000E+00  .00000000E+00  .49356199E-02
 4 16  .00000000E+00  .00000000E+00  .00000000E+00  .00000000E+00  .22072764E-02
 4 17  .00000000E+00  .22072764E-02  .00000000E+00  .00000000E+00  .00000000E+00
 4 18  .00000000E+00  .00000000E+00  .00000000E+00  .00000000E+00  .00000000E+00
 4 19 -.18465017E-09  .00000000E+00  .00000000E+00  .45806339E-09  .00000000E+00
 4 20  .00000000E+00
 5  1  .00000000E+00  .00000000E+00  .00000000E+00  .00000000E+00  .00000000E+00
 5  2  .00000000E+00  .00000000E+00  .00000000E+00  .00000000E+00  .00000000E+00
 5  3  .00000000E+00  .10476969E+01  .00000000E+00  .00000000E+00  .33186981E+00
 5  4  .00000000E+00  .00000000E+00  .34135547E+00  .00000000E+00  .00000000E+00
 5  5 -.15406560E-01  .00000000E+00  .00000000E+00 -.63144774E-02  .00000000E+00
 5  6  .00000000E+00 -.73753470E-02  .00000000E+00  .00000000E+00  .10902572E-02
 5  7  .00000000E+00  .00000000E+00 -.24077379E-03  .00000000E+00  .00000000E+00
 5  8  .00000000E+00  .00000000E+00  .00000000E+00  .00000000E+00 -.36341252E-09
 5  9  .00000000E+00  .00000000E+00  .00000000E+00  .00000000E+00  .00000000E+00
 5 10 -.10552992E-08  .00000000E+00  .00000000E+00  .00000000E+00  .00000000E+00
 5 11  .00000000E+00  .67321226E-09  .00000000E+00  .00000000E+00  .00000000E+00
 5 12  .00000000E+00  .00000000E+00 -.35789130E-09  .00000000E+00  .00000000E+00
 5 13  .00000000E+00  .00000000E+00  .00000000E+00  .16495635E-09  .00000000E+00
 5 14  .96634300E-02  .00000000E+00  .43216171E-02  .00000000E+00  .00000000E+00
 5 15  .00000000E+00  .00000000E+00  .43216171E-02  .00000000E+00  .00000000E+00
 5 16  .49356199E-02  .00000000E+00  .22072764E-02  .00000000E+00  .00000000E+00
 5 17  .00000000E+00  .00000000E+00  .22072764E-02  .00000000E+00  .00000000E+00
 5 18  .00000000E+00  .00000000E+00  .00000000E+00  .00000000E+00  .00000000E+00
 5 19  .00000000E+00 -.18465715E-09  .00000000E+00  .00000000E+00  .45807516E-09
 5 20  .00000000E+00
 6  1 -.49754139E-03 -.15385838E+00  .82297528E+00  .36659286E+01 -.34786937E+01
 6  2  .35615617E+00  .11106285E+00 -.17100380E+00  .91160713E-02 -.18326278E-02
 6  3  .00000000E+00  .00000000E+00  .57098964E-06  .00000000E+00  .00000000E+00
 6  4  .39838255E-05  .00000000E+00  .00000000E+00  .36497140E-05  .00000000E+00
 6  5  .00000000E+00 -.41667295E-07  .00000000E+00  .00000000E+00  .24717888E-05
 6  6  .00000000E+00  .00000000E+00 -.20357653E-04  .00000000E+00  .00000000E+00
 6  7  .81051521E-05  .00000000E+00  .00000000E+00 -.42674010E-05 -.50815856E+00
 6  8 -.50815856E+00 -.50815856E+00  .00000000E+00  .00000000E+00  .00000000E+00
 6  9 -.10480675E+00 -.10480675E+00 -.10480673E+00  .00000000E+00  .00000000E+00
 6 10  .00000000E+00 -.52772269E-01 -.52772269E-01 -.52772328E-01  .00000000E+00
 6 11  .00000000E+00  .00000000E+00  .26296373E-01  .26296373E-01  .26296517E-01
 6 12  .00000000E+00  .00000000E+00  .00000000E+00  .42237770E-01  .42237770E-01
 6 13  .42237591E-01  .00000000E+00  .00000000E+00  .00000000E+00  .00000000E+00
 6 14  .00000000E+00  .13599411E-05  .00000000E+00  .60698460E-06  .00000000E+00
 6 15  .60698312E-06  .00000000E+00  .00000000E+00  .00000000E+00  .00000000E+00
 6 16  .00000000E+00  .84810690E-05  .00000000E+00  .37964942E-05  .00000000E+00
 6 17  .37964944E-05  .00000000E+00  .00000000E+00  .00000000E+00 -.31260424E-05
 6 18  .16294551E-04 -.46754707E-04  .94603238E-04 -.13468110E-03  .10702369E-03
 6 19  .00000000E+00  .00000000E+00  .15267786E-05  .00000000E+00  .00000000E+00
 6 20 -.47472472E-05
 7  1  .00000000E+00  .00000000E+00  .00000000E+00  .00000000E+00  .00000000E+00
 7  2  .00000000E+00  .00000000E+00  .00000000E+00  .00000000E+00  .00000000E+00
 7  3 -.59989858E-01  .00000000E+00  .00000000E+00  .44318470E+00  .00000000E+00
 7  4  .00000000E+00 -.53281212E+00  .00000000E+00  .00000000E+00  .60262546E-01
 7  5  .00000000E+00  .00000000E+00  .17749323E-02  .00000000E+00  .00000000E+00
 7  6 -.47797738E-02  .00000000E+00  .00000000E+00  .88330917E-03  .00000000E+00
 7  7  .00000000E+00 -.21041177E-03  .00000000E+00  .00000000E+00  .00000000E+00
 7  8  .00000000E+00  .00000000E+00  .00000000E+00 -.27171222E-07  .00000000E+00
 7  9  .00000000E+00  .00000000E+00  .00000000E+00  .00000000E+00  .66190569E-08
 7 10  .00000000E+00  .00000000E+00  .00000000E+00  .00000000E+00  .00000000E+00
 7 11 -.28940215E-08  .00000000E+00  .00000000E+00  .00000000E+00  .00000000E+00
 7 12  .00000000E+00  .14703972E-08  .00000000E+00  .00000000E+00  .00000000E+00
 7 13  .00000000E+00  .00000000E+00 -.64461719E-09  .00000000E+00 -.10659302E-01
 7 14  .00000000E+00  .00000000E+00  .00000000E+00  .00000000E+00 -.47669848E-02
 7 15  .00000000E+00 -.47669816E-02  .00000000E+00  .00000000E+00  .25825256E-02
 7 16  .00000000E+00  .00000000E+00  .00000000E+00  .00000000E+00  .11549405E-02
 7 17  .00000000E+00  .11549399E-02  .00000000E+00  .00000000E+00  .00000000E+00
 7 18  .00000000E+00  .00000000E+00  .00000000E+00  .00000000E+00  .00000000E+00
 7 19 -.13798387E-09  .00000000E+00  .00000000E+00  .36932965E-09  .00000000E+00
 7 20  .00000000E+00
 8  1  .27064241E-10 -.32269877E-07  .53636739E-06  .28010195E-05 -.42490569E-05
 8  2 -.28816173E-05  .40144264E-05 -.35015182E-04  .31913291E-05 -.13162844E-05
 8  3  .00000000E+00  .00000000E+00 -.59989788E-01  .00000000E+00  .00000000E+00
 8  4  .44318521E+00  .00000000E+00  .00000000E+00 -.53281158E+00  .00000000E+00
 8  5  .00000000E+00  .60262538E-01  .00000000E+00  .00000000E+00  .17751106E-02
 8  6  .00000000E+00  .00000000E+00 -.47812876E-02  .00000000E+00  .00000000E+00
 8  7  .88391051E-03  .00000000E+00  .00000000E+00 -.21072790E-03  .15802531E-05
 8  8  .15806428E-05  .15331849E-05  .00000000E+00  .00000000E+00  .00000000E+00
 8  9  .11694333E-05  .11696058E-05  .11811798E-05  .00000000E+00  .00000000E+00
 8 10  .00000000E+00  .19372244E-05  .19371084E-05  .19283805E-05  .00000000E+00
 8 11  .00000000E+00  .00000000E+00  .56577496E-05  .56578015E-05  .56707381E-05
 8 12  .00000000E+00  .00000000E+00  .00000000E+00  .83940868E-05  .83940658E-05
 8 13  .83793639E-05  .00000000E+00  .00000000E+00  .00000000E+00  .00000000E+00
 8 14  .00000000E+00 -.10659192E-01  .00000000E+00 -.47669387E-02  .00000000E+00
 8 15 -.47669387E-02  .00000000E+00  .00000000E+00  .00000000E+00  .00000000E+00
 8 16  .00000000E+00  .25831573E-02  .00000000E+00  .11552239E-02  .00000000E+00
 8 17  .11552239E-02  .00000000E+00  .00000000E+00  .00000000E+00 -.41128749E-06
 8 18  .21891674E-05 -.61623573E-05  .11500960E-04 -.13642755E-04  .80504233E-05
 8 19  .00000000E+00  .00000000E+00  .44031254E-08  .00000000E+00  .00000000E+00
 8 20 -.12316002E-07
 9  1  .00000000E+00  .00000000E+00  .00000000E+00  .00000000E+00  .00000000E+00
 9  2  .00000000E+00  .00000000E+00  .00000000E+00  .00000000E+00  .00000000E+00
 9  3  .00000000E+00 -.59989858E-01  .00000000E+00  .00000000E+00  .44318470E+00
 9  4  .00000000E+00  .00000000E+00 -.53281212E+00  .00000000E+00  .00000000E+00
 9  5  .60262546E-01  .00000000E+00  .00000000E+00  .17749323E-02  .00000000E+00
 9  6  .00000000E+00 -.47797738E-02  .00000000E+00  .00000000E+00  .88330917E-03
 9  7  .00000000E+00  .00000000E+00 -.21041177E-03  .00000000E+00  .00000000E+00
 9  8  .00000000E+00  .00000000E+00  .00000000E+00  .00000000E+00 -.27861036E-07
 9  9  .00000000E+00  .00000000E+00  .00000000E+00  .00000000E+00  .00000000E+00
 9 10  .63119225E-08  .00000000E+00  .00000000E+00  .00000000E+00  .00000000E+00
 9 11  .00000000E+00 -.26859692E-08  .00000000E+00  .00000000E+00  .00000000E+00
 9 12  .00000000E+00  .00000000E+00  .13771698E-08  .00000000E+00  .00000000E+00
 9 13  .00000000E+00  .00000000E+00  .00000000E+00 -.60714989E-09  .00000000E+00
 9 14 -.10659302E-01  .00000000E+00 -.47669848E-02  .00000000E+00  .00000000E+00
 9 15  .00000000E+00  .00000000E+00 -.47669816E-02  .00000000E+00  .00000000E+00
 9 16  .25825256E-02  .00000000E+00  .11549405E-02  .00000000E+00  .00000000E+00
 9 17  .00000000E+00  .00000000E+00  .11549399E-02  .00000000E+00  .00000000E+00
 9 18  .00000000E+00  .00000000E+00  .00000000E+00  .00000000E+00  .00000000E+00
 9 19  .00000000E+00 -.13801170E-09  .00000000E+00  .00000000E+00  .36930364E-09
 9 20  .00000000E+00
10  1  .00000000E+00  .00000000E+00  .00000000E+00  .00000000E+00  .00000000E+00
10  2  .00000000E+00  .00000000E+00  .00000000E+00  .00000000E+00  .00000000E+00
10  3 -.19666667E-07  .00000000E+00  .00000000E+00 -.10879717E-06  .00000000E+00
10  4  .00000000E+00 -.12519475E-06  .00000000E+00  .00000000E+00  .46694620E-07
10  5  .00000000E+00  .00000000E+00 -.47295465E-07  .00000000E+00  .00000000E+00
10  6  .38494971E-07  .00000000E+00  .00000000E+00 -.23842951E-07  .00000000E+00
10  7  .00000000E+00  .17219911E-08  .00000000E+00  .00000000E+00  .00000000E+00
10  8  .00000000E+00  .00000000E+00  .00000000E+00  .99826711E+00  .00000000E+00
10  9  .00000000E+00  .00000000E+00  .00000000E+00  .00000000E+00 -.23468900E-02
10 10  .00000000E+00  .00000000E+00  .00000000E+00  .00000000E+00  .00000000E+00
10 11  .20241083E-02  .00000000E+00  .00000000E+00  .00000000E+00  .00000000E+00
10 12  .00000000E+00  .91322412E-03  .00000000E+00  .00000000E+00  .00000000E+00
10 13  .00000000E+00  .00000000E+00 -.34592516E-03  .00000000E+00 -.24488629E-08
10 14  .00000000E+00  .00000000E+00  .00000000E+00  .00000000E+00 -.10950407E-08
10 15  .00000000E+00 -.47457451E-08  .00000000E+00  .00000000E+00  .30674443E-08
10 16  .00000000E+00  .00000000E+00  .00000000E+00  .00000000E+00  .13717238E-08
10 17  .00000000E+00  .54350262E-08  .00000000E+00  .00000000E+00  .00000000E+00
10 18  .00000000E+00  .00000000E+00  .00000000E+00  .00000000E+00  .00000000E+00
10 19  .67122579E-11  .00000000E+00  .00000000E+00 -.26366385E-10  .00000000E+00
10 20  .00000000E+00
11  1 -.12169370E-10 -.88320240E-08  .80384218E-07  .39464638E-06 -.54206089E-06
11  2 -.25402812E-06  .39733206E-06 -.34290617E-05  .32017584E-06 -.13542456E-06
11  3  .00000000E+00  .00000000E+00 -.19624489E-07  .00000000E+00  .00000000E+00
11  4 -.10424382E-06  .00000000E+00  .00000000E+00 -.12634445E-06  .00000000E+00
11  5  .00000000E+00  .52979775E-07  .00000000E+00  .00000000E+00 -.36957903E-07
11  6  .00000000E+00  .00000000E+00 -.11047437E-06  .00000000E+00  .00000000E+00
11  7  .34984378E-07  .00000000E+00  .00000000E+00 -.32325964E-07 -.49761060E+00
11  8 -.50065470E+00  .99826568E+00  .00000000E+00  .00000000E+00  .00000000E+00
11  9  .11699768E-02  .11771332E-02 -.23467706E-02  .00000000E+00  .00000000E+00
11 10  .00000000E+00 -.10087823E-02 -.10149544E-02  .20242871E-02  .00000000E+00
11 11  .00000000E+00  .00000000E+00 -.45466312E-03 -.45744792E-03  .91378239E-03
11 12  .00000000E+00  .00000000E+00  .00000000E+00  .17325531E-03  .17431016E-03
11 13 -.34510699E-03  .00000000E+00  .00000000E+00  .00000000E+00  .00000000E+00
11 14  .00000000E+00  .35099075E-08  .00000000E+00  .47526920E-08  .00000000E+00
11 15  .47590532E-08  .00000000E+00  .00000000E+00  .00000000E+00  .00000000E+00
11 16  .00000000E+00  .73661397E-07  .00000000E+00  .29434670E-07  .00000000E+00
11 17  .29427287E-07  .00000000E+00  .00000000E+00  .00000000E+00 -.41292335E-07
11 18  .23741777E-06 -.68894587E-06  .12887571E-05 -.14978663E-05  .85457236E-06
11 19  .00000000E+00  .00000000E+00  .95458939E-10  .00000000E+00  .00000000E+00
11 20 -.27302566E-09
12  1 -.95653715E-12  .94092185E-10 -.71963535E-09 -.17218393E-08  .19506063E-08
12  2  .90418706E-09  .13192984E-08 -.66948771E-08  .58859789E-09 -.24315008E-09
12  3  .00000000E+00  .00000000E+00 -.17948960E-09  .00000000E+00  .00000000E+00
12  4 -.14690571E-08  .00000000E+00  .00000000E+00 -.13806392E-08  .00000000E+00
12  5  .00000000E+00  .57825210E-10  .00000000E+00  .00000000E+00 -.83889763E-10
12  6  .00000000E+00  .00000000E+00 -.21717012E-09  .00000000E+00  .00000000E+00
12  7  .62595908E-10  .00000000E+00  .00000000E+00 -.57686880E-10 -.86540210E+00
12  8  .86364460E+00  .17575029E-02  .00000000E+00  .00000000E+00  .00000000E+00
12  9  .20345356E-02 -.20304041E-02 -.41323924E-05  .00000000E+00  .00000000E+00
12 10  .00000000E+00 -.17547111E-02  .17511474E-02  .35637538E-05  .00000000E+00
12 11  .00000000E+00  .00000000E+00 -.79167262E-03  .79006708E-03  .16087891E-05
12 12  .00000000E+00  .00000000E+00  .00000000E+00  .29988383E-03 -.29927160E-03
12 13 -.60738483E-06  .00000000E+00  .00000000E+00  .00000000E+00  .00000000E+00
12 14  .00000000E+00  .24071183E-10  .00000000E+00  .17827005E-08  .00000000E+00
12 15 -.17503510E-08  .00000000E+00  .00000000E+00  .00000000E+00  .00000000E+00
12 16  .00000000E+00  .14692937E-09  .00000000E+00 -.19333057E-08  .00000000E+00
12 17  .20532744E-08  .00000000E+00  .00000000E+00  .00000000E+00  .37877171E-09
12 18 -.24088256E-09 -.65163241E-09  .19554069E-08 -.23920823E-08  .14034901E-08
12 19  .00000000E+00  .00000000E+00  .19788952E-12  .00000000E+00  .00000000E+00
12 20 -.62059787E-12
13  1  .00000000E+00  .00000000E+00  .00000000E+00  .00000000E+00  .00000000E+00
13  2  .00000000E+00  .00000000E+00  .00000000E+00  .00000000E+00  .00000000E+00
13  3  .00000000E+00 -.19734754E-07  .00000000E+00  .00000000E+00 -.10832865E-06
13  4  .00000000E+00  .00000000E+00 -.12502178E-06  .00000000E+00  .00000000E+00
13  5  .47067019E-07  .00000000E+00  .00000000E+00 -.47092669E-07  .00000000E+00
13  6  .00000000E+00  .38797246E-07  .00000000E+00  .00000000E+00 -.23889262E-07
13  7  .00000000E+00  .00000000E+00  .17323369E-08  .00000000E+00  .00000000E+00
13  8  .00000000E+00  .00000000E+00  .00000000E+00  .00000000E+00  .99826711E+00
13  9  .00000000E+00  .00000000E+00  .00000000E+00  .00000000E+00  .00000000E+00
13 10 -.23468903E-02  .00000000E+00  .00000000E+00  .00000000E+00  .00000000E+00
13 11  .00000000E+00  .20241085E-02  .00000000E+00  .00000000E+00  .00000000E+00
13 12  .00000000E+00  .00000000E+00  .91322401E-03  .00000000E+00  .00000000E+00
13 13  .00000000E+00  .00000000E+00  .00000000E+00 -.34592510E-03  .00000000E+00
13 14 -.27113882E-08  .00000000E+00 -.12126928E-08  .00000000E+00  .00000000E+00
13 15  .00000000E+00  .00000000E+00 -.48635642E-08  .00000000E+00  .00000000E+00
13 16  .28721192E-08  .00000000E+00  .12845269E-08  .00000000E+00  .00000000E+00
13 17  .00000000E+00  .00000000E+00  .53479234E-08  .00000000E+00  .00000000E+00
13 18  .00000000E+00  .00000000E+00  .00000000E+00  .00000000E+00  .00000000E+00
13 19  .00000000E+00  .67121209E-11  .00000000E+00  .00000000E+00 -.26366740E-10
13 20  .00000000E+00
14  1  .00000000E+00  .00000000E+00  .00000000E+00  .00000000E+00  .00000000E+00
14  2  .00000000E+00  .00000000E+00  .00000000E+00  .00000000E+00  .00000000E+00
14  3  .00000000E+00  .00000000E+00  .00000000E+00  .00000000E+00  .00000000E+00
14  4  .00000000E+00  .00000000E+00  .00000000E+00  .00000000E+00  .00000000E+00
14  5  .00000000E+00  .00000000E+00  .00000000E+00  .00000000E+00  .00000000E+00
14  6  .00000000E+00  .00000000E+00  .00000000E+00  .00000000E+00  .00000000E+00
14  7  .00000000E+00  .00000000E+00  .00000000E+00  .00000000E+00  .00000000E+00
14  8  .00000000E+00  .00000000E+00  .99826711E+00  .00000000E+00  .00000000E+00
14  9  .00000000E+00  .00000000E+00  .00000000E+00 -.23468977E-02  .00000000E+00
14 10  .00000000E+00  .00000000E+00  .00000000E+00  .00000000E+00  .20241116E-02
14 11  .00000000E+00  .00000000E+00  .00000000E+00  .00000000E+00  .00000000E+00
14 12  .91321924E-03  .00000000E+00  .00000000E+00  .00000000E+00  .00000000E+00
14 13  .00000000E+00 -.34592309E-03  .00000000E+00  .00000000E+00  .00000000E+00
14 14  .00000000E+00  .00000000E+00  .00000000E+00  .00000000E+00  .00000000E+00
14 15  .00000000E+00  .00000000E+00  .00000000E+00 -.20398103E-08  .00000000E+00
14 16  .00000000E+00  .00000000E+00  .00000000E+00  .00000000E+00  .00000000E+00
14 17  .00000000E+00  .00000000E+00  .00000000E+00  .23016549E-08  .00000000E+00
14 18  .00000000E+00  .00000000E+00  .00000000E+00  .00000000E+00  .00000000E+00
14 19  .00000000E+00  .00000000E+00  .00000000E+00  .00000000E+00  .00000000E+00
14 20  .00000000E+00
15  1 -.20884146E-03 -.68542056E-01  .37046254E+00  .13280144E+01 -.90217322E+00
15  2  .85314065E+00  .36442494E+00 -.54476313E-01  .31339666E-02 -.63584349E-03
15  3  .00000000E+00  .00000000E+00 -.60527219E-08  .00000000E+00  .00000000E+00
15  4 -.68811715E-07  .00000000E+00  .00000000E+00 -.11128579E-06  .00000000E+00
15  5  .00000000E+00  .40592951E-07  .00000000E+00  .00000000E+00  .94038853E-06
15  6  .00000000E+00  .00000000E+00 -.51822776E-05  .00000000E+00  .00000000E+00
15  7  .23655996E-05  .00000000E+00  .00000000E+00 -.13463681E-05 -.13044208E+00
15  8 -.13044208E+00 -.13044214E+00  .00000000E+00  .00000000E+00  .00000000E+00
15  9  .48238467E-01  .48238467E-01  .48238479E-01  .00000000E+00  .00000000E+00
15 10  .00000000E+00  .30857828E-01  .30857828E-01  .30857975E-01  .00000000E+00
15 11  .00000000E+00  .00000000E+00  .15013495E-01  .15013494E-01  .15013656E-01
15 12  .00000000E+00  .00000000E+00  .00000000E+00  .13343345E-01  .13343345E-01
15 13  .13343249E-01  .00000000E+00  .00000000E+00  .00000000E+00  .00000000E+00
15 14  .00000000E+00  .14064877E-06  .00000000E+00  .62408141E-07  .00000000E+00
15 15  .62420490E-07  .00000000E+00  .00000000E+00  .00000000E+00  .00000000E+00
15 16  .00000000E+00  .19744623E-05  .00000000E+00  .88805268E-06  .00000000E+00
15 17  .88804950E-06  .00000000E+00  .00000000E+00  .00000000E+00 -.59073926E-06
15 18  .40406630E-05 -.13514231E-04  .30175457E-04 -.45402114E-04  .37013044E-04
15 19  .00000000E+00  .00000000E+00  .35125436E-06  .00000000E+00  .00000000E+00
15 20 -.14254821E-05
16  1 -.39907654E-10  .55817810E-06 -.76957322E-05 -.40660918E-04  .61190301E-04
16  2  .37484122E-04 -.10856045E-03  .71067468E-03 -.84441774E-04  .41177835E-04
16  3  .00000000E+00  .00000000E+00  .13915057E-01  .00000000E+00  .00000000E+00
16  4  .15585518E+00  .00000000E+00  .00000000E+00  .67003804E+00  .00000000E+00