!  As atom...Test of MCP's evaluation of SOC
!
!  CAS AND  MCQDPT LEVELS IN CM-1
!               MCSCF         MCQDPT           MCSCF           MCQDPT
!   1-4          0.0000         0.0000     -6.0141718694     -6.0832455762
!   5-8      14258.4948     13080.1957     -5.9492064933     -6.0236488343
!   9-14     14544.7662     13331.6408     -5.9479021667     -6.0225031856
!  15-16     20098.7450     19978.5340     -5.9225968083     -5.9922182277
!  17-20     20411.8930     20269.2369     -5.9211700253     -5.9908937101
!
!  It is easy to deduce these are the (4p)3 configuration's
!     4-S-3/2, 2-D-3/2, 2-D-5/2, 2-P-1/2, 2-P-3/2 levels
!
!  This run takes 8 seconds on 2.66 GHz Cloverton (17 Apr 2015)
!  results substantially unchanged since at least 2005
!
 $contrl scftyp=none cityp=none runtyp=transitn mult=2 mplevl=2
         ispher=1 pp=MCP $END
 $SYSTEM mwords=20 $END
 $GUESS  GUESS=moread norb=34 $END

!    the following input is what makes the $VEC group below.
!    the state is a 2-D coming from p**3, we need 6 roots to
!    see the 4-S ground state, but we don't include it in
!    the state averaging.
--- $contrl scftyp=mcscf mult=2 runtyp=energy mplevl=0 ispher=1 $end
--- $MCSCF  CISTEP=genci FULLNR=.TRUE. $END
--- $gen    GLIST=sacas group=d2h istsym=5 ncore=0 nact=4 nels=5 NSTATE=6
---         PURES=.true. WSTATE(1)=1,1,1,1,1,0 irreps(1)=5,6,7,8 $END

!    the SOC job includes 4-S, 2-D, 2-P terms from configuration p**3
 $transt operat=hso2 numvec=-5 numci=5 nfzc=0 nocc=4 iroots(1)=2,2,2,2,1 
         zeff(1)=33 mcp2e=2 parmp=1 $end
 $mrmp   rdvecs=.true. $end
 $MCQD1  nosym=-1 mult=2 iforb=3 nmofzc=0 nmodoc=0 nmoact=4
         thrcon=1e-8 thrgen=1e-10 istsym=5 $END
 $MCQD2  nosym=-1 mult=2 iforb=3 nmofzc=0 nmodoc=0 nmoact=4
         thrcon=1e-8 thrgen=1e-10 istsym=6 $END
 $MCQD3  nosym=-1 mult=2 iforb=3 nmofzc=0 nmodoc=0 nmoact=4
         thrcon=1e-8 thrgen=1e-10 istsym=7 $END
 $MCQD4  nosym=-1 mult=2 iforb=3 nmofzc=0 nmodoc=0 nmoact=4
         thrcon=1e-8 thrgen=1e-10 istsym=8 $END
 $MCQD5  nosym=-1 mult=4 iforb=3 nmofzc=0 nmodoc=0 nmoact=4
         thrcon=1e-8 thrgen=1e-10 istsym=5 $END

 $DATA
As atom..(6,6/26,20,14)wtbs+2d-pol. (6,12)+1p-pol. MP_5n0_3n1 
Dnh 2

As   33.    0.0  0.0  0.0
 MCP READ
        S   21
    1  92628131.0        -.9777458180E-08
    2  18914773.0        -.5481305420E-07
    3  4410892.90        -.3182414080E-06
    4  1164823.30        -.1529606050E-05
    5  344914.010        -.6405026200E-05
    6  113254.380        -.2359415320E-04
    7  40746.3740        -.7770487210E-04
    8  15864.4390        -.2328088970E-03
    9  6602.44470        -.6414957260E-03
   10  2902.74720        -.1643433850E-02
   11  1333.61380        -.3892569340E-02
   12  634.154280        -.8411794330E-02
   13  309.552180        -.1576744120E-01
   14  154.061210        -.2242827270E-01
   15  77.7512420        -.1270558490E-01
   16  39.6223440         .3719086310E-01
   17  20.3241480         .1273550240    
   18  10.4693990         .1065644150    
   19  5.40712930        -.8696543670E-01
   20  2.79689470        -.2728686140    
   21  1.44793390        -.3228125800    
        P   15
    1  40746.3740         .1587850020E-05
    2  15864.4390         .5105547450E-05
    3  6602.44470         .2475943030E-04
    4  2902.74720         .9433391870E-04
    5  1333.61380         .3405079070E-03
    6  634.154280         .1128716830E-02
    7  309.552180         .3401306900E-02
    8  154.061210         .9215690320E-02
    9  77.7512420         .2053428570E-01
   10  39.6223440         .3480617960E-01
   11  20.3241480         .3249091230E-01
   12  10.4693990        -.2067819890E-01
   13  5.40712930        -.9547518560E-01
   14  2.79689470        -.1268915750    
   15  1.44793390        -.8760561240E-01
       l    1
    1  .749900370         1.000000000 1
       l    1
    1  .388454330         1.000000000 1
       l    1
    1  .201236860         1.000000000 1
       l    1
    1  .104252030         1.000000000 1
       l    1
    1  .540086620E-01     1.000000000 1
     D 1
    1  0.129  1.0
     D 1
    1  0.434  1.0

 $END
 $MCP

  --- DK B=2|e|  (parameters optimized)

 As
  8  3 26  2 20  1 14  0
      5.00(4D15.8)
  1.2408148     -.82393412E-01 -5755.8609      2.2125248
  1.9745455      .74398962E-01 -.63272992E-01 -.20862056
  387.60341      175.27560      .74248430+244  26.877933
  2.7372055      .11440814      .98486742E-01  5.3151603
  0  0  0  0  0  1  1  1
  865.17218      112.61946      16.0591 
  92628131.      18914773.      4410892.9      1164823.3
  344914.01      113254.38      40746.374      15864.439
  6602.4447      2902.7472      1333.6138      634.15428
  309.55218      154.06121      77.751242      39.622344
  20.324148      10.469399      5.4071293      2.7968947
  1.4479339      .74990037      .38845433      .20123686
  .10425203      .54008662E-01
  .29223634D-06  .16377585D-05  .95122066D-05  .45696430D-04
  .19138348D-03  .70402774D-03  .23150114D-02  .68932941D-02
  .18778019D-01  .46784663D-01  .10499352D+00  .20296797D+00
  .30804537D+00  .30233988D+00  .13764514D+00  .16319360D-01
  .13284964D-02 -.46443709D-03  .33870586D-03 -.31145871D-03
  .19648646D-03 -.13731845D-03  .87453947D-04 -.48405743D-04
  .21086559D-04 -.51035941D-05
 -.91181323D-07 -.51085460D-06 -.29681865D-05 -.14254765D-04
 -.59741638D-04 -.21981909D-03 -.72463508D-03 -.21664239D-02
 -.59707342D-02 -.15212783D-01 -.35872888D-01 -.76200295D-01
 -.13941888D+00 -.18703389D+00 -.99330404D-01  .24186519D+00
  .55968468D+00  .33616754D+00  .48361328D-01  .55468566D-02
 -.86320431D-03  .11236135D-02 -.71471713D-03  .38772976D-03
 -.17655958D-03  .42048549D-04
 -.35503635D-07 -.19900519D-06 -.11556262D-05 -.55533185D-05
 -.23258921D-04 -.85655490D-04 -.28217356D-03 -.84503184D-03
 -.23290232D-02 -.59610365D-02 -.14115750D-01 -.30426905D-01
 -.56889684D-01 -.80269446D-01 -.45170530D-01  .12928908D+00
  .41881916D+00  .33897570D+00 -.23712345D+00 -.63563503D+00
 -.39911934D+00 -.49188862D-01 -.55716209D-02  .20971157D-02
 -.12545829D-02  .27474214D-03
  100.30728      11.76124
  40746.374      15864.439      6602.4447      2902.7472
  1333.6138      634.15428      309.55218      154.06121
  77.751242      39.622344      20.324148      10.469399
  5.4071293      2.7968947      1.4479339      .74990037
  .38845433      .20123686      .10425203      .54008662E-01
  .18296007D-04  .58659432D-04  .28496718D-03  .10810969D-02
  .38926655D-02  .12772890D-01  .37888777D-01  .99316083D-01
  .21156855D+00  .33572003D+00  .32413084D+00  .13928579D+00
  .20071771D-01  .19221912D-02  .24537393D-03  .14258309D-03
 -.57554910D-04  .31428244D-04 -.16258063D-04  .40171569D-05
  .71369239D-05  .22901582D-04  .11129310D-03  .42319434D-03
  .15291230D-02  .50581318D-02  .15230979D-01  .41093513D-01
  .91199193D-01  .15324462D+00  .14414552D+00 -.66652894D-01
 -.34893718D+00 -.43442862D+00 -.24751781D+00 -.47591167D-01
 -.42742344D-02  .18432153D-03 -.32657027D-03  .10251545D-03
  4.22518  
  1333.6138      634.15428      309.55218      154.06121
  77.751242      39.622344      20.324148      10.469399
  5.4071293      2.7968947      1.4479339      .74990037
  .38845433      .20123686
  .58619761D-04  .17653826D-03  .92916380D-03  .36872751D-02
  .13646857D-01  .41286816D-01  .10502626D+00  .20525441D+00
  .28657867D+00  .29827119D+00  .22428673D+00  .10569741D+00
  .26209217D-01  .36658977D-02

 $END
--- OPTIMIZED MCSCF MO-S --- GENERATED AT  3:42:23 CST 10-NOV-2001
As atom..(6,6/26,20,14)wtbs+2d-pol. (6,12)+1p-pol. MP_5n0_3n1                   
E(MCSCF)=       -5.9478987432, E(NUC)=         .0000000000
 $VEC1
 1  1 5.57868472E-01 0.00000000E+00 0.00000000E+00 0.00000000E+00-2.41872973E-02
 1  2 0.00000000E+00 0.00000000E+00 0.00000000E+00 3.65824037E-01 0.00000000E+00
 1  3 0.00000000E+00 0.00000000E+00 5.35105656E-01 0.00000000E+00 0.00000000E+00
 1  4 0.00000000E+00 2.82455827E-01 0.00000000E+00 0.00000000E+00 0.00000000E+00
 1  5 4.31156741E-02 0.00000000E+00 0.00000000E+00 0.00000000E+00 0.00000000E+00
 1  6 0.00000000E+00 0.00000000E+00 0.00000000E+00 0.00000000E+00 0.00000000E+00
 1  7 0.00000000E+00 0.00000000E+00 0.00000000E+00 0.00000000E+00 0.00000000E+00
 1  8 0.00000000E+00
 2  1 0.00000000E+00 0.00000000E+00 0.00000000E+00 2.87852936E-01 0.00000000E+00
 2  2 0.00000000E+00 0.00000000E+00 8.56023032E-02 0.00000000E+00 0.00000000E+00
 2  3 0.00000000E+00 2.49719783E-01 0.00000000E+00 0.00000000E+00 0.00000000E+00
 2  4 4.16904728E-01 0.00000000E+00 0.00000000E+00 0.00000000E+00 2.70984243E-01
 2  5 0.00000000E+00 0.00000000E+00 0.00000000E+00 1.50309516E-01 0.00000000E+00
 2  6 0.00000000E+00 0.00000000E+00 0.00000000E+00 0.00000000E+00 0.00000000E+00
 2  7 0.00000000E+00 0.00000000E+00 0.00000000E+00 0.00000000E+00 0.00000000E+00
 2  8 0.00000000E+00
 3  1 0.00000000E+00 2.87852936E-01 0.00000000E+00 0.00000000E+00 0.00000000E+00
 3  2 8.56023032E-02 0.00000000E+00 0.00000000E+00 0.00000000E+00 2.49719783E-01
 3  3 0.00000000E+00 0.00000000E+00 0.00000000E+00 4.16904728E-01 0.00000000E+00
 3  4 0.00000000E+00 0.00000000E+00 2.70984243E-01 0.00000000E+00 0.00000000E+00
 3  5 0.00000000E+00 1.50309516E-01 0.00000000E+00 0.00000000E+00 0.00000000E+00
 3  6 0.00000000E+00 0.00000000E+00 0.00000000E+00 0.00000000E+00 0.00000000E+00
 3  7 0.00000000E+00 0.00000000E+00 0.00000000E+00 0.00000000E+00 0.00000000E+00
 3  8 0.00000000E+00
 4  1 0.00000000E+00 0.00000000E+00 2.87852936E-01 0.00000000E+00 0.00000000E+00
 4  2 0.00000000E+00 8.56023032E-02 0.00000000E+00 0.00000000E+00 0.00000000E+00
 4  3 2.49719783E-01 0.00000000E+00 0.00000000E+00 0.00000000E+00 4.16904728E-01
 4  4 0.00000000E+00 0.00000000E+00 0.00000000E+00 2.70984243E-01 0.00000000E+00
 4  5 0.00000000E+00 0.00000000E+00 1.50309516E-01 0.00000000E+00 0.00000000E+00
 4  6 0.00000000E+00 0.00000000E+00 0.00000000E+00 0.00000000E+00 0.00000000E+00
 4  7 0.00000000E+00 0.00000000E+00 0.00000000E+00 0.00000000E+00 0.00000000E+00
 4  8 0.00000000E+00
 5  1 1.73555549E-01 0.00000000E+00 0.00000000E+00 0.00000000E+00-2.33541422E-01
 5  2 0.00000000E+00 0.00000000E+00 0.00000000E+00 1.12976538E+00 0.00000000E+00
 5  3 0.00000000E+00 0.00000000E+00-2.23232336E+00 0.00000000E+00 0.00000000E+00
 5  4 0.00000000E+00 4.32446878E+00 0.00000000E+00 0.00000000E+00 0.00000000E+00
 5  5-3.37236910E+00 0.00000000E+00 0.00000000E+00 0.00000000E+00 0.00000000E+00
 5  6 0.00000000E+00 0.00000000E+00 0.00000000E+00 0.00000000E+00 0.00000000E+00
 5  7 0.00000000E+00 0.00000000E+00 0.00000000E+00 0.00000000E+00 0.00000000E+00
 5  8 0.00000000E+00
 6  1 0.00000000E+00 9.56560077E-02 0.00000000E+00 0.00000000E+00 0.00000000E+00
 6  2-1.06225618E-01 0.00000000E+00 0.00000000E+00 0.00000000E+00 6.51188027E-01
 6  3 0.00000000E+00 0.00000000E+00 0.00000000E+00-1.20344071E+00 0.00000000E+00
 6  4 0.00000000E+00 0.00000000E+00 2.66683756E+00 0.00000000E+00 0.00000000E+00
 6  5 0.00000000E+00-2.42796169E+00 0.00000000E+00 0.00000000E+00 0.00000000E+00
 6  6 0.00000000E+00 0.00000000E+00 0.00000000E+00 0.00000000E+00 0.00000000E+00
 6  7 0.00000000E+00 0.00000000E+00 0.00000000E+00 0.00000000E+00 0.00000000E+00
 6  8 0.00000000E+00
 7  1 0.00000000E+00 0.00000000E+00 0.00000000E+00 9.56560077E-02 0.00000000E+00
 7  2 0.00000000E+00 0.00000000E+00-1.06225618E-01 0.00000000E+00 0.00000000E+00
 7  3 0.00000000E+00 6.51188027E-01 0.00000000E+00 0.00000000E+00 0.00000000E+00
 7  4-1.20344071E+00 0.00000000E+00 0.00000000E+00 0.00000000E+00 2.66683756E+00
 7  5 0.00000000E+00 0.00000000E+00 0.00000000E+00-2.42796169E+00 0.00000000E+00
 7  6 0.00000000E+00 0.00000000E+00 0.00000000E+00 0.00000000E+00 0.00000000E+00
 7  7 0.00000000E+00 0.00000000E+00 0.00000000E+00 0.00000000E+00 0.00000000E+00
 7  8 0.00000000E+00
 8  1 0.00000000E+00 0.00000000E+00 9.56560077E-02 0.00000000E+00 0.00000000E+00
 8  2 0.00000000E+00-1.06225618E-01 0.00000000E+00 0.00000000E+00 0.00000000E+00
 8  3 6.51188027E-01 0.00000000E+00 0.00000000E+00 0.00000000E+00-1.20344071E+00
 8  4 0.00000000E+00 0.00000000E+00 0.00000000E+00 2.66683756E+00 0.00000000E+00
 8  5 0.00000000E+00 0.00000000E+00-2.42796169E+00 0.00000000E+00 0.00000000E+00
 8  6 0.00000000E+00 0.00000000E+00 0.00000000E+00 0.00000000E+00 0.00000000E+00
 8  7 0.00000000E+00 0.00000000E+00 0.00000000E+00 0.00000000E+00 0.00000000E+00
 8  8 0.00000000E+00
 9  1 0.00000000E+00 0.00000000E+00 0.00000000E+00 0.00000000E+00 0.00000000E+00
 9  2 0.00000000E+00 0.00000000E+00 0.00000000E+00 0.00000000E+00 0.00000000E+00
 9  3 0.00000000E+00 0.00000000E+00 0.00000000E+00 0.00000000E+00 0.00000000E+00
 9  4 0.00000000E+00 0.00000000E+00 0.00000000E+00 0.00000000E+00 0.00000000E+00
 9  5 0.00000000E+00 0.00000000E+00 0.00000000E+00 0.00000000E+00 0.00000000E+00
 9  6 0.00000000E+00 0.00000000E+00 1.03589148E+00 0.00000000E+00 0.00000000E+00
 9  7 0.00000000E+00 0.00000000E+00 0.00000000E+00-6.90001942E-02 0.00000000E+00
 9  8 0.00000000E+00
10  1 0.00000000E+00 0.00000000E+00 0.00000000E+00 0.00000000E+00 0.00000000E+00
10  2 0.00000000E+00 0.00000000E+00 0.00000000E+00 0.00000000E+00 0.00000000E+00
10  3 0.00000000E+00 0.00000000E+00 0.00000000E+00 0.00000000E+00 0.00000000E+00
10  4 0.00000000E+00 0.00000000E+00 0.00000000E+00 0.00000000E+00 0.00000000E+00
10  5 0.00000000E+00 0.00000000E+00 0.00000000E+00 0.00000000E+00 0.00000000E+00
10  6 0.00000000E+00 0.00000000E+00 0.00000000E+00 0.00000000E+00 1.03589148E+00
10  7 0.00000000E+00 0.00000000E+00 0.00000000E+00 0.00000000E+00 0.00000000E+00
10  8-6.90001942E-02
11  1 0.00000000E+00 0.00000000E+00 0.00000000E+00 0.00000000E+00 0.00000000E+00
11  2 0.00000000E+00 0.00000000E+00 0.00000000E+00 0.00000000E+00 0.00000000E+00
11  3 0.00000000E+00 0.00000000E+00 0.00000000E+00 0.00000000E+00 0.00000000E+00
11  4 0.00000000E+00 0.00000000E+00 0.00000000E+00 0.00000000E+00 0.00000000E+00
11  5 0.00000000E+00 0.00000000E+00 0.00000000E+00 0.00000000E+00 0.00000000E+00
11  6 0.00000000E+00 0.00000000E+00 0.00000000E+00 1.03589148E+00 0.00000000E+00
11  7 0.00000000E+00 0.00000000E+00 0.00000000E+00 0.00000000E+00-6.90001942E-02
11  8 0.00000000E+00
12  1 0.00000000E+00 0.00000000E+00 0.00000000E+00 0.00000000E+00 0.00000000E+00
12  2 0.00000000E+00 0.00000000E+00 0.00000000E+00 0.00000000E+00 0.00000000E+00
12  3 0.00000000E+00 0.00000000E+00 0.00000000E+00 0.00000000E+00 0.00000000E+00
12  4 0.00000000E+00 0.00000000E+00 0.00000000E+00 0.00000000E+00 0.00000000E+00
12  5 0.00000000E+00 0.00000000E+00 0.00000000E+00 0.00000000E+00-5.15672528E-01
12  6-5.20215628E-01 1.03588816E+00 0.00000000E+00 0.00000000E+00 0.00000000E+00
12  7 3.43486798E-02 3.46512933E-02-6.89999731E-02 0.00000000E+00 0.00000000E+00
12  8 0.00000000E+00
13  1 0.00000000E+00 0.00000000E+00 0.00000000E+00 0.00000000E+00 0.00000000E+00
13  2 0.00000000E+00 0.00000000E+00 0.00000000E+00 0.00000000E+00 0.00000000E+00
13  3 0.00000000E+00 0.00000000E+00 0.00000000E+00 0.00000000E+00 0.00000000E+00
13  4 0.00000000E+00 0.00000000E+00 0.00000000E+00 0.00000000E+00 0.00000000E+00
13  5 0.00000000E+00 0.00000000E+00 0.00000000E+00 0.00000000E+00 8.98416939E-01
13  6-8.95793979E-01-2.62295975E-03 0.00000000E+00 0.00000000E+00 0.00000000E+00
13  7-5.98430865E-02 5.96683725E-02 1.74713989E-04 0.00000000E+00 0.00000000E+00
13  8 0.00000000E+00
14  1-3.38960811E-01 0.00000000E+00 0.00000000E+00 0.00000000E+00-3.49808434E-01
14  2 0.00000000E+00 0.00000000E+00 0.00000000E+00 2.32019215E+00 0.00000000E+00
14  3 0.00000000E+00 0.00000000E+00-8.14019517E+00 0.00000000E+00 0.00000000E+00
14  4 0.00000000E+00 9.61081952E+00 0.00000000E+00 0.00000000E+00 0.00000000E+00
14  5-3.78264078E+00 0.00000000E+00 0.00000000E+00 0.00000000E+00 0.00000000E+00
14  6 0.00000000E+00 0.00000000E+00 0.00000000E+00 0.00000000E+00 0.00000000E+00
14  7 0.00000000E+00 0.00000000E+00 0.00000000E+00 0.00000000E+00 0.00000000E+00
14  8 0.00000000E+00
15  1 0.00000000E+00-2.58973494E-01 0.00000000E+00 0.00000000E+00 0.00000000E+00
15  2-4.42237451E-01 0.00000000E+00 0.00000000E+00 0.00000000E+00 1.27718570E+00
15  3 0.00000000E+00 0.00000000E+00 0.00000000E+00-4.41864821E+00 0.00000000E+00
15  4 0.00000000E+00 0.00000000E+00 5.49950630E+00 0.00000000E+00 0.00000000E+00
15  5 0.00000000E+00-2.23201167E+00 0.00000000E+00 0.00000000E+00 0.00000000E+00
15  6 0.00000000E+00 0.00000000E+00 0.00000000E+00 0.00000000E+00 0.00000000E+00
15  7 0.00000000E+00 0.00000000E+00 0.00000000E+00 0.00000000E+00 0.00000000E+00
15  8 0.00000000E+00
16  1 0.00000000E+00 0.00000000E+00 0.00000000E+00-2.58973494E-01 0.00000000E+00
16  2 0.00000000E+00 0.00000000E+00-4.42237451E-01 0.00000000E+00 0.00000000E+00
16  3 0.00000000E+00 1.27718570E+00 0.00000000E+00 0.00000000E+00 0.00000000E+00
16  4-4.41864821E+00 0.00000000E+00 0.00000000E+00 0.00000000E+00 5.49950630E+00
16  5 0.00000000E+00 0.00000000E+00 0.00000000E+00-2.23201167E+00 0.00000000E+00
16  6 0.00000000E+00 0.00000000E+00 0.00000000E+00 0.00000000E+00 0.00000000E+00
16  7 0.00000000E+00 0.00000000E+00 0.00000000E+00 0.00000000E+00 0.00000000E+00
16  8 0.00000000E+00
17  1 0.00000000E+00 0.00000000E+00-2.58973494E-01 0.00000000E+00 0.00000000E+00
17  2 0.00000000E+00-4.42237451E-01 0.00000000E+00 0.00000000E+00 0.00000000E+00
17  3 1.27718570E+00 0.00000000E+00 0.00000000E+00 0.00000000E+00-4.41864821E+00
17  4 0.00000000E+00 0.00000000E+00 0.00000000E+00 5.49950630E+00 0.00000000E+00
17  5 0.00000000E+00 0.00000000E+00-2.23201167E+00 0.00000000E+00 0.00000000E+00
17  6 0.00000000E+00 0.00000000E+00 0.00000000E+00 0.00000000E+00 0.00000000E+00
17  7 0.00000000E+00 0.00000000E+00 0.00000000E+00 0.00000000E+00 0.00000000E+00
17  8 0.00000000E+00
18  1 0.00000000E+00 0.00000000E+00 0.00000000E+00 0.00000000E+00 0.00000000E+00
18  2 0.00000000E+00 0.00000000E+00 0.00000000E+00 0.00000000E+00 0.00000000E+00
18  3 0.00000000E+00 0.00000000E+00 0.00000000E+00 0.00000000E+00 0.00000000E+00
18  4 0.00000000E+00 0.00000000E+00 0.00000000E+00 0.00000000E+00 0.00000000E+00
18  5 0.00000000E+00 0.00000000E+00 0.00000000E+00 0.00000000E+00 5.10964179E-01
18  6-5.11182474E-01 2.18295432E-04 0.00000000E+00 0.00000000E+00 0.00000000E+00
18  7-1.03052156E+00 1.03096182E+00-4.40262073E-04 0.00000000E+00 0.00000000E+00
18  8 0.00000000E+00
19  1 0.00000000E+00 0.00000000E+00 0.00000000E+00 0.00000000E+00 0.00000000E+00
19  2 0.00000000E+00 0.00000000E+00 0.00000000E+00 0.00000000E+00 0.00000000E+00
19  3 0.00000000E+00 0.00000000E+00 0.00000000E+00 0.00000000E+00 0.00000000E+00
19  4 0.00000000E+00 0.00000000E+00 0.00000000E+00 0.00000000E+00 0.00000000E+00
19  5 0.00000000E+00 0.00000000E+00 0.00000000E+00 0.00000000E+00 0.00000000E+00
19  6 0.00000000E+00 0.00000000E+00-5.90136686E-01 0.00000000E+00 0.00000000E+00
19  7 0.00000000E+00 0.00000000E+00 0.00000000E+00 1.19019806E+00 0.00000000E+00
19  8 0.00000000E+00
20  1 0.00000000E+00 0.00000000E+00 0.00000000E+00 0.00000000E+00 0.00000000E+00
20  2 0.00000000E+00 0.00000000E+00 0.00000000E+00 0.00000000E+00 0.00000000E+00
20  3 0.00000000E+00 0.00000000E+00 0.00000000E+00 0.00000000E+00 0.00000000E+00
20  4 0.00000000E+00 0.00000000E+00 0.00000000E+00 0.00000000E+00 0.00000000E+00
20  5 0.00000000E+00 0.00000000E+00 0.00000000E+00 0.00000000E+00 0.00000000E+00
20  6 0.00000000E+00 0.00000000E+00 0.00000000E+00 0.00000000E+00-5.90136686E-01
20  7 0.00000000E+00 0.00000000E+00 0.00000000E+00 0.00000000E+00 0.00000000E+00
20  8 1.19019806E+00
21  1 0.00000000E+00 0.00000000E+00 0.00000000E+00 0.00000000E+00 0.00000000E+00
21  2 0.00000000E+00 0.00000000E+00 0.00000000E+00 0.00000000E+00 0.00000000E+00
21  3 0.00000000E+00 0.00000000E+00 0.00000000E+00 0.00000000E+00 0.00000000E+00
21  4 0.00000000E+00 0.00000000E+00 0.00000000E+00 0.00000000E+00 0.00000000E+00
21  5 0.00000000E+00 0.00000000E+00 0.00000000E+00 0.00000000E+00 0.00000000E+00
21  6 0.00000000E+00 0.00000000E+00 0.00000000E+00-5.90136686E-01 0.00000000E+00
21  7 0.00000000E+00 0.00000000E+00 0.00000000E+00 0.00000000E+00 1.19019806E+00
21  8 0.00000000E+00
22  1 0.00000000E+00 0.00000000E+00 0.00000000E+00 0.00000000E+00 0.00000000E+00
22  2 0.00000000E+00 0.00000000E+00 0.00000000E+00 0.00000000E+00 0.00000000E+00
22  3 0.00000000E+00 0.00000000E+00 0.00000000E+00 0.00000000E+00 0.00000000E+00
22  4 0.00000000E+00 0.00000000E+00 0.00000000E+00 0.00000000E+00 0.00000000E+00
22  5 0.00000000E+00 0.00000000E+00 0.00000000E+00 0.00000000E+00 2.95257372E-01
22  6 2.94879273E-01-5.90136646E-01 0.00000000E+00 0.00000000E+00 0.00000000E+00
22  7-5.95480270E-01-5.94717714E-01 1.19019798E+00 0.00000000E+00 0.00000000E+00
22  8 0.00000000E+00
23  1 0.00000000E+00-3.32862292E-01 0.00000000E+00 0.00000000E+00 0.00000000E+00
23  2 9.21532211E-01 0.00000000E+00 0.00000000E+00 0.00000000E+00-5.30254424E+00
23  3 0.00000000E+00 0.00000000E+00 0.00000000E+00 7.63123113E+00 0.00000000E+00
23  4 0.00000000E+00 0.00000000E+00-5.04654084E+00 0.00000000E+00 0.00000000E+00
23  5 0.00000000E+00 1.51615275E+00 0.00000000E+00 0.00000000E+00 0.00000000E+00
23  6 0.00000000E+00 0.00000000E+00 0.00000000E+00 0.00000000E+00 0.00000000E+00
23  7 0.00000000E+00 0.00000000E+00 0.00000000E+00 0.00000000E+00 0.00000000E+00
23  8 0.00000000E+00
24  1 0.00000000E+00 0.00000000E+00 0.00000000E+00-3.32862292E-01 0.00000000E+00
24  2 0.00000000E+00 0.00000000E+00 9.21532211E-01 0.00000000E+00 0.00000000E+00
24  3 0.00000000E+00-5.30254424E+00 0.00000000E+00 0.00000000E+00 0.00000000E+00
24  4 7.63123113E+00 0.00000000E+00 0.00000000E+00 0.00000000E+00-5.04654084E+00
24  5 0.00000000E+00 0.00000000E+00 0.00000000E+00 1.51615275E+00 0.00000000E+00
24  6 0.00000000E+00 0.00000000E+00 0.00000000E+00 0.00000000E+00 0.00000000E+00
24  7 0.00000000E+00 0.00000000E+00 0.00000000E+00 0.00000000E+00 0.00000000E+00
24  8 0.00000000E+00
25  1 0.00000000E+00 0.00000000E+00-3.32862292E-01 0.00000000E+00 0.00000000E+00
25  2 0.00000000E+00 9.21532211E-01 0.00000000E+00 0.00000000E+00 0.00000000E+00
25  3-5.30254424E+00 0.00000000E+00 0.00000000E+00 0.00000000E+00 7.63123113E+00
25  4 0.00000000E+00 0.00000000E+00 0.00000000E+00-5.04654084E+00 0.00000000E+00
25  5 0.00000000E+00 0.00000000E+00 1.51615275E+00 0.00000000E+00 0.00000000E+00
25  6 0.00000000E+00 0.00000000E+00 0.00000000E+00 0.00000000E+00 0.00000000E+00
25  7 0.00000000E+00 0.00000000E+00 0.00000000E+00 0.00000000E+00 0.00000000E+00
25  8 0.00000000E+00
26  1-5.95446514E-01 0.00000000E+00 0.00000000E+00 0.00000000E+00 2.49712744E+00
26  2 0.00000000E+00 0.00000000E+00 0.00000000E+00-1.09853411E+01 0.00000000E+00
26  3 0.00000000E+00 0.00000000E+00 1.49100974E+01 0.00000000E+00 0.00000000E+00
26  4 0.00000000E+00-9.57672699E+00 0.00000000E+00 0.00000000E+00 0.00000000E+00
26  5 2.68605736E+00 0.00000000E+00 0.00000000E+00 0.00000000E+00 0.00000000E+00
26  6 0.00000000E+00 0.00000000E+00 0.00000000E+00 0.00000000E+00 0.00000000E+00
26  7 0.00000000E+00 0.00000000E+00 0.00000000E+00 0.00000000E+00 0.00000000E+00
26  8 0.00000000E+00
27  1 0.00000000E+00 0.00000000E+00-1.22640362E+00 0.00000000E+00 0.00000000E+00
27  2 0.00000000E+00-4.90251961E+00 0.00000000E+00 0.00000000E+00 0.00000000E+00
27  3 7.78194262E+00 0.00000000E+00 0.00000000E+00 0.00000000E+00-6.42394012E+00
27  4 0.00000000E+00 0.00000000E+00 0.00000000E+00 3.34345190E+00 0.00000000E+00
27  5 0.00000000E+00 0.00000000E+00-9.30501133E-01 0.00000000E+00 0.00000000E+00
27  6 0.00000000E+00 0.00000000E+00 0.00000000E+00 0.00000000E+00 0.00000000E+00
27  7 0.00000000E+00 0.00000000E+00 0.00000000E+00 0.00000000E+00 0.00000000E+00
27  8 0.00000000E+00
28  1 0.00000000E+00 0.00000000E+00 0.00000000E+00-1.22640362E+00 0.00000000E+00
28  2 0.00000000E+00 0.00000000E+00-4.90251961E+00 0.00000000E+00 0.00000000E+00
28  3 0.00000000E+00 7.78194262E+00 0.00000000E+00 0.00000000E+00 0.00000000E+00
28  4-6.42394012E+00 0.00000000E+00 0.00000000E+00 0.00000000E+00 3.34345190E+00
28  5 0.00000000E+00 0.00000000E+00 0.00000000E+00-9.30501133E-01 0.00000000E+00
28  6 0.00000000E+00 0.00000000E+00 0.00000000E+00 0.00000000E+00 0.00000000E+00
28  7 0.00000000E+00 0.00000000E+00 0.00000000E+00 0.00000000E+00 0.00000000E+00
28  8 0.00000000E+00
29  1 0.00000000E+00-1.22640362E+00 0.00000000E+00 0.00000000E+00 0.00000000E+00
29  2-4.90251961E+00 0.00000000E+00 0.00000000E+00 0.00000000E+00 7.78194262E+00
29  3 0.00000000E+00 0.00000000E+00 0.00000000E+00-6.42394012E+00 0.00000000E+00
29  4 0.00000000E+00 0.00000000E+00 3.34345190E+00 0.00000000E+00 0.00000000E+00
29  5 0.00000000E+00-9.30501133E-01 0.00000000E+00 0.00000000E+00 0.00000000E+00
29  6 0.00000000E+00 0.00000000E+00 0.00000000E+00 0.00000000E+00 0.00000000E+00
29  7 0.00000000E+00 0.00000000E+00 0.00000000E+00 0.00000000E+00 0.00000000E+00
29  8 0.00000000E+00
30  1 0.00000000E+00 8.88522704E-01 0.00000000E+00 0.00000000E+00 0.00000000E+00
30  2-4.37891594E-01 0.00000000E+00 0.00000000E+00 0.00000000E+00 6.88239513E-01
30  3 0.00000000E+00 0.00000000E+00 0.00000000E+00-5.99620339E-01 0.00000000E+00
30  4 0.00000000E+00 0.00000000E+00 3.26217371E-01 0.00000000E+00 0.00000000E+00
30  5 0.00000000E+00-9.43226046E-02 0.00000000E+00 0.00000000E+00 0.00000000E+00
30  6 0.00000000E+00 0.00000000E+00 0.00000000E+00 0.00000000E+00 0.00000000E+00
30  7 0.00000000E+00 0.00000000E+00 0.00000000E+00 0.00000000E+00 0.00000000E+00
30  8 0.00000000E+00
31  1 0.00000000E+00 0.00000000E+00 8.88522704E-01 0.00000000E+00 0.00000000E+00
31  2 0.00000000E+00-4.37891594E-01 0.00000000E+00 0.00000000E+00 0.00000000E+00
31  3 6.88239513E-01 0.00000000E+00 0.00000000E+00 0.00000000E+00-5.99620339E-01
31  4 0.00000000E+00 0.00000000E+00 0.00000000E+00 3.26217371E-01 0.00000000E+00
31  5 0.00000000E+00 0.00000000E+00-9.43226046E-02 0.00000000E+00 0.00000000E+00
31  6 0.00000000E+00 0.00000000E+00 0.00000000E+00 0.00000000E+00 0.00000000E+00
31  7 0.00000000E+00 0.00000000E+00 0.00000000E+00 0.00000000E+00 0.00000000E+00
31  8 0.00000000E+00
32  1 0.00000000E+00 0.00000000E+00 0.00000000E+00 8.88522704E-01 0.00000000E+00
32  2 0.00000000E+00 0.00000000E+00-4.37891594E-01 0.00000000E+00 0.00000000E+00
32  3 0.00000000E+00 6.88239513E-01 0.00000000E+00 0.00000000E+00 0.00000000E+00
32  4-5.99620339E-01 0.00000000E+00 0.00000000E+00 0.00000000E+00 3.26217371E-01
32  5 0.00000000E+00 0.00000000E+00 0.00000000E+00-9.43226046E-02 0.00000000E+00
32  6 0.00000000E+00 0.00000000E+00 0.00000000E+00 0.00000000E+00 0.00000000E+00
32  7 0.00000000E+00 0.00000000E+00 0.00000000E+00 0.00000000E+00 0.00000000E+00
32  8 0.00000000E+00
33  1-2.41726518E+00 0.00000000E+00 0.00000000E+00 0.00000000E+00-5.58093458E+00
33  2 0.00000000E+00 0.00000000E+00 0.00000000E+00 8.22056890E+00 0.00000000E+00
33  3 0.00000000E+00 0.00000000E+00-6.77743520E+00 0.00000000E+00 0.00000000E+00
33  4 0.00000000E+00 3.50730849E+00 0.00000000E+00 0.00000000E+00 0.00000000E+00
33  5-9.24407318E-01 0.00000000E+00 0.00000000E+00 0.00000000E+00 0.00000000E+00
33  6 0.00000000E+00 0.00000000E+00 0.00000000E+00 0.00000000E+00 0.00000000E+00
33  7 0.00000000E+00 0.00000000E+00 0.00000000E+00 0.00000000E+00 0.00000000E+00
33  8 0.00000000E+00
34  1-1.73603681E+00 0.00000000E+00 0.00000000E+00 0.00000000E+00-8.36900071E+00
34  2 0.00000000E+00 0.00000000E+00 0.00000000E+00 1.27301064E+01 0.00000000E+00
34  3 0.00000000E+00 0.00000000E+00-1.07941161E+01 0.00000000E+00 0.00000000E+00
34  4 0.00000000E+00 5.72710205E+00 0.00000000E+00 0.00000000E+00 0.00000000E+00
34  5-1.53968474E+00 0.00000000E+00 0.00000000E+00 0.00000000E+00 0.00000000E+00
34  6 0.00000000E+00 0.00000000E+00 0.00000000E+00 0.00000000E+00 0.00000000E+00
34  7 0.00000000E+00 0.00000000E+00 0.00000000E+00 0.00000000E+00 0.00000000E+00
34  8 0.00000000E+00
 $END   

! TRAVIS-CI SMALL
! TRAVIS-CI SKIP
! UNSUCCESSFUL USING INTEL COMPILERS

