!   As2 cation...2-Pi-u...D.G.Fedorov, M.Klobukowski CPL, 360, 223-228(2002)
!   this runs reproduces an entry in table IV, namely
!         quoted value:       1158.3
!         this runs produces: 1158.29
!
!   RELATIVE= -571.748(2) and +571.748(2) for MCSCF level   (split= 1143.496)
!   RELATIVE= -579.146(2) and +579.146(2) for  MRMP level   (split= 1158.292)
!
!   This run takes 14 seconds on 2.66 GHz Cloverton (17 Apr 2015)
!   results haven't changed since 2003.
!
 $CONTRL pp=mcp SCFTYP=none MULT=2 RUNTYP=transitn mplevl=2
         ispher=1 icharg=+1 $END
 $system mwords=1 $end
 $guess  guess=moread norb=68 $end

 $transt operat=hso2p numvec=-2 numci=2 nfzc=0 nocc=8 iroots(1)=1,1
         parmp=1 onecnt=1 mcp2e=1 $end
 $mrmp   rdvecs=.true. $end
 $MCQD1  mult=2 iforb=3 nmofzc=0 nmodoc=0 nmoact=8 istsym=7 $END
 $MCQD2  mult=2 iforb=3 nmofzc=0 nmodoc=0 nmoact=8 istsym=8 $END

 $DATA
As2+ 2-Piu ..(6,6/26,20,14)wtbs+2d-pol. (6,12)+1p-pol. MP_5n0_3n1 MCP opt
Dnh 2

 As   33.   0 0 1.1536759873
 MCP READ
        S   21
    1  92628131.0        -.9777458180E-08
    2  18914773.0        -.5481305420E-07
    3  4410892.90        -.3182414080E-06
    4  1164823.30        -.1529606050E-05
    5  344914.010        -.6405026200E-05
    6  113254.380        -.2359415320E-04
    7  40746.3740        -.7770487210E-04
    8  15864.4390        -.2328088970E-03
    9  6602.44470        -.6414957260E-03
   10  2902.74720        -.1643433850E-02
   11  1333.61380        -.3892569340E-02
   12  634.154280        -.8411794330E-02
   13  309.552180        -.1576744120E-01
   14  154.061210        -.2242827270E-01
   15  77.7512420        -.1270558490E-01
   16  39.6223440         .3719086310E-01
   17  20.3241480         .1273550240
   18  10.4693990         .1065644150
   19  5.40712930        -.8696543670E-01
   20  2.79689470        -.2728686140
   21  1.44793390        -.3228125800
        P   15
    1  40746.3740         .1587850020E-05
    2  15864.4390         .5105547450E-05
    3  6602.44470         .2475943030E-04
    4  2902.74720         .9433391870E-04
    5  1333.61380         .3405079070E-03
    6  634.154280         .1128716830E-02
    7  309.552180         .3401306900E-02
    8  154.061210         .9215690320E-02
    9  77.7512420         .2053428570E-01
   10  39.6223440         .3480617960E-01
   11  20.3241480         .3249091230E-01
   12  10.4693990        -.2067819890E-01
   13  5.40712930        -.9547518560E-01
   14  2.79689470        -.1268915750
   15  1.44793390        -.8760561240E-01
       l    1
    1  .749900370         1.000000000
       l    1
    1  .388454330         1.000000000
       l    1
    1  .201236860         1.000000000
       l    1
    1  .104252030         1.000000000
       l    1
    1  .540086620E-01     1.000000000
     D 1
    1  0.129  1.0
     D 1
    1  0.434  1.0

 $END
 $MCP

  --- DK B=2|e|  (parameters optimized)

 As
  8  3 26  2 20  1 14  0
      5.00(4D15.8)
  1.2408148     -.82393412E-01 -5755.8609      2.2125248
  1.9745455      .74398962E-01 -.63272992E-01 -.20862056
  387.60341      175.27560      .74248430+244  26.877933
  2.7372055      .11440814      .98486742E-01  5.3151603
  0  0  0  0  0  1  1  1
  865.17218      112.61946      16.0591
  92628131.      18914773.      4410892.9      1164823.3
  344914.01      113254.38      40746.374      15864.439
  6602.4447      2902.7472      1333.6138      634.15428
  309.55218      154.06121      77.751242      39.622344
  20.324148      10.469399      5.4071293      2.7968947
  1.4479339      .74990037      .38845433      .20123686
  .10425203      .54008662E-01
  .29223634D-06  .16377585D-05  .95122066D-05  .45696430D-04
  .19138348D-03  .70402774D-03  .23150114D-02  .68932941D-02
  .18778019D-01  .46784663D-01  .10499352D+00  .20296797D+00
  .30804537D+00  .30233988D+00  .13764514D+00  .16319360D-01
  .13284964D-02 -.46443709D-03  .33870586D-03 -.31145871D-03
  .19648646D-03 -.13731845D-03  .87453947D-04 -.48405743D-04
  .21086559D-04 -.51035941D-05
 -.91181323D-07 -.51085460D-06 -.29681865D-05 -.14254765D-04
 -.59741638D-04 -.21981909D-03 -.72463508D-03 -.21664239D-02
 -.59707342D-02 -.15212783D-01 -.35872888D-01 -.76200295D-01
 -.13941888D+00 -.18703389D+00 -.99330404D-01  .24186519D+00
  .55968468D+00  .33616754D+00  .48361328D-01  .55468566D-02
 -.86320431D-03  .11236135D-02 -.71471713D-03  .38772976D-03
 -.17655958D-03  .42048549D-04
 -.35503635D-07 -.19900519D-06 -.11556262D-05 -.55533185D-05
 -.23258921D-04 -.85655490D-04 -.28217356D-03 -.84503184D-03
 -.23290232D-02 -.59610365D-02 -.14115750D-01 -.30426905D-01
 -.56889684D-01 -.80269446D-01 -.45170530D-01  .12928908D+00
  .41881916D+00  .33897570D+00 -.23712345D+00 -.63563503D+00
 -.39911934D+00 -.49188862D-01 -.55716209D-02  .20971157D-02
 -.12545829D-02  .27474214D-03
  100.30728      11.76124
  40746.374      15864.439      6602.4447      2902.7472
  1333.6138      634.15428      309.55218      154.06121
  77.751242      39.622344      20.324148      10.469399
  5.4071293      2.7968947      1.4479339      .74990037
  .38845433      .20123686      .10425203      .54008662E-01
  .18296007D-04  .58659432D-04  .28496718D-03  .10810969D-02
  .38926655D-02  .12772890D-01  .37888777D-01  .99316083D-01
  .21156855D+00  .33572003D+00  .32413084D+00  .13928579D+00
  .20071771D-01  .19221912D-02  .24537393D-03  .14258309D-03
 -.57554910D-04  .31428244D-04 -.16258063D-04  .40171569D-05
  .71369239D-05  .22901582D-04  .11129310D-03  .42319434D-03
  .15291230D-02  .50581318D-02  .15230979D-01  .41093513D-01
  .91199193D-01  .15324462D+00  .14414552D+00 -.66652894D-01
 -.34893718D+00 -.43442862D+00 -.24751781D+00 -.47591167D-01
 -.42742344D-02  .18432153D-03 -.32657027D-03  .10251545D-03
  4.22518
  1333.6138      634.15428      309.55218      154.06121
  77.751242      39.622344      20.324148      10.469399
  5.4071293      2.7968947      1.4479339      .74990037
  .38845433      .20123686
  .58619761D-04  .17653826D-03  .92916380D-03  .36872751D-02
  .13646857D-01  .41286816D-01  .10502626D+00  .20525441D+00
  .28657867D+00  .29827119D+00  .22428673D+00  .10569741D+00
  .26209217D-01  .36658977D-02

 $END
--- OPTIMIZED MCSCF MO-S --- GENERATED AT  2:46:15 CST 22-FEB-2002
As2+ 2-Piu ..(6,6/26,20,14)wtbs+2d-pol. (6,12)+1p-pol. MP_5n0_3n1 exp 2.103A
E(MCSCF)=      -11.7656615468, E(NUC)=        5.7335991115
 $VEC1
 1  1 3.67557336E-01 0.00000000E+00 0.00000000E+00 6.74420613E-02 2.80568584E-03
 1  2 0.00000000E+00 0.00000000E+00 1.12787747E-02 1.82302357E-01 0.00000000E+00
 1  3 0.00000000E+00 6.35877404E-02 4.39442810E-01 0.00000000E+00 0.00000000E+00
 1  4 9.05102202E-02 6.38094397E-02 0.00000000E+00 0.00000000E+00-4.88651293E-03
 1  5 2.37057751E-02 0.00000000E+00 0.00000000E+00 1.54813576E-02-6.59108886E-03
 1  6-6.59108886E-03 1.31821777E-02 0.00000000E+00 0.00000000E+00 0.00000000E+00
 1  7-6.40197312E-03-6.40197312E-03 1.28039462E-02 0.00000000E+00 0.00000000E+00
 1  8 0.00000000E+00 3.67557336E-01 0.00000000E+00 0.00000000E+00-6.74420613E-02
 1  9 2.80568584E-03 0.00000000E+00 0.00000000E+00-1.12787747E-02 1.82302357E-01
 1 10 0.00000000E+00 0.00000000E+00-6.35877404E-02 4.39442810E-01 0.00000000E+00
 1 11 0.00000000E+00-9.05102202E-02 6.38094397E-02 0.00000000E+00 0.00000000E+00
 1 12 4.88651293E-03 2.37057751E-02 0.00000000E+00 0.00000000E+00-1.54813576E-02
 1 13-6.59108886E-03-6.59108886E-03 1.31821777E-02 0.00000000E+00 0.00000000E+00
 1 14 0.00000000E+00-6.40197312E-03-6.40197312E-03 1.28039462E-02 0.00000000E+00
 1 15 0.00000000E+00 0.00000000E+00
 2  1 4.09322798E-01 0.00000000E+00 0.00000000E+00-4.48368895E-02-3.40656230E-02
 2  2 0.00000000E+00 0.00000000E+00-1.32381356E-02 3.01293273E-01 0.00000000E+00
 2  3 0.00000000E+00-3.91768430E-02 4.05649516E-01 0.00000000E+00 0.00000000E+00
 2  4-4.10610369E-02 2.19364827E-01 0.00000000E+00 0.00000000E+00-1.77361398E-02
 2  5-1.08051237E-02 0.00000000E+00 0.00000000E+00-1.02354385E-02 2.33593032E-03
 2  6 2.33593032E-03-4.67186064E-03 0.00000000E+00 0.00000000E+00 0.00000000E+00
 2  7 7.22526100E-05 7.22526100E-05-1.44505220E-04 0.00000000E+00 0.00000000E+00
 2  8 0.00000000E+00-4.09322798E-01 0.00000000E+00 0.00000000E+00-4.48368895E-02
 2  9 3.40656230E-02 0.00000000E+00 0.00000000E+00-1.32381356E-02-3.01293273E-01
 2 10 0.00000000E+00 0.00000000E+00-3.91768430E-02-4.05649516E-01 0.00000000E+00
 2 11 0.00000000E+00-4.10610369E-02-2.19364827E-01 0.00000000E+00 0.00000000E+00
 2 12-1.77361398E-02 1.08051237E-02 0.00000000E+00 0.00000000E+00-1.02354385E-02
 2 13-2.33593032E-03-2.33593032E-03 4.67186064E-03 0.00000000E+00 0.00000000E+00
 2 14 0.00000000E+00-7.22526100E-05-7.22526100E-05 1.44505220E-04 0.00000000E+00
 2 15 0.00000000E+00 0.00000000E+00
 3  1 1.32307077E-01 0.00000000E+00 0.00000000E+00-2.14775519E-01-2.85763832E-02
 3  2 0.00000000E+00 0.00000000E+00-5.77174839E-02 1.53825864E-01 0.00000000E+00
 3  3 0.00000000E+00-1.97483766E-01 6.70145992E-02 0.00000000E+00 0.00000000E+00
 3  4-2.97590953E-01 1.76947970E-01 0.00000000E+00 0.00000000E+00-1.11076417E-01
 3  5 8.64657545E-03 0.00000000E+00 0.00000000E+00-3.81789927E-02 1.18195109E-02
 3  6 1.18195109E-02-2.36390218E-02 0.00000000E+00 0.00000000E+00 0.00000000E+00
 3  7 8.90906252E-03 8.90906252E-03-1.78181250E-02 0.00000000E+00 0.00000000E+00
 3  8 0.00000000E+00 1.32307077E-01 0.00000000E+00 0.00000000E+00 2.14775519E-01
 3  9-2.85763832E-02 0.00000000E+00 0.00000000E+00 5.77174839E-02 1.53825864E-01
 3 10 0.00000000E+00 0.00000000E+00 1.97483766E-01 6.70145992E-02 0.00000000E+00
 3 11 0.00000000E+00 2.97590953E-01 1.76947970E-01 0.00000000E+00 0.00000000E+00
 3 12 1.11076417E-01 8.64657545E-03 0.00000000E+00 0.00000000E+00 3.81789927E-02
 3 13 1.18195109E-02 1.18195109E-02-2.36390218E-02 0.00000000E+00 0.00000000E+00
 3 14 0.00000000E+00 8.90906252E-03 8.90906252E-03-1.78181250E-02 0.00000000E+00
 3 15 0.00000000E+00 0.00000000E+00
 4  1 0.00000000E+00 0.00000000E+00 2.02102337E-01 0.00000000E+00 0.00000000E+00
 4  2 0.00000000E+00 5.93818332E-02 0.00000000E+00 0.00000000E+00 0.00000000E+00
 4  3 1.68229501E-01 0.00000000E+00 0.00000000E+00 0.00000000E+00 3.10431895E-01
 4  4 0.00000000E+00 0.00000000E+00 0.00000000E+00 1.46683596E-01 0.00000000E+00
 4  5 0.00000000E+00 0.00000000E+00 4.06824935E-02 0.00000000E+00 0.00000000E+00
 4  6 0.00000000E+00 0.00000000E+00 0.00000000E+00 0.00000000E+00 4.82938744E-02
 4  7 0.00000000E+00 0.00000000E+00 0.00000000E+00 0.00000000E+00 0.00000000E+00
 4  8 1.61856239E-02 0.00000000E+00 0.00000000E+00 2.02102337E-01 0.00000000E+00
 4  9 0.00000000E+00 0.00000000E+00 5.93818332E-02 0.00000000E+00 0.00000000E+00
 4 10 0.00000000E+00 1.68229501E-01 0.00000000E+00 0.00000000E+00 0.00000000E+00
 4 11 3.10431895E-01 0.00000000E+00 0.00000000E+00 0.00000000E+00 1.46683596E-01
 4 12 0.00000000E+00 0.00000000E+00 0.00000000E+00 4.06824935E-02 0.00000000E+00
 4 13 0.00000000E+00 0.00000000E+00 0.00000000E+00 0.00000000E+00 0.00000000E+00
 4 14-4.82938744E-02 0.00000000E+00 0.00000000E+00 0.00000000E+00 0.00000000E+00
 4 15 0.00000000E+00-1.61856239E-02
 5  1 0.00000000E+00 2.02102337E-01 0.00000000E+00 0.00000000E+00 0.00000000E+00
 5  2 5.93818332E-02 0.00000000E+00 0.00000000E+00 0.00000000E+00 1.68229501E-01
 5  3 0.00000000E+00 0.00000000E+00 0.00000000E+00 3.10431895E-01 0.00000000E+00
 5  4 0.00000000E+00 0.00000000E+00 1.46683596E-01 0.00000000E+00 0.00000000E+00
 5  5 0.00000000E+00 4.06824935E-02 0.00000000E+00 0.00000000E+00 0.00000000E+00
 5  6 0.00000000E+00 0.00000000E+00 0.00000000E+00 4.82938744E-02 0.00000000E+00
 5  7 0.00000000E+00 0.00000000E+00 0.00000000E+00 0.00000000E+00 1.61856239E-02
 5  8 0.00000000E+00 0.00000000E+00 2.02102337E-01 0.00000000E+00 0.00000000E+00
 5  9 0.00000000E+00 5.93818332E-02 0.00000000E+00 0.00000000E+00 0.00000000E+00
 5 10 1.68229501E-01 0.00000000E+00 0.00000000E+00 0.00000000E+00 3.10431895E-01
 5 11 0.00000000E+00 0.00000000E+00 0.00000000E+00 1.46683596E-01 0.00000000E+00
 5 12 0.00000000E+00 0.00000000E+00 4.06824935E-02 0.00000000E+00 0.00000000E+00
 5 13 0.00000000E+00 0.00000000E+00 0.00000000E+00 0.00000000E+00-4.82938744E-02
 5 14 0.00000000E+00 0.00000000E+00 0.00000000E+00 0.00000000E+00 0.00000000E+00
 5 15-1.61856239E-02 0.00000000E+00
 6  1 0.00000000E+00 0.00000000E+00 2.54967771E-01 0.00000000E+00 0.00000000E+00
 6  2 0.00000000E+00 6.82755491E-02 0.00000000E+00 0.00000000E+00 0.00000000E+00
 6  3 2.92829790E-01 0.00000000E+00 0.00000000E+00 0.00000000E+00 3.73137000E-01
 6  4 0.00000000E+00 0.00000000E+00 0.00000000E+00 1.29133321E-01 0.00000000E+00
 6  5 0.00000000E+00 0.00000000E+00 1.02683594E-02 0.00000000E+00 0.00000000E+00
 6  6 0.00000000E+00 0.00000000E+00 0.00000000E+00 0.00000000E+00 8.08989192E-03
 6  7 0.00000000E+00 0.00000000E+00 0.00000000E+00 0.00000000E+00 0.00000000E+00
 6  8 2.89759157E-03 0.00000000E+00 0.00000000E+00-2.54967771E-01 0.00000000E+00
 6  9 0.00000000E+00 0.00000000E+00-6.82755491E-02 0.00000000E+00 0.00000000E+00
 6 10 0.00000000E+00-2.92829790E-01 0.00000000E+00 0.00000000E+00 0.00000000E+00
 6 11-3.73137000E-01 0.00000000E+00 0.00000000E+00 0.00000000E+00-1.29133321E-01
 6 12 0.00000000E+00 0.00000000E+00 0.00000000E+00-1.02683594E-02 0.00000000E+00
 6 13 0.00000000E+00 0.00000000E+00 0.00000000E+00 0.00000000E+00 0.00000000E+00
 6 14 8.08989192E-03 0.00000000E+00 0.00000000E+00 0.00000000E+00 0.00000000E+00
 6 15 0.00000000E+00 2.89759157E-03
 7  1 0.00000000E+00-2.54967771E-01 0.00000000E+00 0.00000000E+00 0.00000000E+00
 7  2-6.82755491E-02 0.00000000E+00 0.00000000E+00 0.00000000E+00-2.92829790E-01
 7  3 0.00000000E+00 0.00000000E+00 0.00000000E+00-3.73137000E-01 0.00000000E+00
 7  4 0.00000000E+00 0.00000000E+00-1.29133321E-01 0.00000000E+00 0.00000000E+00
 7  5 0.00000000E+00-1.02683594E-02 0.00000000E+00 0.00000000E+00 0.00000000E+00
 7  6 0.00000000E+00 0.00000000E+00 0.00000000E+00-8.08989192E-03 0.00000000E+00
 7  7 0.00000000E+00 0.00000000E+00 0.00000000E+00 0.00000000E+00-2.89759157E-03
 7  8 0.00000000E+00 0.00000000E+00 2.54967771E-01 0.00000000E+00 0.00000000E+00
 7  9 0.00000000E+00 6.82755491E-02 0.00000000E+00 0.00000000E+00 0.00000000E+00
 7 10 2.92829790E-01 0.00000000E+00 0.00000000E+00 0.00000000E+00 3.73137000E-01
 7 11 0.00000000E+00 0.00000000E+00 0.00000000E+00 1.29133321E-01 0.00000000E+00
 7 12 0.00000000E+00 0.00000000E+00 1.02683594E-02 0.00000000E+00 0.00000000E+00
 7 13 0.00000000E+00 0.00000000E+00 0.00000000E+00 0.00000000E+00-8.08989192E-03
 7 14 0.00000000E+00 0.00000000E+00 0.00000000E+00 0.00000000E+00 0.00000000E+00
 7 15-2.89759157E-03 0.00000000E+00
 8  1 1.43342288E-01 0.00000000E+00 0.00000000E+00 2.86545347E-01-3.60605962E-02
 8  2 0.00000000E+00 0.00000000E+00 7.73782496E-02 9.55055213E-02 0.00000000E+00
 8  3 0.00000000E+00 3.62535968E-01 2.63720596E-01 0.00000000E+00 0.00000000E+00
 8  4 5.05247005E-01 1.59862632E-01 0.00000000E+00 0.00000000E+00 1.33211337E-01
 8  5 2.68733884E-03 0.00000000E+00 0.00000000E+00 1.15125757E-02 2.08039459E-03
 8  6 2.08039459E-03-4.16078918E-03 0.00000000E+00 0.00000000E+00 0.00000000E+00
 8  7-2.35059617E-03-2.35059617E-03 4.70119233E-03 0.00000000E+00 0.00000000E+00
 8  8 0.00000000E+00-1.43342288E-01 0.00000000E+00 0.00000000E+00 2.86545347E-01
 8  9 3.60605962E-02 0.00000000E+00 0.00000000E+00 7.73782496E-02-9.55055213E-02
 8 10 0.00000000E+00 0.00000000E+00 3.62535968E-01-2.63720596E-01 0.00000000E+00
 8 11 0.00000000E+00 5.05247005E-01-1.59862632E-01 0.00000000E+00 0.00000000E+00
 8 12 1.33211337E-01-2.68733884E-03 0.00000000E+00 0.00000000E+00 1.15125757E-02
 8 13-2.08039459E-03-2.08039459E-03 4.16078918E-03 0.00000000E+00 0.00000000E+00
 8 14 0.00000000E+00 2.35059617E-03 2.35059617E-03-4.70119233E-03 0.00000000E+00
 8 15 0.00000000E+00 0.00000000E+00
 9  1 1.28548105E-01 0.00000000E+00 0.00000000E+00-1.09810291E-02-1.36952940E-01
 9  2 0.00000000E+00 0.00000000E+00-1.05838378E-03 6.23160897E-01 0.00000000E+00
 9  3 0.00000000E+00-3.07547353E-02-1.05534439E+00 0.00000000E+00 0.00000000E+00
 9  4 4.88160944E-02 2.45576967E+00 0.00000000E+00 0.00000000E+00-9.77476010E-02
 9  5-1.91505640E+00 0.00000000E+00 0.00000000E+00-6.76647432E-02-1.07881537E-02
 9  6-1.07881537E-02 2.15763073E-02 0.00000000E+00 0.00000000E+00 0.00000000E+00
 9  7-6.62970785E-03-6.62970785E-03 1.32594157E-02 0.00000000E+00 0.00000000E+00
 9  8 0.00000000E+00 1.28548105E-01 0.00000000E+00 0.00000000E+00 1.09810291E-02
 9  9-1.36952940E-01 0.00000000E+00 0.00000000E+00 1.05838378E-03 6.23160897E-01
 9 10 0.00000000E+00 0.00000000E+00 3.07547353E-02-1.05534439E+00 0.00000000E+00
 9 11 0.00000000E+00-4.88160944E-02 2.45576967E+00 0.00000000E+00 0.00000000E+00
 9 12 9.77476010E-02-1.91505640E+00 0.00000000E+00 0.00000000E+00 6.76647432E-02
 9 13-1.07881537E-02-1.07881537E-02 2.15763073E-02 0.00000000E+00 0.00000000E+00
 9 14 0.00000000E+00-6.62970785E-03-6.62970785E-03 1.32594157E-02 0.00000000E+00
 9 15 0.00000000E+00 0.00000000E+00
10  1-8.32921803E-02 0.00000000E+00 0.00000000E+00 3.96787530E-02 6.96144391E-02
10  2 0.00000000E+00 0.00000000E+00-4.53290981E-02-2.98076067E-01 0.00000000E+00
10  3 0.00000000E+00 2.97737182E-01 3.28229638E-01 0.00000000E+00 0.00000000E+00
10  4-5.71109153E-01-6.93504621E-01 0.00000000E+00 0.00000000E+00 1.74088831E+00
10  5 5.85151217E-01 0.00000000E+00 0.00000000E+00-1.56474839E+00-5.35831111E-02
10  6-5.35831111E-02 1.07166222E-01 0.00000000E+00 0.00000000E+00 0.00000000E+00
10  7 4.78460138E-03 4.78460138E-03-9.56920275E-03 0.00000000E+00 0.00000000E+00
10  8 0.00000000E+00 8.32921803E-02 0.00000000E+00 0.00000000E+00 3.96787530E-02
10  9-6.96144391E-02 0.00000000E+00 0.00000000E+00-4.53290981E-02 2.98076067E-01
10 10 0.00000000E+00 0.00000000E+00 2.97737182E-01-3.28229638E-01 0.00000000E+00
10 11 0.00000000E+00-5.71109153E-01 6.93504621E-01 0.00000000E+00 0.00000000E+00
10 12 1.74088831E+00-5.85151217E-01 0.00000000E+00 0.00000000E+00-1.56474839E+00
10 13 5.35831111E-02 5.35831111E-02-1.07166222E-01 0.00000000E+00 0.00000000E+00
10 14 0.00000000E+00-4.78460138E-03-4.78460138E-03 9.56920275E-03 0.00000000E+00
10 15 0.00000000E+00 0.00000000E+00
11  1 0.00000000E+00 6.29430769E-02 0.00000000E+00 0.00000000E+00 0.00000000E+00
11  2-5.18307253E-02 0.00000000E+00 0.00000000E+00 0.00000000E+00 3.53636600E-01
11  3 0.00000000E+00 0.00000000E+00 0.00000000E+00-5.94632404E-01 0.00000000E+00
11  4 0.00000000E+00 0.00000000E+00 1.42851439E+00 0.00000000E+00 0.00000000E+00
11  5 0.00000000E+00-1.33286258E+00 0.00000000E+00 0.00000000E+00 0.00000000E+00
11  6 0.00000000E+00 0.00000000E+00 0.00000000E+00 5.67885691E-02 0.00000000E+00
11  7 0.00000000E+00 0.00000000E+00 0.00000000E+00 0.00000000E+00 5.71358170E-03
11  8 0.00000000E+00 0.00000000E+00 6.29430769E-02 0.00000000E+00 0.00000000E+00
11  9 0.00000000E+00-5.18307253E-02 0.00000000E+00 0.00000000E+00 0.00000000E+00
11 10 3.53636600E-01 0.00000000E+00 0.00000000E+00 0.00000000E+00-5.94632404E-01
11 11 0.00000000E+00 0.00000000E+00 0.00000000E+00 1.42851439E+00 0.00000000E+00
11 12 0.00000000E+00 0.00000000E+00-1.33286258E+00 0.00000000E+00 0.00000000E+00
11 13 0.00000000E+00 0.00000000E+00 0.00000000E+00 0.00000000E+00-5.67885691E-02
11 14 0.00000000E+00 0.00000000E+00 0.00000000E+00 0.00000000E+00 0.00000000E+00
11 15-5.71358170E-03 0.00000000E+00
12  1 0.00000000E+00 0.00000000E+00 6.29430769E-02 0.00000000E+00 0.00000000E+00
12  2 0.00000000E+00-5.18307253E-02 0.00000000E+00 0.00000000E+00 0.00000000E+00
12  3 3.53636600E-01 0.00000000E+00 0.00000000E+00 0.00000000E+00-5.94632404E-01
12  4 0.00000000E+00 0.00000000E+00 0.00000000E+00 1.42851439E+00 0.00000000E+00
12  5 0.00000000E+00 0.00000000E+00-1.33286258E+00 0.00000000E+00 0.00000000E+00
12  6 0.00000000E+00 0.00000000E+00 0.00000000E+00 0.00000000E+00 5.67885691E-02
12  7 0.00000000E+00 0.00000000E+00 0.00000000E+00 0.00000000E+00 0.00000000E+00
12  8 5.71358170E-03 0.00000000E+00 0.00000000E+00 6.29430769E-02 0.00000000E+00
12  9 0.00000000E+00 0.00000000E+00-5.18307253E-02 0.00000000E+00 0.00000000E+00
12 10 0.00000000E+00 3.53636600E-01 0.00000000E+00 0.00000000E+00 0.00000000E+00
12 11-5.94632404E-01 0.00000000E+00 0.00000000E+00 0.00000000E+00 1.42851439E+00
12 12 0.00000000E+00 0.00000000E+00 0.00000000E+00-1.33286258E+00 0.00000000E+00
12 13 0.00000000E+00 0.00000000E+00 0.00000000E+00 0.00000000E+00 0.00000000E+00
12 14-5.67885691E-02 0.00000000E+00 0.00000000E+00 0.00000000E+00 0.00000000E+00
12 15 0.00000000E+00-5.71358170E-03
13  1 1.51695660E-02 0.00000000E+00 0.00000000E+00-5.07924148E-02-1.15856404E-02
13  2 0.00000000E+00 0.00000000E+00 5.94670072E-02 6.76450492E-02 0.00000000E+00
13  3 0.00000000E+00-3.50549011E-01-7.57385769E-02 0.00000000E+00 0.00000000E+00
13  4 6.10955723E-01 8.01833059E-02 0.00000000E+00 0.00000000E+00-1.39154417E+00
13  5-3.90411232E-01 0.00000000E+00 0.00000000E+00 1.73006854E+00 2.07107964E-02
13  6 2.07107964E-02-4.14215928E-02 0.00000000E+00 0.00000000E+00 0.00000000E+00
13  7 1.44302724E-02 1.44302724E-02-2.88605448E-02 0.00000000E+00 0.00000000E+00
13  8 0.00000000E+00 1.51695660E-02 0.00000000E+00 0.00000000E+00 5.07924148E-02
13  9-1.15856404E-02 0.00000000E+00 0.00000000E+00-5.94670072E-02 6.76450492E-02
13 10 0.00000000E+00 0.00000000E+00 3.50549011E-01-7.57385769E-02 0.00000000E+00
13 11 0.00000000E+00-6.10955723E-01 8.01833059E-02 0.00000000E+00 0.00000000E+00
13 12 1.39154417E+00-3.90411232E-01 0.00000000E+00 0.00000000E+00-1.73006854E+00
13 13 2.07107964E-02 2.07107964E-02-4.14215928E-02 0.00000000E+00 0.00000000E+00
13 14 0.00000000E+00 1.44302724E-02 1.44302724E-02-2.88605448E-02 0.00000000E+00
13 15 0.00000000E+00 0.00000000E+00
14  1 0.00000000E+00-4.72560651E-02 0.00000000E+00 0.00000000E+00 0.00000000E+00
14  2 5.90746881E-02 0.00000000E+00 0.00000000E+00 0.00000000E+00-3.64892587E-01
14  3 0.00000000E+00 0.00000000E+00 0.00000000E+00 6.89348762E-01 0.00000000E+00
14  4 0.00000000E+00 0.00000000E+00-1.75228909E+00 0.00000000E+00 0.00000000E+00
14  5 0.00000000E+00 2.30646034E+00 0.00000000E+00 0.00000000E+00 0.00000000E+00
14  6 0.00000000E+00 0.00000000E+00 0.00000000E+00-3.71793381E-02 0.00000000E+00
14  7 0.00000000E+00 0.00000000E+00 0.00000000E+00 0.00000000E+00-5.91289864E-03
14  8 0.00000000E+00 0.00000000E+00 4.72560651E-02 0.00000000E+00 0.00000000E+00
14  9 0.00000000E+00-5.90746881E-02 0.00000000E+00 0.00000000E+00 0.00000000E+00
14 10 3.64892587E-01 0.00000000E+00 0.00000000E+00 0.00000000E+00-6.89348762E-01
14 11 0.00000000E+00 0.00000000E+00 0.00000000E+00 1.75228909E+00 0.00000000E+00
14 12 0.00000000E+00 0.00000000E+00-2.30646034E+00 0.00000000E+00 0.00000000E+00
14 13 0.00000000E+00 0.00000000E+00 0.00000000E+00 0.00000000E+00-3.71793381E-02
14 14 0.00000000E+00 0.00000000E+00 0.00000000E+00 0.00000000E+00 0.00000000E+00
14 15-5.91289864E-03 0.00000000E+00
15  1 0.00000000E+00 0.00000000E+00-4.72560651E-02 0.00000000E+00 0.00000000E+00
15  2 0.00000000E+00 5.90746881E-02 0.00000000E+00 0.00000000E+00 0.00000000E+00
15  3-3.64892587E-01 0.00000000E+00 0.00000000E+00 0.00000000E+00 6.89348762E-01
15  4 0.00000000E+00 0.00000000E+00 0.00000000E+00-1.75228909E+00 0.00000000E+00
15  5 0.00000000E+00 0.00000000E+00 2.30646034E+00 0.00000000E+00 0.00000000E+00
15  6 0.00000000E+00 0.00000000E+00 0.00000000E+00 0.00000000E+00-3.71793381E-02
15  7 0.00000000E+00 0.00000000E+00 0.00000000E+00 0.00000000E+00 0.00000000E+00
15  8-5.91289864E-03 0.00000000E+00 0.00000000E+00 4.72560651E-02 0.00000000E+00
15  9 0.00000000E+00 0.00000000E+00-5.90746881E-02 0.00000000E+00 0.00000000E+00
15 10 0.00000000E+00 3.64892587E-01 0.00000000E+00 0.00000000E+00 0.00000000E+00
15 11-6.89348762E-01 0.00000000E+00 0.00000000E+00 0.00000000E+00 1.75228909E+00
15 12 0.00000000E+00 0.00000000E+00 0.00000000E+00-2.30646034E+00 0.00000000E+00
15 13 0.00000000E+00 0.00000000E+00 0.00000000E+00 0.00000000E+00 0.00000000E+00
15 14-3.71793381E-02 0.00000000E+00 0.00000000E+00 0.00000000E+00 0.00000000E+00
15 15 0.00000000E+00-5.91289864E-03
16  1-7.88716214E-02 0.00000000E+00 0.00000000E+00-1.90766938E-02 1.52434030E-01
16  2 0.00000000E+00 0.00000000E+00 2.46022160E-02-7.65372962E-01 0.00000000E+00
16  3 0.00000000E+00-1.74802457E-01 1.93591813E+00 0.00000000E+00 0.00000000E+00
16  4 3.88583671E-01-5.22740162E+00 0.00000000E+00 0.00000000E+00-1.52266022E+00
16  5 1.05366382E+01 0.00000000E+00 0.00000000E+00 4.93383221E+00 2.64493753E-02
16  6 2.64493753E-02-5.28987506E-02 0.00000000E+00 0.00000000E+00 0.00000000E+00
16  7 4.83019169E-03 4.83019169E-03-9.66038338E-03 0.00000000E+00 0.00000000E+00
16  8 0.00000000E+00 7.88716214E-02 0.00000000E+00 0.00000000E+00-1.90766938E-02
16  9-1.52434030E-01 0.00000000E+00 0.00000000E+00 2.46022160E-02 7.65372962E-01
16 10 0.00000000E+00 0.00000000E+00-1.74802457E-01-1.93591813E+00 0.00000000E+00
16 11 0.00000000E+00 3.88583671E-01 5.22740162E+00 0.00000000E+00 0.00000000E+00
16 12-1.52266022E+00-1.05366382E+01 0.00000000E+00 0.00000000E+00 4.93383221E+00
16 13-2.64493753E-02-2.64493753E-02 5.28987506E-02 0.00000000E+00 0.00000000E+00
16 14 0.00000000E+00-4.83019169E-03-4.83019169E-03 9.66038338E-03 0.00000000E+00
16 15 0.00000000E+00 0.00000000E+00
17  1 0.00000000E+00 0.00000000E+00 0.00000000E+00 0.00000000E+00 0.00000000E+00
17  2 0.00000000E+00 0.00000000E+00 0.00000000E+00 0.00000000E+00 0.00000000E+00
17  3 0.00000000E+00 0.00000000E+00 0.00000000E+00 0.00000000E+00 0.00000000E+00
17  4 0.00000000E+00 0.00000000E+00 0.00000000E+00 0.00000000E+00 0.00000000E+00
17  5 0.00000000E+00 0.00000000E+00 0.00000000E+00 0.00000000E+00 0.00000000E+00
17  6 0.00000000E+00 0.00000000E+00 6.36134620E-01 0.00000000E+00 0.00000000E+00
17  7 0.00000000E+00 0.00000000E+00 0.00000000E+00-3.05258150E-02 0.00000000E+00
17  8 0.00000000E+00 0.00000000E+00 0.00000000E+00 0.00000000E+00 0.00000000E+00
17  9 0.00000000E+00 0.00000000E+00 0.00000000E+00 0.00000000E+00 0.00000000E+00
17 10 0.00000000E+00 0.00000000E+00 0.00000000E+00 0.00000000E+00 0.00000000E+00
17 11 0.00000000E+00 0.00000000E+00 0.00000000E+00 0.00000000E+00 0.00000000E+00
17 12 0.00000000E+00 0.00000000E+00 0.00000000E+00 0.00000000E+00 0.00000000E+00
17 13 0.00000000E+00 0.00000000E+00 0.00000000E+00 6.36134620E-01 0.00000000E+00
17 14 0.00000000E+00 0.00000000E+00 0.00000000E+00 0.00000000E+00-3.05258150E-02
17 15 0.00000000E+00 0.00000000E+00
18  1 0.00000000E+00 0.00000000E+00 0.00000000E+00 0.00000000E+00 0.00000000E+00
18  2 0.00000000E+00 0.00000000E+00 0.00000000E+00 0.00000000E+00 0.00000000E+00
18  3 0.00000000E+00 0.00000000E+00 0.00000000E+00 0.00000000E+00 0.00000000E+00
18  4 0.00000000E+00 0.00000000E+00 0.00000000E+00 0.00000000E+00 0.00000000E+00
18  5 0.00000000E+00 0.00000000E+00 0.00000000E+00 0.00000000E+00-5.50908741E-01
18  6 5.50908741E-01 0.00000000E+00 0.00000000E+00 0.00000000E+00 0.00000000E+00
18  7 2.64361313E-02-2.64361313E-02 0.00000000E+00 0.00000000E+00 0.00000000E+00
18  8 0.00000000E+00 0.00000000E+00 0.00000000E+00 0.00000000E+00 0.00000000E+00
18  9 0.00000000E+00 0.00000000E+00 0.00000000E+00 0.00000000E+00 0.00000000E+00
18 10 0.00000000E+00 0.00000000E+00 0.00000000E+00 0.00000000E+00 0.00000000E+00
18 11 0.00000000E+00 0.00000000E+00 0.00000000E+00 0.00000000E+00 0.00000000E+00
18 12 0.00000000E+00 0.00000000E+00 0.00000000E+00 0.00000000E+00 0.00000000E+00
18 13-5.50908741E-01 5.50908741E-01 0.00000000E+00 0.00000000E+00 0.00000000E+00
18 14 0.00000000E+00 2.64361313E-02-2.64361313E-02 0.00000000E+00 0.00000000E+00
18 15 0.00000000E+00 0.00000000E+00
19  1 0.00000000E+00 0.00000000E+00-4.15566855E-02 0.00000000E+00 0.00000000E+00
19  2 0.00000000E+00 5.11340973E-03 0.00000000E+00 0.00000000E+00 0.00000000E+00
19  3-1.14883243E-01 0.00000000E+00 0.00000000E+00 0.00000000E+00 1.03600076E-01
19  4 0.00000000E+00 0.00000000E+00 0.00000000E+00-5.45303347E-01 0.00000000E+00
19  5 0.00000000E+00 0.00000000E+00 2.96863206E-01 0.00000000E+00 0.00000000E+00
19  6 0.00000000E+00 0.00000000E+00 0.00000000E+00 0.00000000E+00 6.38136724E-01
19  7 0.00000000E+00 0.00000000E+00 0.00000000E+00 0.00000000E+00 0.00000000E+00
19  8-1.98904093E-02 0.00000000E+00 0.00000000E+00-4.15566855E-02 0.00000000E+00
19  9 0.00000000E+00 0.00000000E+00 5.11340973E-03 0.00000000E+00 0.00000000E+00
19 10 0.00000000E+00-1.14883243E-01 0.00000000E+00 0.00000000E+00 0.00000000E+00
19 11 1.03600076E-01 0.00000000E+00 0.00000000E+00 0.00000000E+00-5.45303347E-01
19 12 0.00000000E+00 0.00000000E+00 0.00000000E+00 2.96863206E-01 0.00000000E+00
19 13 0.00000000E+00 0.00000000E+00 0.00000000E+00 0.00000000E+00 0.00000000E+00
19 14-6.38136724E-01 0.00000000E+00 0.00000000E+00 0.00000000E+00 0.00000000E+00
19 15 0.00000000E+00 1.98904093E-02
20  1 0.00000000E+00-4.15566855E-02 0.00000000E+00 0.00000000E+00 0.00000000E+00
20  2 5.11340973E-03 0.00000000E+00 0.00000000E+00 0.00000000E+00-1.14883243E-01
20  3 0.00000000E+00 0.00000000E+00 0.00000000E+00 1.03600076E-01 0.00000000E+00
20  4 0.00000000E+00 0.00000000E+00-5.45303347E-01 0.00000000E+00 0.00000000E+00
20  5 0.00000000E+00 2.96863206E-01 0.00000000E+00 0.00000000E+00 0.00000000E+00
20  6 0.00000000E+00 0.00000000E+00 0.00000000E+00 6.38136724E-01 0.00000000E+00
20  7 0.00000000E+00 0.00000000E+00 0.00000000E+00 0.00000000E+00-1.98904093E-02
20  8 0.00000000E+00 0.00000000E+00-4.15566855E-02 0.00000000E+00 0.00000000E+00
20  9 0.00000000E+00 5.11340973E-03 0.00000000E+00 0.00000000E+00 0.00000000E+00
20 10-1.14883243E-01 0.00000000E+00 0.00000000E+00 0.00000000E+00 1.03600076E-01
20 11 0.00000000E+00 0.00000000E+00 0.00000000E+00-5.45303347E-01 0.00000000E+00
20 12 0.00000000E+00 0.00000000E+00 2.96863206E-01 0.00000000E+00 0.00000000E+00
20 13 0.00000000E+00 0.00000000E+00 0.00000000E+00 0.00000000E+00-6.38136724E-01
20 14 0.00000000E+00 0.00000000E+00 0.00000000E+00 0.00000000E+00 0.00000000E+00
20 15 1.98904093E-02 0.00000000E+00
21  1 0.00000000E+00 0.00000000E+00 0.00000000E+00 0.00000000E+00 0.00000000E+00
21  2 0.00000000E+00 0.00000000E+00 0.00000000E+00 0.00000000E+00 0.00000000E+00