!   Spin-orbit coupling on CH X-doublet-pi state
!   This job is an attempt to reproduce Shiro Koseki's results
!   from Table II of J.Phys.Chem. 96, 10768-10722(1992)
!
!      RELATIVE energies are -15.561(2) and 15.561(2)
!
!   The difference of these is the 'fine structure splitting' (FSS)
!   given in Table II, which contains the value 31.01 cm-1.
!
!   This run takes 0 seconds on 2.66 GHz Cloverton (17 Apr 2015)
!   results have remained the same since 1999.
!
!   -------------------------------------------------------------------
!   This is the first in a series of papers on effective nuclear
!   charges using a one-electron spin-orbit op.rator:
!   S.Koseki, M.W.Schmidt, M.S.Gordon, J.Phys.Chem. 96, 10768-72(1992)
!   S.Koseki, M.W.Schmidt, M.S.Gordon, N.Matsunaga
!       J.Phys.Chem. 102, 12764-72(1995)
!   S.Koseki, M.W.Schmidt, M.S.Gordon, J.Phys.Chem.A 102, 10430-35(1998)
!     and some more after that time.
!

1. Prepare cylindrically degenerate orbitals by ionizing to get
a singlet sigma state (cation virtuals are usually good starting
orbitals for MCSCF, too)

--- $contrl scftyp=rhf runtyp=energy icharg=+1 $end
--- $guess  guess=huckel $end

2. Do full valence MCSCF (5 active orbitals, 2sp on C and 1s on H)
Energy is -38.2995540863, which is lower than paper's -38.299509
It seems Koseki-san may have used a slightly different basis or 
geometry than what the paper says???  The RHF $VEC below is read.

--- $contrl scftyp=mcscf mult=2 runtyp=energy $end
--- $guess  guess=moread norb=20 $end
--- $mcscf  cistep=guga $end
--- $drt    group=c1 fors=.true. nmcc=1 ndoc=2 nalp=1 nval=2 $end
--- $gugdia nstate=2 $end
--- $gugdm2 wstate(1)=1,1 $end

3. Spin-orbit coupling between the two 2-pi ground state components
This reads the MCSCF's $VEC1 group.  The CI energies match the energy
from step 2, as they should.  With Zeff(C)=3.6, the splitting between
the two states is 31.122, close to the Table II result of 31.01.
The four-fold degenerate Russell-Saunder's term 2-pi splits to 2 levels, 
namely 2-pi-1/2 and 2-pi-3/2, each of which is two fold degenerate.  

 $contrl scftyp=none cityp=guga runtyp=transitn mult=2 $end
 $system mwords=2 $end
 $drt1   group=c1 fors=.true. nfzc=1 ndoc=2 nalp=1 nval=2 $end
 $gugdia nstate=2 $end
 $transt operat=hso1 numvec=1 numci=1 nocc=6 nfzc=1 iroots=2
         zeff(1)=3.60,1.0 $end

input for all three steps:

 $basis  gbasis=n31 ngauss=6 ndfunc=1 npfunc=1 $end
 $data
CH...duplicate Shiro's spin-orbit results
Cnv 4

Carbon  6.0
Hydrogen 1.0  0.0 0.0 1.1199
 $end

--- RHF ORBITALS --- GENERATED AT  7:46:00 CST  9-JUL-1999
CH...duplicate Shiro's spin-orbit results                                       
E(RHF)=      -37.8974709397, E(NUC)=    2.8351312576,    8 ITERS
 $VEC
 1  1 9.96454153E-01 2.15076969E-02 0.00000000E+00 0.00000000E+00 2.80227162E-03
 1  2-6.53577762E-03 0.00000000E+00 0.00000000E+00-2.12661140E-03-1.66501118E-03
 1  3-1.66501118E-03 3.13312958E-04 0.00000000E+00 0.00000000E+00 0.00000000E+00
 1  4-8.09706156E-04 2.52944494E-03 0.00000000E+00 0.00000000E+00 9.03830968E-04
 2  1-1.97244124E-01 4.84004130E-01 0.00000000E+00 0.00000000E+00 1.94457363E-01
 2  2 3.63878732E-01 0.00000000E+00 0.00000000E+00 5.95444274E-02-1.88225455E-02
 2  3-1.88225455E-02 2.23596240E-02 0.00000000E+00 0.00000000E+00 0.00000000E+00
 2  4 2.43293109E-01 6.38552842E-02 0.00000000E+00 0.00000000E+00-2.26836542E-02
 3  1 1.12732647E-01-2.83542479E-01 0.00000000E+00 0.00000000E+00 5.54136702E-01
 3  2-3.81475084E-01 0.00000000E+00 0.00000000E+00 2.20039385E-01-9.30259235E-03
 3  3-9.30259235E-03 5.08536953E-02 0.00000000E+00 0.00000000E+00 0.00000000E+00
 3  4 2.18352802E-01 1.70375383E-01 0.00000000E+00 0.00000000E+00-6.71271840E-03
 4  1 0.00000000E+00 0.00000000E+00 5.65995743E-01 0.00000000E+00 0.00000000E+00
 4  2 0.00000000E+00 5.58396505E-01 0.00000000E+00 0.00000000E+00 0.00000000E+00
 4  3 0.00000000E+00 0.00000000E+00 0.00000000E+00 2.32489788E-02 0.00000000E+00
 4  4 0.00000000E+00 0.00000000E+00 1.75842382E-02 0.00000000E+00 0.00000000E+00
 5  1 0.00000000E+00 0.00000000E+00 0.00000000E+00 5.65995743E-01 0.00000000E+00
 5  2 0.00000000E+00 0.00000000E+00 5.58396505E-01 0.00000000E+00 0.00000000E+00
 5  3 0.00000000E+00 0.00000000E+00 0.00000000E+00 0.00000000E+00 2.32489788E-02
 5  4 0.00000000E+00 0.00000000E+00 0.00000000E+00 1.75842382E-02 0.00000000E+00
 6  1 7.96174783E-02-1.90989149E-01 0.00000000E+00 0.00000000E+00-3.87951896E-01
 6  2-1.12071273E+00 0.00000000E+00 0.00000000E+00-8.80961178E-01-2.28613222E-03
 6  3-2.28613222E-03 8.06971617E-03 0.00000000E+00 0.00000000E+00 0.00000000E+00
 6  4 1.28753940E-01 1.89622471E+00 0.00000000E+00 0.00000000E+00 7.04667244E-03
 7  1-3.70455894E-02 2.09868000E-01 0.00000000E+00 0.00000000E+00-8.11952353E-01
 7  2 2.29523676E-01 0.00000000E+00 0.00000000E+00 1.51431629E+00 5.90828909E-02
 7  3 5.90828909E-02-4.63467868E-02 0.00000000E+00 0.00000000E+00 0.00000000E+00
 7  4-3.56783020E-01-5.13826290E-01 0.00000000E+00 0.00000000E+00 4.79207537E-02
 8  1 0.00000000E+00 0.00000000E+00-1.07557863E+00 0.00000000E+00 0.00000000E+00
 8  2 0.00000000E+00 1.08168342E+00 0.00000000E+00 0.00000000E+00 0.00000000E+00
 8  3 0.00000000E+00 0.00000000E+00 0.00000000E+00-1.36297936E-02 0.00000000E+00
 8  4 0.00000000E+00 0.00000000E+00-1.23157146E-02 0.00000000E+00 0.00000000E+00
 9  1 0.00000000E+00 0.00000000E+00 0.00000000E+00-1.07557863E+00 0.00000000E+00
 9  2 0.00000000E+00 0.00000000E+00 1.08168342E+00 0.00000000E+00 0.00000000E+00
 9  3 0.00000000E+00 0.00000000E+00 0.00000000E+00 0.00000000E+00-1.36297936E-02
 9  4 0.00000000E+00 0.00000000E+00 0.00000000E+00-1.23157146E-02 0.00000000E+00
10  1-1.34511785E-02-1.29434064E+00 0.00000000E+00 0.00000000E+00 1.34531985E-01
10  2 2.10456322E+00 0.00000000E+00 0.00000000E+00 5.64039511E-01-5.10173946E-02
10  3-5.10173946E-02-2.18870352E-01 0.00000000E+00 0.00000000E+00 0.00000000E+00
10  4-5.57211320E-01-4.95879594E-01 0.00000000E+00 0.00000000E+00 3.43976074E-03
11  1-2.10234449E-02 9.28985145E-01 0.00000000E+00 0.00000000E+00 5.68626907E-01
11  2-1.89882521E+00 0.00000000E+00 0.00000000E+00-1.02806313E+00 1.21276230E-01
11  3 1.21276230E-01-1.82828155E-01 0.00000000E+00 0.00000000E+00 0.00000000E+00
11  4-9.62958934E-01 2.04924816E+00 0.00000000E+00 0.00000000E+00-1.07182384E-01
12  1 0.00000000E+00 0.00000000E+00-5.70427414E-02 0.00000000E+00 0.00000000E+00
12  2 0.00000000E+00-7.35889511E-02 0.00000000E+00 0.00000000E+00 0.00000000E+00
12  3 0.00000000E+00 0.00000000E+00 0.00000000E+00 7.91407370E-01 0.00000000E+00
12  4 0.00000000E+00 0.00000000E+00 4.40428366E-01 0.00000000E+00 0.00000000E+00
13  1 0.00000000E+00 0.00000000E+00 0.00000000E+00-5.70427414E-02 0.00000000E+00
13  2 0.00000000E+00 0.00000000E+00-7.35889511E-02 0.00000000E+00 0.00000000E+00
13  3 0.00000000E+00 0.00000000E+00 0.00000000E+00 0.00000000E+00 7.91407370E-01
13  4 0.00000000E+00 0.00000000E+00 0.00000000E+00 4.40428366E-01 0.00000000E+00
14  1 0.00000000E+00 0.00000000E+00 0.00000000E+00 0.00000000E+00 0.00000000E+00
14  2 0.00000000E+00 0.00000000E+00 0.00000000E+00 0.00000000E+00 0.00000000E+00
14  3 0.00000000E+00 0.00000000E+00 1.00000000E+00 0.00000000E+00 0.00000000E+00
14  4 0.00000000E+00 0.00000000E+00 0.00000000E+00 0.00000000E+00 0.00000000E+00
15  1 0.00000000E+00 0.00000000E+00 0.00000000E+00 0.00000000E+00 0.00000000E+00
15  2 0.00000000E+00 0.00000000E+00 0.00000000E+00 0.00000000E+00 8.66025404E-01
15  3-8.66025404E-01 0.00000000E+00 0.00000000E+00 0.00000000E+00 0.00000000E+00
15  4 0.00000000E+00 0.00000000E+00 0.00000000E+00 0.00000000E+00 0.00000000E+00
16  1-2.86972256E-02-9.00426711E-02 0.00000000E+00 0.00000000E+00-1.73049566E-01
16  2 3.42876390E-01 0.00000000E+00 0.00000000E+00 3.63122941E-01-5.10704610E-01
16  3-5.10704610E-01 7.70823364E-01 0.00000000E+00 0.00000000E+00 0.00000000E+00
16  4-6.31635836E-01 8.94530926E-02 0.00000000E+00 0.00000000E+00-3.87722014E-01
17  1 0.00000000E+00 0.00000000E+00-4.29129940E-02 0.00000000E+00 0.00000000E+00
17  2 0.00000000E+00-1.67387103E-01 0.00000000E+00 0.00000000E+00 0.00000000E+00
17  3 0.00000000E+00 0.00000000E+00 0.00000000E+00-6.73080459E-01 0.00000000E+00
17  4 0.00000000E+00 0.00000000E+00 9.64682360E-01 0.00000000E+00 0.00000000E+00
18  1 0.00000000E+00 0.00000000E+00 0.00000000E+00-4.29129940E-02 0.00000000E+00
18  2 0.00000000E+00 0.00000000E+00-1.67387103E-01 0.00000000E+00 0.00000000E+00
18  3 0.00000000E+00 0.00000000E+00 0.00000000E+00 0.00000000E+00-6.73080459E-01
18  4 0.00000000E+00 0.00000000E+00 0.00000000E+00 9.64682360E-01 0.00000000E+00
19  1-1.38189478E-01 7.92329347E-01 0.00000000E+00 0.00000000E+00 6.33751603E-01
19  2 8.83356826E-01 0.00000000E+00 0.00000000E+00 4.99077333E-01-7.28299902E-01
19  3-7.28299902E-01 6.37963150E-01 0.00000000E+00 0.00000000E+00 0.00000000E+00
19  4-6.80232754E-01-7.42155143E-01 0.00000000E+00 0.00000000E+00 1.28869649E+00
20  1-4.18309205E-01 3.09104845E+00 0.00000000E+00 0.00000000E+00-2.99793992E-01
20  2 8.35036180E-01 0.00000000E+00 0.00000000E+00 5.69514388E-02-1.62397185E+00
20  3-1.62397185E+00-2.12060008E+00 0.00000000E+00 0.00000000E+00 0.00000000E+00
20  4 4.24788148E-01-2.14197767E-01 0.00000000E+00 0.00000000E+00-4.74903913E-01
 $END

--- OPTIMIZED MCSCF MO-S --- GENERATED AT  7:55:02 CST  9-JUL-1999
CH...duplicate Shiro's spin-orbit results                                       
E(MCSCF)=      -38.2995540863, 16 ITERS, E(NUC)=    2.8351312576
==== $VEC1
 1  1 9.98552346E-01 1.86681076E-02 0.00000000E+00 0.00000000E+00 2.37518049E-03
 1  2-1.28944619E-02 0.00000000E+00 0.00000000E+00-1.39522702E-03-2.06089324E-03
 1  3-2.06088144E-03-8.92167347E-04 0.00000000E+00 0.00000000E+00 0.00000000E+00
 1  4-2.44491851E-03 2.22302635E-03 0.00000000E+00 0.00000000E+00 9.68652323E-04
 2  1-1.85666452E-01 4.29860601E-01 0.00000000E+00 0.00000000E+00 2.09597622E-01
 2  2 4.12825301E-01 0.00000000E+00 0.00000000E+00 5.77294189E-02-1.41060164E-02
 2  3-1.41060288E-02 1.51663522E-02 0.00000000E+00 0.00000000E+00 0.00000000E+00
 2  4 1.99712753E-01 9.76086898E-02 0.00000000E+00 0.00000000E+00-1.90456646E-02
 3  1 1.05024868E-01-1.93337639E-01 0.00000000E+00 0.00000000E+00 5.14683464E-01
 3  2-4.92883869E-01 0.00000000E+00 0.00000000E+00 2.57684577E-01-9.72892328E-03
 3  3-9.72894181E-03 4.49114180E-02 0.00000000E+00 0.00000000E+00 0.00000000E+00
 3  4 1.69258778E-01 2.45254242E-01 0.00000000E+00 0.00000000E+00-4.75103858E-03
 4  1 0.00000000E+00 0.00000000E+00 6.45416757E-01 0.00000000E+00 0.00000000E+00
 4  2 0.00000000E+00 4.76804543E-01 1.47679169E-08 0.00000000E+00 0.00000000E+00
 4  3 0.00000000E+00 0.00000000E+00 0.00000000E+00 1.25637867E-02 0.00000000E+00
 4  4 0.00000000E+00 0.00000000E+00 1.36003876E-02 0.00000000E+00 0.00000000E+00
 5  1 0.00000000E+00 0.00000000E+00 0.00000000E+00 6.45416759E-01 0.00000000E+00
 5  2 0.00000000E+00-1.47700181E-08 4.76804541E-01 0.00000000E+00 0.00000000E+00
 5  3 0.00000000E+00 0.00000000E+00 0.00000000E+00 0.00000000E+00 1.25637862E-02
 5  4 0.00000000E+00 0.00000000E+00 0.00000000E+00 1.36003879E-02 0.00000000E+00
 6  1 8.05298366E-02-3.74597958E-01 0.00000000E+00 0.00000000E+00-7.23512447E-01
 6  2-3.85353463E-01 0.00000000E+00 0.00000000E+00-2.33664652E-01 2.12941144E-02
 6  3 2.12942926E-02 1.17663160E-02 0.00000000E+00 0.00000000E+00 0.00000000E+00
 6  4 7.84272935E-01 5.76975117E-01 0.00000000E+00 0.00000000E+00 3.01698236E-02
 7  1 4.98804635E-02-3.25126220E-01 0.00000000E+00 0.00000000E+00 6.32559971E-01
 7  2-6.93249983E-01 0.00000000E+00 0.00000000E+00-1.55811968E+00-1.85598269E-02
 7  3-1.85598706E-02-1.52361924E-01 0.00000000E+00 0.00000000E+00 0.00000000E+00
 7  4-4.53917767E-01 1.99006170E+00 0.00000000E+00 0.00000000E+00-9.09157632E-02
 8  1 0.00000000E+00 0.00000000E+00 1.70389119E-09-1.02996717E+00 0.00000000E+00
 8  2 0.00000000E+00 1.90061731E-09 1.12133092E+00 0.00000000E+00 0.00000000E+00
 8  3 0.00000000E+00 0.00000000E+00 0.00000000E+00 0.00000000E+00-1.01163043E-02
 8  4 0.00000000E+00 0.00000000E+00 5.67502656E-10-1.67029079E-02 0.00000000E+00
 9  1 0.00000000E+00 0.00000000E+00-1.02996717E+00-1.70306815E-09 0.00000000E+00
 9  2 0.00000000E+00 1.12133092E+00-1.90218759E-09 0.00000000E+00 0.00000000E+00
 9  3 0.00000000E+00 0.00000000E+00 0.00000000E+00-1.01163044E-02 0.00000000E+00
 9  4 0.00000000E+00 0.00000000E+00-1.67029079E-02-5.59675393E-10 0.00000000E+00
10  1-2.57008421E-02-2.69394098E-01 0.00000000E+00 0.00000000E+00-5.28248736E-01
10  2 4.84456484E-01 0.00000000E+00 0.00000000E+00 9.84654469E-01 3.67413893E-02
10  3 3.67413708E-02-1.74873073E-01 0.00000000E+00 0.00000000E+00 0.00000000E+00
10  4-8.44637799E-01 3.31328927E-01 0.00000000E+00 0.00000000E+00 7.68198215E-03
11  1-2.73813857E-03-1.49210451E+00 0.00000000E+00 0.00000000E+00-1.15410952E-02
11  2 2.90480843E+00 0.00000000E+00 0.00000000E+00 9.99217134E-01-1.39939817E-01
11  3-1.39939783E-01-7.08386105E-02 0.00000000E+00 0.00000000E+00 0.00000000E+00
11  4 2.63424782E-01-1.98341308E+00 0.00000000E+00 0.00000000E+00 6.78431080E-02
12  1 0.00000000E+00 0.00000000E+00-4.79423834E-10-5.17198685E-02 0.00000000E+00
12  2 0.00000000E+00 5.73958698E-10-6.93837032E-02 0.00000000E+00 0.00000000E+00
12  3 0.00000000E+00 0.00000000E+00 0.00000000E+00 7.19143763E-10 7.72060916E-01
12  4 0.00000000E+00 0.00000000E+00 1.50239405E-10 4.68024861E-01 0.00000000E+00
13  1 0.00000000E+00 0.00000000E+00-5.17198687E-02 4.80323654E-10 0.00000000E+00
13  2 0.00000000E+00-6.93837032E-02-5.75233092E-10 0.00000000E+00 0.00000000E+00
13  3 0.00000000E+00 0.00000000E+00 0.00000000E+00 7.72060916E-01-7.20012979E-10
13  4 0.00000000E+00 0.00000000E+00 4.68024861E-01-1.50286048E-10 0.00000000E+00
14  1-4.89953961E-09 5.88187458E-08 0.00000000E+00 0.00000000E+00 8.94403428E-08
14  2-5.16439624E-08 0.00000000E+00 0.00000000E+00-3.71757617E-08-8.66025384E-01
14  3 8.66025423E-01-3.90005211E-08 0.00000000E+00 0.00000000E+00 0.00000000E+00
14  4-7.98137547E-08 4.44601985E-08 0.00000000E+00 0.00000000E+00-1.58347349E-08
15  1 0.00000000E+00 0.00000000E+00 0.00000000E+00 0.00000000E+00 0.00000000E+00
15  2 0.00000000E+00 0.00000000E+00 0.00000000E+00 0.00000000E+00 0.00000000E+00
15  3 0.00000000E+00 0.00000000E+00 1.00000000E+00 0.00000000E+00 0.00000000E+00
15  4 0.00000000E+00 0.00000000E+00 0.00000000E+00 0.00000000E+00 0.00000000E+00
16  1-2.12326893E-02-1.41539468E-01 0.00000000E+00 0.00000000E+00-2.45794549E-01
16  2 3.58500028E-01 0.00000000E+00 0.00000000E+00 3.64007814E-01-5.10676711E-01
16  3-5.10676672E-01 7.83730977E-01 0.00000000E+00 0.00000000E+00 0.00000000E+00
16  4-5.19354850E-01 5.99131106E-02 0.00000000E+00 0.00000000E+00-3.87040662E-01
17  1 0.00000000E+00 0.00000000E+00-4.73904993E-02 1.56739581E-09 0.00000000E+00
17  2 0.00000000E+00-1.60436137E-01-1.76646954E-09 0.00000000E+00 0.00000000E+00
17  3 0.00000000E+00 0.00000000E+00 0.00000000E+00-6.95522084E-01 2.45735981E-10
17  4 0.00000000E+00 0.00000000E+00 9.51598054E-01 1.90001790E-10 0.00000000E+00
18  1 0.00000000E+00 0.00000000E+00-1.53831073E-09-4.73904995E-02 0.00000000E+00
18  2 0.00000000E+00 1.73490012E-09-1.60436137E-01 0.00000000E+00 0.00000000E+00
18  3 0.00000000E+00 0.00000000E+00 0.00000000E+00-2.45751816E-10-6.95522084E-01
18  4 0.00000000E+00 0.00000000E+00-1.89847696E-10 9.51598054E-01 0.00000000E+00
19  1-1.23073099E-01 6.99218217E-01 0.00000000E+00 0.00000000E+00 6.04651028E-01
19  2 8.27434005E-01 0.00000000E+00 0.00000000E+00 4.72470367E-01-6.89021342E-01
19  3-6.89021316E-01 7.01476487E-01 0.00000000E+00 0.00000000E+00 0.00000000E+00
19  4-6.54297134E-01-6.94038412E-01 0.00000000E+00 0.00000000E+00 1.30050361E+00
20  1-4.24173858E-01 3.13815520E+00 0.00000000E+00 0.00000000E+00-2.82710803E-01
20  2 8.29545955E-01 0.00000000E+00 0.00000000E+00 6.83136769E-02-1.64079398E+00
20  3-1.64079399E+00-2.10172247E+00 0.00000000E+00 0.00000000E+00 0.00000000E+00
20  4 4.00420659E-01-2.25556218E-01 0.00000000E+00 0.00000000E+00-4.42349557E-01
 $END   

--- OPTIMIZED MCSCF MO-S --- GENERATED AT Tue May 15 16:03:33 2001
CH...duplicate Shiro's spin-orbit results                                       
E(MCSCF)=      -38.2995540862, E(NUC)=        2.8351312576
 $VEC1
 1  1 9.98552317E-01 1.86681663E-02 0.00000000E+00 0.00000000E+00 2.37521488E-03
 1  2-1.28944376E-02 0.00000000E+00 0.00000000E+00-1.39527764E-03-2.06087605E-03
 1  3-2.06087605E-03-8.92147136E-04 0.00000000E+00 0.00000000E+00 0.00000000E+00
 1  4-2.44494637E-03 2.22312578E-03 0.00000000E+00 0.00000000E+00 9.68646201E-04
 2  1-1.85664616E-01 4.29849635E-01 0.00000000E+00 0.00000000E+00 2.09570881E-01
 2  2 4.12815260E-01 0.00000000E+00 0.00000000E+00 5.77196056E-02-1.41052945E-02
 2  3-1.41052945E-02 1.51664646E-02 0.00000000E+00 0.00000000E+00 0.00000000E+00
 2  4 1.99737153E-01 9.76268739E-02 0.00000000E+00 0.00000000E+00-1.90446893E-02
 3  1 1.05022152E-01-1.93327111E-01 0.00000000E+00 0.00000000E+00 5.14698170E-01
 3  2-4.92873652E-01 0.00000000E+00 0.00000000E+00 2.57690071E-01-9.72966695E-03
 3  3-9.72966695E-03 4.49113392E-02 0.00000000E+00 0.00000000E+00 0.00000000E+00
 3  4 1.69245941E-01 2.45242365E-01 0.00000000E+00 0.00000000E+00-4.75166956E-03
 4  1 0.00000000E+00 0.00000000E+00 6.45415987E-01 0.00000000E+00 0.00000000E+00
 4  2 0.00000000E+00 4.76805421E-01 0.00000000E+00 0.00000000E+00 0.00000000E+00
 4  3 0.00000000E+00 0.00000000E+00 0.00000000E+00 1.25632248E-02 0.00000000E+00
 4  4 0.00000000E+00 0.00000000E+00 1.36002521E-02 0.00000000E+00 0.00000000E+00
 5  1 0.00000000E+00 0.00000000E+00 0.00000000E+00 6.45415987E-01 0.00000000E+00
 5  2 0.00000000E+00 0.00000000E+00 4.76805421E-01 0.00000000E+00 0.00000000E+00
 5  3 0.00000000E+00 0.00000000E+00 0.00000000E+00 0.00000000E+00 1.25632248E-02
 5  4 0.00000000E+00 0.00000000E+00 0.00000000E+00 1.36002521E-02 0.00000000E+00
 6  1 8.05379450E-02-3.74615926E-01 0.00000000E+00 0.00000000E+00-7.23508067E-01
 6  2-3.85378418E-01 0.00000000E+00 0.00000000E+00-2.33666289E-01 2.12945593E-02
 6  3 2.12945593E-02 1.17642395E-02 0.00000000E+00 0.00000000E+00 0.00000000E+00
 6  4 7.84267810E-01 5.76983815E-01 0.00000000E+00 0.00000000E+00 3.01700359E-02
 7  1 4.98806317E-02-3.25128138E-01 0.00000000E+00 0.00000000E+00 6.32569238E-01
 7  2-6.93243497E-01 0.00000000E+00 0.00000000E+00-1.55812706E+00-1.85607543E-02
 7  3-1.85607543E-02-1.52360201E-01 0.00000000E+00 0.00000000E+00 0.00000000E+00
 7  4-4.53908556E-01 1.99004771E+00 0.00000000E+00 0.00000000E+00-9.09158698E-02
 8  1 0.00000000E+00 0.00000000E+00 0.00000000E+00-1.02996767E+00 0.00000000E+00
 8  2 0.00000000E+00 0.00000000E+00 1.12133055E+00 0.00000000E+00 0.00000000E+00
 8  3 0.00000000E+00 0.00000000E+00 0.00000000E+00 0.00000000E+00-1.01162761E-02
 8  4 0.00000000E+00 0.00000000E+00 0.00000000E+00-1.67028866E-02 0.00000000E+00
 9  1 0.00000000E+00 0.00000000E+00-1.02996767E+00 0.00000000E+00 0.00000000E+00
 9  2 0.00000000E+00 1.12133055E+00 0.00000000E+00 0.00000000E+00 0.00000000E+00
 9  3 0.00000000E+00 0.00000000E+00 0.00000000E+00-1.01162761E-02 0.00000000E+00
 9  4 0.00000000E+00 0.00000000E+00-1.67028866E-02 0.00000000E+00 0.00000000E+00
10  1-2.57002716E-02-2.69401912E-01 0.00000000E+00 0.00000000E+00-5.28239773E-01
10  2 4.84455794E-01 0.00000000E+00 0.00000000E+00 9.84637994E-01 3.67408505E-02
10  3 3.67408505E-02-1.74875279E-01 0.00000000E+00 0.00000000E+00 0.00000000E+00
10  4-8.44643554E-01 3.31347944E-01 0.00000000E+00 0.00000000E+00 7.68089950E-03
11  1-2.73826176E-03-1.49210246E+00 0.00000000E+00 0.00000000E+00-1.15422400E-02
11  2 2.90480990E+00 0.00000000E+00 0.00000000E+00 9.99220803E-01-1.39939710E-01
11  3-1.39939710E-01-7.08376179E-02 0.00000000E+00 0.00000000E+00 0.00000000E+00
11  4 2.63429085E-01-1.98342208E+00 0.00000000E+00 0.00000000E+00 6.78434757E-02
12  1 0.00000000E+00 0.00000000E+00 0.00000000E+00-5.17194346E-02 0.00000000E+00
12  2 0.00000000E+00 0.00000000E+00-6.93834739E-02 0.00000000E+00 0.00000000E+00
12  3 0.00000000E+00 0.00000000E+00 0.00000000E+00 0.00000000E+00 7.72060991E-01
12  4 0.00000000E+00 0.00000000E+00 0.00000000E+00 4.68024778E-01 0.00000000E+00
13  1 0.00000000E+00 0.00000000E+00-5.17194346E-02 0.00000000E+00 0.00000000E+00
13  2 0.00000000E+00-6.93834739E-02 0.00000000E+00 0.00000000E+00 0.00000000E+00
13  3 0.00000000E+00 0.00000000E+00 0.00000000E+00 7.72060991E-01 0.00000000E+00
13  4 0.00000000E+00 0.00000000E+00 4.68024778E-01 0.00000000E+00 0.00000000E+00
14  1 0.00000000E+00 0.00000000E+00 0.00000000E+00 0.00000000E+00 0.00000000E+00
14  2 0.00000000E+00 0.00000000E+00 0.00000000E+00 0.00000000E+00 0.00000000E+00
14  3 0.00000000E+00 0.00000000E+00 1.00000000E+00 0.00000000E+00 0.00000000E+00
14  4 0.00000000E+00 0.00000000E+00 0.00000000E+00 0.00000000E+00 0.00000000E+00
15  1 0.00000000E+00 0.00000000E+00 0.00000000E+00 0.00000000E+00 0.00000000E+00
15  2 0.00000000E+00 0.00000000E+00 0.00000000E+00 0.00000000E+00 8.66025404E-01
15  3-8.66025404E-01 0.00000000E+00 0.00000000E+00 0.00000000E+00 0.00000000E+00
15  4 0.00000000E+00 0.00000000E+00 0.00000000E+00 0.00000000E+00 0.00000000E+00
16  1-2.12326171E-02-1.41540104E-01 0.00000000E+00 0.00000000E+00-2.45795179E-01
16  2 3.58500159E-01 0.00000000E+00 0.00000000E+00 3.64007715E-01-5.10676769E-01
16  3-5.10676769E-01 7.83731185E-01 0.00000000E+00 0.00000000E+00 0.00000000E+00
16  4-5.19354288E-01 5.99134867E-02 0.00000000E+00 0.00000000E+00-3.87040327E-01
17  1 0.00000000E+00 0.00000000E+00 0.00000000E+00-4.73905979E-02 0.00000000E+00
17  2 0.00000000E+00 0.00000000E+00-1.60436224E-01 0.00000000E+00 0.00000000E+00
17  3 0.00000000E+00 0.00000000E+00 0.00000000E+00 0.00000000E+00-6.95522012E-01
17  4 0.00000000E+00 0.00000000E+00 0.00000000E+00 9.51598097E-01 0.00000000E+00
18  1 0.00000000E+00 0.00000000E+00-4.73905979E-02 0.00000000E+00 0.00000000E+00
18  2 0.00000000E+00-1.60436224E-01 0.00000000E+00 0.00000000E+00 0.00000000E+00
18  3 0.00000000E+00 0.00000000E+00 0.00000000E+00-6.95522012E-01 0.00000000E+00
18  4 0.00000000E+00 0.00000000E+00 9.51598097E-01 0.00000000E+00 0.00000000E+00
19  1-1.23073080E-01 6.99218088E-01 0.00000000E+00 0.00000000E+00 6.04650967E-01
19  2 8.27433898E-01 0.00000000E+00 0.00000000E+00 4.72470072E-01-6.89021242E-01
19  3-6.89021242E-01 7.01476239E-01 0.00000000E+00 0.00000000E+00 0.00000000E+00
19  4-6.54297019E-01-6.94038002E-01 0.00000000E+00 0.00000000E+00 1.30050369E+00
20  1-4.24173886E-01 3.13815531E+00 0.00000000E+00 0.00000000E+00-2.82710613E-01
20  2 8.29546170E-01 0.00000000E+00 0.00000000E+00 6.83137274E-02-1.64079400E+00
20  3-1.64079400E+00-2.10172246E+00 0.00000000E+00 0.00000000E+00 0.00000000E+00
20  4 4.00420341E-01-2.25556421E-01 0.00000000E+00 0.00000000E+00-4.42349602E-01
 $END   

! TRAVIS-CI SMALL

! TRAVIS-CI SKIP
