!  Methylene...SOC between 1-A-1, 1-B-1, and 3-B-1 states.
!  Geometry is optimized for the 3-B-1 ground state.
!
!  HSO1 R.LATIVE energies are -13703.868, -13703.830(2), 0.038, 9389.989
!  HSO2 RELATIVE energies are -13703.839, -13703.830(2), 0.009, 9389.988
!
!  This run takes 0 seconds on a 2.66 GHz Cloverton (17 Apr 2015)
!  results unchanged since at least 1999
!
!  ----------------------------------------------------------------
!  some intermediate results follow:
!     3-B-1...E= -38.474570463, 51 CSFs
!     1-A-1...E= -38.412132282, 56 CSFs out of 175 singlet CSFs
!     1-B-1...E= -38.369349075, 39 CSFs out of 175 singlet CSFs
!  SOC between 1-A-1 and 1-B-1 is identically zero.
!  SOC between 1-A-1 and 3-B-1, namely <S=0,MS=0/Hso/ S=1,MS=1 or -1>,
!     is purely real, 1e= 16.1832, 2e=-8.3948, total=7.7884
!  SOC between 1-B-1 and 3-B-1 is computed to be zero.
!  Hence, 1-B-1 does not contribute to the 1-A-1 & 3-B-1 splitting.
!
 $CONTRL SCFTYP=NONE CITYP=GUGA RUNTYP=TRANSITN UNITS=BOHR  $end
 $system mwords=3 $END
 $basis  gbasis=sto ngauss=3 $end
!             input for 1-A-1 & 1-B-1 coupled with 3-B-1
 $transt operat=hso2ff NFZC=1 NUMVEC=1 NUMCI=2 IROOTS(1)=2,1 
         nosym=0 iprhso=0 skipdm=.false. $END
!  Singlet state DRT uses C1 symmetry to produce both A1
!  and B1 CSFs (as well as the higher A2 and B2 states).
 $DRT1   GROUP=C1           FORS=.TRUE. NFZC=1 NDOC=3 NVAL=3 $END
 $DRT2   GROUP=C2v STSYM=B1 FORS=.TRUE. NFZC=1 NDOC=2 NALP=2 NVAL=2 $END
 $gugdia maxham=100 $end
 $DATA
Methylene: SPIN-ORBIT COUPLING CONSTANT...MCSCF/STO-3G
Cnv  2

CARBON      6.0   0.0000000000        0.0000000000        0.2486445376
HYDROGEN    1.0   0.0000000000        1.8530904303        1.2133971622
 $END

--- OPTIMIZED MCSCF MO-S --- GENERATED AT 12:59:36 23 JAN 90 ( 23)
METHYLENE: FULL VALENCE MCSCF ON 3-B-1...STO-3G BASIS
E(MCSCF)=      -38.4745701914, E(NUC)=    6.0136876075,    2 ITERS
 $VEC1
 1  1 9.95207420E-01 2.33269280E-02 0.00000000E+00 0.00000000E+00 2.45580785E-03
 1  2-9.51955352E-03-9.51955352E-03
 2  1-1.74788323E-01 4.89767464E-01 0.00000000E+00 0.00000000E+00 1.71044934E-01
 2  2 3.86900329E-01 3.86900329E-01
 3  1 0.00000000E+00 0.00000000E+00 0.00000000E+00 6.09005614E-01 0.00000000E+00
 3  2-3.79030937E-01 3.79030937E-01
 4  1 1.17225495E-01-4.72974764E-01 0.00000000E+00 0.00000000E+00 8.88177185E-01
 4  2 6.42823202E-02 6.42823202E-02
 5  1 0.00000000E+00 0.00000000E+00 1.00000000E+00 0.00000000E+00 0.00000000E+00
 5  2 0.00000000E+00 0.00000000E+00
 6  1 0.00000000E+00 0.00000000E+00 0.00000000E+00 1.11976538E+00 0.00000000E+00
 6  2 8.87077009E-01-8.87077009E-01
 7  1-2.12886655E-01 1.21638045E+00 0.00000000E+00 0.00000000E+00 5.85809937E-01
 7  2-8.55835727E-01-8.55835727E-01
 $END

! TRAVIS-CI SMALL

