!   CuH diatomic - test of normalised elimination of small component
!   Geometry optimization with 94 AOs and 82 MOs
!
!   NSERCH:   0  E=    -1653.9258731937, 14 iters, R.M.S.=  0.0052569
!   NSERCH:   1  E=    -1653.9260719492,  9 iters, R.M.S.=  0.0033243
!   NSERCH:   2  E=    -1653.9262126275, 11 iters, R.M.S.=  0.0002504
!   NSERCH:   3  E=    -1653.9262134836,  9 iters, R.M.S.=  0.0000133
!   NSERCH:   4  E=    -1653.9262134860,  4 iters, R.M.S.=  0.0000000
!   The optimized bond distance is 1.5406797
!
!   This job takes 61 seconds on 2.66 GHz Cloverton (16 Apr 2015)
!   results have barely changed since 2005.
!
 $contrl scftyp=rhf runtyp=optimize relwfn=nesc ispher=+1 $end
 $statpt opttol=1e-6 $end
 $system mwords=9 $end
 $guess  guess=huckel $end
 $data
CuH molecule, basis sets by K. Dyall basis "ao basis" spherical
Cnv 2

Cu 29 0.0  0.0  0.0
 s 17
  1 1.0889373E+06  3.22163847627E-04
  2 1.6313906E+05  1.10574137370E-03
  3 3.7127573E+04  3.90425717526E-03
  4 1.0514037E+04  1.34604018463E-02
  5 3.4285117E+03  4.28928244797E-02
  6 1.2364913E+03  1.18542431550E-01
  7 4.8095139E+02  2.62981336623E-01
  8 1.9813309E+02  3.93265281260E-01
  9 8.4326487E+01  2.81569266818E-01
 10 3.0834650E+01  4.47908467261E-02
 11 1.4693730E+01 -8.96727077048E-03
 12 6.8852498E+00  3.63342272456E-03
 13 2.4426588E+00 -1.27292170606E-03
 14 9.4322568E-01  4.94290083886E-04
 15 2.0315994E-01 -2.65777985903E-04
 16 1.0096767E-01  2.07143556642E-04
 17 4.1059992E-02 -5.72674448147E-05
 s 17
  1 1.0889373E+06 -1.01400166114E-04
  2 1.6313906E+05 -3.49061977982E-04
  3 3.7127573E+04 -1.22251030317E-03
  4 1.0514037E+04 -4.28963504366E-03
  5 3.4285117E+03 -1.38509814227E-02
  6 1.2364913E+03 -4.05841294265E-02
  7 4.8095139E+02 -9.93389091149E-02
  8 1.9813309E+02 -1.93782313103E-01
  9 8.4326487E+01 -1.88395294379E-01
 10 3.0834650E+01  2.39217399397E-01
 11 1.4693730E+01  6.26656646122E-01
 12 6.8852498E+00  2.91034713965E-01
 13 2.4426588E+00  1.69937749210E-02
 14 9.4322568E-01 -7.10708496194E-04
 15 2.0315994E-01  6.70049290543E-04
 16 1.0096767E-01 -4.89927791365E-04
 17 4.1059992E-02  1.30393541515E-04
 s 17
  1 1.0889373E+06  3.78683343665E-05
  2 1.6313906E+05  1.32247354496E-04
  3 3.7127573E+04  4.56459805642E-04
  4 1.0514037E+04  1.62391290025E-03
  5 3.4285117E+03  5.19217282091E-03
  6 1.2364913E+03  1.54818003946E-02
  7 4.8095139E+02  3.78994255559E-02
  8 1.9813309E+02  7.78883313770E-02
  9 8.4326487E+01  7.72561373967E-02
 10 3.0834650E+01 -1.14845203247E-01
 11 1.4693730E+01 -4.83056567503E-01
 12 6.8852498E+00 -1.95966961296E-01
 13 2.4426588E+00  7.63810051712E-01
 14 9.4322568E-01  4.93947345036E-01
 15 2.0315994E-01  1.31614814047E-02
 16 1.0096767E-01 -1.77832297308E-03
 17 4.1059992E-02 -1.52026266668E-05
 s 17
  1 1.0889373E+06 -6.69244811983E-06
  2 1.6313906E+05 -2.35240856493E-05
  3 3.7127573E+04 -8.05945081899E-05
  4 1.0514037E+04 -2.88831265855E-04
  5 3.4285117E+03 -9.17089448919E-04
  6 1.2364913E+03 -2.75750569278E-03
  7 4.8095139E+02 -6.70238202884E-03
  8 1.9813309E+02 -1.39981992591E-02
  9 8.4326487E+01 -1.36451920049E-02
 10 3.0834650E+01  2.02838540346E-02
 11 1.4693730E+01  9.54639977893E-02
 12 6.8852498E+00  3.39409053018E-02
 13 2.4426588E+00 -1.81409915041E-01
 14 9.4322568E-01 -2.25769731234E-01
 15 2.0315994E-01  7.22580280562E-02
 16 1.0096767E-01  5.12290431423E-01
 17 4.1059992E-02  5.28485905071E-01
  s 1 ; 1 9.4322568E-01  1.00000000000E+00
  s 1 ; 1 1.0096767E-01  1.00000000000E+00
  s 1 ; 1 4.1059992E-02  1.00000000000E+00
  p 13
  1 6.2722630E+03  6.29545124643E-04
  2 1.4863757E+03  3.91579460785E-03
  3 4.8175797E+02  1.95355065583E-02
  4 1.8297636E+02  7.27839246807E-02
  5 7.6690301E+01  1.98957611688E-01
  6 3.4115476E+01  3.65634274176E-01
  7 1.5762171E+01  3.74971320806E-01
  8 7.3458324E+00  1.44201208477E-01
  9 3.2961588E+00  1.14733675244E-02
 10 1.4111134E+00  1.50704223754E-03
 11 5.5582444E-01 -5.30177928721E-05
 12 2.2230000E-01  1.58101019267E-04
 13 8.8900000E-02 -4.00826823248E-05
  p 13
  1 6.2722630E+03 -2.33118032580E-04
  2 1.4863757E+03 -1.45343601208E-03
  3 4.8175797E+02 -7.34004703920E-03
  4 1.8297636E+02 -2.79095301952E-02
  5 7.6690301E+01 -7.96531737701E-02
  6 3.4115476E+01 -1.54286076648E-01
  7 1.5762171E+01 -1.61108103898E-01
  8 7.3458324E+00  9.72010672054E-02
  9 3.2961588E+00  4.66131364936E-01
 10 1.4111134E+00  4.64123203936E-01
 11 5.5582444E-01  1.34252122965E-01
 12 2.2230000E-01 -9.68895676417E-04
 13 8.8900000E-02  2.62744706209E-03
  p 1 ; 1  1.4111134E+00  1.00000000000E+00
  p 1 ; 1  5.5582444E-01  1.00000000000E+00
  p 1 ; 1  2.2230000E-01  1.00000000000E+00
  p 1 ; 1  8.8900000E-02  1.00000000000E+00
  d 9
  1 1.6931749E+02  2.87732529224E-03
  2 5.0501063E+01  2.14995802239E-02
  3 1.8795651E+01  8.55183683167E-02
  4 7.7356744E+00  2.13792786090E-01
  5 3.2810794E+00  3.32124825155E-01
  6 1.3492676E+00  3.51883158575E-01
  7 5.1801398E-01  2.72517790320E-01
  8 1.7694541E-01  1.15986474228E-01
  9 7.1000000E-02  7.04996070730E-03
  d 1 ; 1 1.3492676E+00  1.00000000000E+00
  d 1 ; 1 5.1801398E-01  1.00000000000E+00
  d 1 ; 1 1.7694541E-01  1.00000000000E+00
  d 1 ; 1 7.1000000E-02  1.00000000000E+00
  f 1 ; 1 2.8785728E+00  1.00000000000E+00
  f 1 ; 1 1.2326390E+00  1.00000000000E+00

H  1.0 0.0  0.0  1.5
  s 5
  1 3.3870000E+01  6.06899458871E-03
  2 5.0950000E+00  4.53159257555E-02
  3 1.1590000E+00  2.02834806978E-01
  4 3.2580000E-01  5.03904361917E-01
  5 1.0270000E-01  3.83404115502E-01
  s 1 ; 1 3.2580000E-01  1.00000000000E+00
  s 1 ; 1 1.0270000E-01  1.00000000000E+00
  s 1 ; 1 2.5260000E-02  1.00000000000E+00
  p 1 ; 1 1.4070000E+00  1.00000000000E+00
  p 1 ; 1 3.8800000E-01  1.00000000000E+00
  p 1 ; 1 1.0200000E-01  1.00000000000E+00
  d 1 ; 1 1.0570000E+00  1.00000000000E+00

 $end
 $datal
basis "large component" spherical
Cnv 2

Cu 29 0.0  0.0  0.0
s 17
 1  1.0889373E+06  1.74053442921E-04
 2  1.6313906E+05  8.12926997893E-04
 3  3.7127573E+04  3.42798581265E-03
 4  1.0514037E+04  1.26475191462E-02
 5  3.4285117E+03  4.13737707979E-02
 6  1.2364913E+03  1.16086476780E-01
 7  4.8095139E+02  2.60333196177E-01
 8  1.9813309E+02  3.92125327482E-01
 9  8.4326487E+01  2.82196401815E-01
10  3.0834650E+01  4.51084230951E-02
11  1.4693730E+01 -8.87959839018E-03
12  6.8852498E+00  3.61658185686E-03
13  2.4426588E+00 -1.26545539482E-03
14  9.4322568E-01  4.92022772157E-04
15  2.0315994E-01 -2.64063167560E-04
16  1.0096767E-01  2.06264507433E-04
17  4.1059992E-02 -5.69878076811E-05
s 17
 1  1.0889373E+06 -5.48011675269E-05
 2  1.6313906E+05 -2.57319580907E-04
 3  3.7127573E+04 -1.08590689157E-03
 4  1.0514037E+04 -4.05368720871E-03
 5  3.4285117E+03 -1.34245542461E-02
 6  1.2364913E+03 -3.97769190263E-02
 7  4.8095139E+02 -9.83248669515E-02
 8  1.9813309E+02 -1.92744269346E-01
 9  8.4326487E+01 -1.88461757532E-01
10  3.0834650E+01  2.38560539215E-01
11  1.4693730E+01  6.26379272167E-01
12  6.8852498E+00  2.91196449181E-01
13  2.4426588E+00  1.70095175253E-02
14  9.4322568E-01 -7.00918134360E-04
15  2.0315994E-01  6.65977270463E-04
16  1.0096767E-01 -4.87028000347E-04
17  4.1059992E-02  1.29854291154E-04
s 17
 1  1.0889373E+06  2.05662951447E-05
 2  1.6313906E+05  9.68105000727E-05
 3  3.7127573E+04  4.07238948566E-04
 4  1.0514037E+04  1.52989643346E-03
 5  3.4285117E+03  5.04004118615E-03
 6  1.2364913E+03  1.51693205342E-02
 7  4.8095139E+02  3.75098355193E-02
 8  1.9813309E+02  7.74187940834E-02
 9  8.4326487E+01  7.72787805427E-02
10  3.0834650E+01 -1.14597126620E-01
11  1.4693730E+01 -4.82689250486E-01
12  6.8852498E+00 -1.96138177365E-01
13  2.4426588E+00  7.63720154946E-01
14  9.4322568E-01  4.93964986817E-01
15  2.0315994E-01  1.31645399694E-02
16  1.0096767E-01 -1.77635507771E-03
17  4.1059992E-02 -1.60784012051E-05
s 17
 1  1.0889373E+06 -3.64344580464E-06
 2  1.6313906E+05 -1.71734146009E-05
 3  3.7127573E+04 -7.20802709268E-05
 4  1.0514037E+04 -2.71737381437E-04
 5  3.4285117E+03 -8.91270160527E-04
 6  1.2364913E+03 -2.70099008446E-03
 7  4.8095139E+02 -6.63454749396E-03
 8  1.9813309E+02 -1.39109887232E-02
 9  8.4326487E+01 -1.36513212288E-02
10  3.0834650E+01  2.02418063010E-02
11  1.4693730E+01  9.53866471744E-02
12  6.8852498E+00  3.39764529845E-02
13  2.4426588E+00 -1.81388711976E-01
14  9.4322568E-01 -2.25770161826E-01
15  2.0315994E-01  7.22552167698E-02
16  1.0096767E-01  5.12288461878E-01
17  4.1059992E-02  5.28486513892E-01
  s 1 ; 1 9.4322568E-01  9.99981166431E-01
  s 1 ; 1 1.0096767E-01  9.99997983773E-01
  s 1 ; 1 4.1059992E-02  9.99999180066E-01
  p 13
 1  6.2722630E+03  6.08793579367E-04
 2  1.4863757E+03  3.85833344045E-03
 3  4.8175797E+02  1.93505654818E-02
 4  1.8297636E+02  7.24080877800E-02
 5  7.6690301E+01  1.98445922790E-01
 6  3.4115476E+01  3.65250390137E-01
 7  1.5762171E+01  3.74908601722E-01
 8  7.3458324E+00  1.44265113733E-01
 9  3.2961588E+00  1.14836323127E-02
10  1.4111134E+00  1.50907382793E-03
11  5.5582444E-01 -5.34163187897E-05
12  2.2230000E-01  1.58384624325E-04
13  8.8900000E-02 -4.01544354777E-05
 p 13
 1  6.2722630E+03 -2.25662063174E-04
 2  1.4863757E+03 -1.43370200022E-03
 3  4.8175797E+02 -7.27203390450E-03
 4  1.8297636E+02 -2.77682282815E-02
 5  7.6690301E+01 -7.94419567815E-02
 6  3.4115476E+01 -1.54106072286E-01
 7  1.5762171E+01 -1.61055725960E-01
 8  7.3458324E+00  9.71068032634E-02
 9  3.2961588E+00  4.66071089057E-01
10  1.4111134E+00  4.64120519255E-01
11  5.5582444E-01  1.34258274875E-01
12  2.2230000E-01 -9.68497854575E-04
13  8.8900000E-02  2.62752389310E-03
 p 1 ; 1 1.4111134E+00  9.99953047307E-01
 p 1 ; 1 5.5582444E-01  9.99981502877E-01
 p 1 ; 1 2.2230000E-01  9.99992601690E-01
 p 1 ; 1 8.8900000E-02  9.99997041269E-01
 d 9
1  1.6931749E+02  2.86298564144E-03
2  5.0501063E+01  2.14565185401E-02
3  1.8795651E+01  8.54473042852E-02
4  7.7356744E+00  2.13721267028E-01
5  3.2810794E+00  3.32088446568E-01
6  1.3492676E+00  3.51872007530E-01
7  5.1801398E-01  2.72515917975E-01
8  1.7694541E-01  1.15986707346E-01
9  7.1000000E-02  7.05006990656E-03
 d 1 ; 1 1.3492676E+00  9.99937152685E-01
 d 1 ; 1 5.1801398E-01  9.99975866373E-01
 d 1 ; 1 1.7694541E-01  9.99991755613E-01
 d 1 ; 1 7.1000000E-02  9.99996691819E-01
 f 1 ; 1 2.8785728E+00  9.99827714473E-01
 f 1 ; 1 1.2326390E+00  9.99926185309E-01

H  1.0 0.0  0.0  1.5
  s 5
1  3.3870000E+01  6.07012738588E-03
2  5.0950000E+00  4.53130251650E-02
3  1.1590000E+00  2.02830146038E-01
4  3.2580000E-01  5.03901158751E-01
5  1.0270000E-01  3.83405371683E-01
  s 1 ; 1 3.2580000E-01  9.99993494248E-01
  s 1 ; 1 1.0270000E-01  9.99997949180E-01
  s 1 ; 1 2.5260000E-02  9.99999495578E-01
  p 1 ; 1 1.4070000E+00  9.99953184141E-01
  p 1 ; 1 3.8800000E-01  9.99987087462E-01
  p 1 ; 1 1.0200000E-01  9.99996605289E-01
  d 1 ; 1 1.0570000E+00  9.99950762484E-01

 $end
 $datas
basis "small component" spherical
Cnv 2

Cu 29 0.0  0.0  0.0
 s 17
 1  1.0889373E+06  7.05606340948E-05
 2  1.6313906E+05  5.41409056944E-04
 3  3.7127573E+04  2.78766362285E-03
 4  1.0514037E+04  1.14305379773E-02
 5  3.4285117E+03  3.94205887667E-02
 6  1.2364913E+03  1.13823000845E-01
 7  4.8095139E+02  2.59085225712E-01
 8  1.9813309E+02  3.93323874619E-01
 9  8.4326487E+01  2.84093158057E-01
10  3.0834650E+01  4.54813132334E-02
11  1.4693730E+01 -8.96609558664E-03
12  6.8852498E+00  3.65279278378E-03
13  2.4426588E+00 -1.27938331080E-03
14  9.4322568E-01  4.98440090853E-04
15  2.0315994E-01 -2.68554958128E-04
16  1.0096767E-01  2.10479302711E-04
17  4.1059992E-02 -5.86123575305E-05
 s 17
 1  1.0889373E+06 -2.20976579775E-05
 2  1.6313906E+05 -1.70083470883E-04
 3  3.7127573E+04 -8.74509269802E-04
 4  1.0514037E+04 -3.62760609133E-03
 5  3.4285117E+03 -1.26617434234E-02
 6  1.2364913E+03 -3.86349337344E-02
 7  4.8095139E+02 -9.70009791677E-02
 8  1.9813309E+02 -1.91797742706E-01
 9  8.4326487E+01 -1.88629433492E-01
10  3.0834650E+01  2.37883859034E-01
11  1.4693730E+01  6.26794769093E-01
12  6.8852498E+00  2.91399737262E-01
13  2.4426588E+00  1.70721600969E-02
14  9.4322568E-01 -7.33123906001E-04
15  2.0315994E-01  6.99715826727E-04
16  1.0096767E-01 -5.24231752411E-04
17  4.1059992E-02  1.47221249933E-04
 s 17
 1  1.0889373E+06  8.28361209247E-06
 2  1.6313906E+05  6.39591262885E-05
 3  3.7127573E+04  3.27457771827E-04
 4  1.0514037E+04  1.36780111636E-03
 5  3.4285117E+03  4.74707703009E-03
 6  1.2364913E+03  1.47188997741E-02
 7  4.8095139E+02  3.69657766262E-02
 8  1.9813309E+02  7.69742430097E-02
 9  8.4326487E+01  7.73322148905E-02
10  3.0834650E+01 -1.14082844884E-01
11  1.4693730E+01 -4.82528531263E-01
12  6.8852498E+00 -1.96240170225E-01
13  2.4426588E+00  7.63689593882E-01
14  9.4322568E-01  4.94045396698E-01
15  2.0315994E-01  1.31386507658E-02
16  1.0096767E-01 -1.74632177488E-03
17  4.1059992E-02 -3.02640182811E-05
 s 17
 1  1.0889373E+06 -1.46689165480E-06
 2  1.6313906E+05 -1.13479345037E-05
 3  3.7127573E+04 -5.79366742574E-05
 4  1.0514037E+04 -2.42953056194E-04
 5  3.4285117E+03 -8.39236638544E-04
 6  1.2364913E+03 -2.62063543930E-03
 7  4.8095139E+02 -6.53722065702E-03
 8  1.9813309E+02 -1.38299894216E-02
 9  8.4326487E+01 -1.36608834796E-02
10  3.0834650E+01  2.01442323913E-02
11  1.4693730E+01  9.53455985018E-02
12  6.8852498E+00  3.40027941806E-02
13  2.4426588E+00 -1.81363393400E-01
14  9.4322568E-01 -2.25777230626E-01
15  2.0315994E-01  7.22567517335E-02
16  1.0096767E-01  5.12284108839E-01
17  4.1059992E-02  5.28490453356E-01
 s 1 ; 1 9.4322568E-01  9.99943498940E-01
 s 1 ; 1 1.0096767E-01  9.99993951314E-01
 s 1 ; 1 4.1059992E-02  9.99997540197E-01
 p 13
 1  6.2722630E+03  4.25402022062E-04
 2  1.4863757E+03  3.53093437245E-03
 3  4.8175797E+02  1.86438350372E-02
 4  1.8297636E+02  7.14351304232E-02
 5  7.6690301E+01  1.97274021205E-01
 6  3.4115476E+01  3.64495664831E-01
 7  1.5762171E+01  3.74502771936E-01
 8  7.3458324E+00  1.43995709934E-01
 9  3.2961588E+00  1.10732700550E-02
10  1.4111134E+00  1.21589274574E-03
11  5.5582444E-01 -3.77439132714E-04
12  2.2230000E-01  2.41639828342E-05
13  8.8900000E-02 -3.48355220705E-04
 p 13
 1  6.2722630E+03 -1.57695113673E-04
 2  1.4863757E+03 -1.31100025413E-03
 3  4.8175797E+02 -7.00202905655E-03
 4  1.8297636E+02 -2.73763221870E-02
 5  7.6690301E+01 -7.89351689913E-02
 6  3.4115476E+01 -1.53730127070E-01
 7  1.5762171E+01 -1.60887196490E-01
 8  7.3458324E+00  9.70700322155E-02
 9  3.2961588E+00  4.66102920519E-01
10  1.4111134E+00  4.64162499005E-01
11  5.5582444E-01  1.34303153950E-01
12  2.2230000E-01 -9.61396593218E-04
13  8.8900000E-02  2.65765196221E-03
 p 1 ; 1 1.4111134E+00  9.99859139717E-01
 p 1 ; 1 5.5582444E-01  9.99944508288E-01
 p 1 ; 1 2.2230000E-01  9.99977805015E-01
 p 1 ; 1 8.8900000E-02  9.99991123799E-01
 d 9
1  1.6931749E+02  2.80645603275E-03
2  5.0501063E+01  2.13417840528E-02
3  1.8795651E+01  8.52738141522E-02
4  7.7356744E+00  2.13572034688E-01
5  3.2810794E+00  3.31991118707E-01
6  1.3492676E+00  3.51828487868E-01
7  5.1801398E-01  2.72491710745E-01
8  1.7694541E-01  1.15978677139E-01
9  7.1000000E-02  7.04389223094E-03
 d 1 ; 1 1.3492676E+00  9.99811454105E-01
 d 1 ; 1 5.1801398E-01  9.99927598535E-01
 d 1 ; 1 1.7694541E-01  9.99975266770E-01
 d 1 ; 1 7.1000000E-02  9.99990075447E-01
 f 1 ; 1 2.8785728E+00  9.99483113733E-01
 f 1 ; 1 1.2326390E+00  9.99778550478E-01

H  1.0 0.0  0.0  1.5
 s 5
1  3.3870000E+01  6.06858578179E-03
2  5.0950000E+00  4.53098963944E-02
3  1.1590000E+00  2.02826206239E-01
4  3.2580000E-01  5.03901665751E-01
5  1.0270000E-01  3.83408591859E-01
 s 1 ; 1 3.2580000E-01  9.99980482701E-01
 s 1 ; 1 1.0270000E-01  9.99993847536E-01
 s 1 ; 1 2.5260000E-02  9.99998486733E-01
 p 1 ; 1 1.4070000E+00  9.99859550230E-01
 p 1 ; 1 3.8800000E-01  9.99961262219E-01
 p 1 ; 1 1.0200000E-01  9.99989815856E-01
 d 1 ; 1 1.0570000E+00  9.99852285026E-01

 $end

! TRAVIS-CI SMALL

