!   water...test of NESC 1e- correction to full spin-orbit coupling operator
!
!   RELATIVE E=  -.057, 150080.803, 150080.809 (2), 201286.134,
!   RELATIVE E=  271061.973, 322127.297, 322136.847 (2), 322539.819,
!   RELATIVE E = 335526.766 (3), 358625.823 (2), 358625.831
!
!   This run takes 1 second on 2.66 GHz Cloverton (17 APr 2015)
!   results have been unchanging since at least 2000.
!
 $contrl scftyp=none cityp=guga runtyp=transitn relwfn=nesc
         ispher=+1 units=bohr $end
 $relwfn nesoc=1 $end
 $system mwords=1 $end
 $guess  guess=moread norb=24 $end
 $mcscf  cistep=guga fullnr=.t. $end
 $drt1   group=c2v fors=.t. nfzc=1 ndoc=4 nval=2 istsym=1 $end
 $drt2   group=c2v fors=.t. nfzc=1 ndoc=3 nval=1 nalp=2 istsym=3 $end
 $transt OPERAT=hso2 NOCC=7 NUMVEC=1 NUMCI=2 iroots(1)=4,4 nfzc=1 $end
 $datal
H2O molecule, large component
Cnv 2

O 8 0.00000000  0.00000000  0.00000000
  s 9
  1 1.1720000E+04  7.44044680157E-04 
  2 1.7590000E+03  5.56870462130E-03 
  3 4.0080000E+02  2.80763828518E-02 
  4 1.1370000E+02  1.05191790218E-01 
  5 3.7030000E+01  2.83329917867E-01 
  6 1.3270000E+01  4.48337980954E-01 
  7 5.0250000E+00  2.70266898852E-01 
  8 1.0130000E+00  1.53634765310E-02 
  9 3.0230000E-01 -2.56497431972E-03 
  s 9
  1 1.1720000E+04  -1.67721663938E-04
  2 1.7590000E+03  -1.28952465760E-03
  3 4.0080000E+02  -6.33916230689E-03
  4 1.1370000E+02  -2.58933434608E-02
  5 3.7030000E+01  -7.11471075413E-02
  6 1.3270000E+01  -1.65833473039E-01
  7 5.0250000E+00  -1.16110339415E-01
  8 1.0130000E+00   5.60081019117E-01
  9 3.0230000E-01   5.69945620854E-01
  s 1 
  1 3.0230000E-01  9.99993963493E-01
  p 4
  1 1.7700000E+01  4.30553387768E-02
  2 3.8540000E+00  2.28715136176E-01
  3 1.0460000E+00  5.04977579175E-01
  4 2.7530000E-01  4.64951562012E-01
  p 1
  1 2.7530000E-01  9.99990837899E-01
  d 1
  1 1.1850000E+00  9.99944801756E-01

H 1 0.00000000 -1.43042809 -1.10715266
  s 4
  1 1.3010000E+01  1.96890512305E-02
  2 1.9620000E+00  1.37985789892E-01
  3 4.4460000E-01  4.78150708254E-01
  4 1.2200000E-01  5.01221958354E-01
  s 1
  1 1.2200000E-01  9.99997563783E-01
  p 1
  1 7.2700000E-01  9.99975807132E-01

 $end

 $datas
H2O molecule, small component
Cnv 2

O 8 0.00000000  0.00000000  0.00000000
  s 9
  1 1.1720000E+04   7.14947552683E-04
  2 1.7590000E+03   5.49733106076E-03
  3 4.0080000E+02   2.79312454915E-02
  4 1.1370000E+02   1.05003175140E-01
  5 3.7030000E+01   2.83217400244E-01
  6 1.3270000E+01   4.48439637506E-01
  7 5.0250000E+00   2.70394371014E-01
  8 1.0130000E+00   1.53715124894E-02
  9 3.0230000E-01  -2.56670021084E-03
  s 9
  1 1.1720000E+04  -1.60998781550E-04
  2 1.7590000E+03  -1.27226845995E-03
  3 4.0080000E+02  -6.30151885694E-03
  4 1.1370000E+02  -2.58321333881E-02
  5 3.7030000E+01  -7.10784889987E-02
  6 1.3270000E+01  -1.65785586753E-01
  7 5.0250000E+00  -1.16123980996E-01
  8 1.0130000E+00   5.60067284642E-01
  9 3.0230000E-01   5.69964283412E-01
  s 1 
  1 3.0230000E-01  9.99981890442E-01
  p 4
  1 1.7700000E+01  4.29884003275E-02
  2 3.8540000E+00  2.28661481498E-01
  3 1.0460000E+00  5.04932700389E-01
  4 2.7530000E-01  4.64928541998E-01
  p 1
  1 2.7530000E-01   9.99972513614E-01
  d 1
  1 1.1850000E+00   9.99834402221E-01

H 1 0.00000000 -1.43042809 -1.10715266
  s 4
  1 1.3010000E+01   1.96862067897E-02
  2 1.9620000E+00   1.37981446500E-01
  3 4.4460000E-01   4.78149251945E-01
  4 1.2200000E-01   5.01225973793E-01
  s 1
  1 1.2200000E-01   9.99992691343E-01
  p 1
  1 7.2700000E-01   9.99927420810E-01

 $end

 $data
H2O molecule, FW basis set 
Cnv 2

O 8 0.00000000  0.00000000  0.00000000
  s 9
  1 1.1720000E+04  6.97868054935E-04
  2 1.7590000E+03  5.55871012474E-03
  3 4.0080000E+02  2.81813776199E-02
  4 1.1370000E+02  1.05405968897E-01
  5 3.7030000E+01  2.83558347726E-01
  6 1.3270000E+01  4.48405544731E-01
  7 5.0250000E+00  2.70210312267E-01
  8 1.0130000E+00  1.53539353031E-02
  9 3.0230000E-01 -2.56655210386E-03
  s 9
  1 1.1720000E+04 -1.54012534405E-04
  2 1.7590000E+03 -1.28658147731E-03
  3 4.0080000E+02 -6.35345147605E-03
  4 1.1370000E+02 -2.59480400639E-02
  5 3.7030000E+01 -7.11946666664E-02
  6 1.3270000E+01 -1.65901685446E-01
  7 5.0250000E+00 -1.16087309265E-01
  8 1.0130000E+00  5.60107102424E-01
  9 3.0230000E-01  5.69941309942E-01
  s 1 
  1 3.0230000E-01  1.00000000000E+00
  p 4
  1 1.7700000E+01  4.30749775899E-02
  2 3.8540000E+00  2.28742613602E-01
  3 1.0460000E+00  5.04989831799E-01
  4 2.7530000E-01  4.64951331673E-01
  p 1
  1 2.7530000E-01  1.00000000000E+00
  d 1
  1 1.1850000E+00  1.00000000000E+00

H 1 0.00000000 -1.43042809 -1.10715266
  s 4
  1 1.3010000E+01  1.96897753121E-02
  2 1.9620000E+00  1.37990530014E-01
  3 4.4460000E-01  4.78155377919E-01
  4 1.2200000E-01  5.01220868481E-01
  s 1
  1 1.2200000E-01  1.00000000000E+00
  p 1
  1 7.2700000E-01  1.00000000000E+00

 $end
--- OPTIMIZED MCSCF MO-S --- GENERATED AT Thu Jan  6 01:40:38 2000
H2O molecule, FW basis set                                                      
E(MCSCF)=      -76.1331945941, 11 ITERS, E(NUC)=    9.1949809303
 $VEC1  
 1  1 9.98378974E-01-6.24531537E-02-2.25266489E-03 0.00000000E+00 0.00000000E+00
 1  2-2.86732265E-02 0.00000000E+00 0.00000000E+00-2.00571304E-03-4.65130736E-04
 1  3-2.14024610E-04 6.79155346E-04 0.00000000E+00 0.00000000E+00 0.00000000E+00
 1  4-5.40022203E-03 4.40030913E-03 0.00000000E+00 1.52222573E-03-2.02727795E-03
 1  5-5.40022203E-03 4.40030913E-03 0.00000000E+00-1.52222573E-03-2.02727795E-03
 2  1 5.37913473E-02 8.74818911E-01-1.26844848E-01 0.00000000E+00 0.00000000E+00
 2  2-1.21995767E-01 0.00000000E+00 0.00000000E+00 7.27573266E-02-3.63710104E-03
 2  3 2.40490201E-03 1.23219904E-03 0.00000000E+00 0.00000000E+00 0.00000000E+00
 2  4 3.27809324E-01-1.53614175E-01 0.00000000E+00-3.53785643E-02 1.88713896E-02
 2  5 3.27809324E-01-1.53614175E-01 0.00000000E+00 3.53785643E-02 1.88713896E-02
 3  1 0.00000000E+00 0.00000000E+00 0.00000000E+00 0.00000000E+00 7.34891481E-01
 3  2 0.00000000E+00 0.00000000E+00-1.30953571E-01 0.00000000E+00 0.00000000E+00
 3  3 0.00000000E+00 0.00000000E+00 0.00000000E+00 0.00000000E+00-2.74260148E-02
 3  4 5.58672464E-01-1.87462746E-01 0.00000000E+00-2.09364503E-02 2.95668752E-02
 3  5-5.58672464E-01 1.87462746E-01 0.00000000E+00-2.09364503E-02-2.95668752E-02
 4  1 3.56401538E-02 2.76868695E-01 1.99547393E-01 0.00000000E+00 0.00000000E+00
 4  2 8.14219681E-01 0.00000000E+00 0.00000000E+00-2.37077920E-02 1.35365287E-02
 4  3 4.56668194E-03-1.81032106E-02 0.00000000E+00 0.00000000E+00 0.00000000E+00
 4  4-3.50202115E-01 1.30803344E-01 0.00000000E+00 2.87361621E-02 8.71768815E-03
 4  5-3.50202115E-01 1.30803344E-01 0.00000000E+00-2.87361621E-02 8.71768815E-03
 5  1 0.00000000E+00 0.00000000E+00 0.00000000E+00 9.23811568E-01 0.00000000E+00
 5  2 0.00000000E+00 6.73457376E-02 0.00000000E+00 0.00000000E+00 0.00000000E+00
 5  3 0.00000000E+00 0.00000000E+00 0.00000000E+00-1.81490452E-02 0.00000000E+00
 5  4 0.00000000E+00 0.00000000E+00 3.05917902E-02 0.00000000E+00 0.00000000E+00
 5  5 0.00000000E+00 0.00000000E+00 3.05917902E-02 0.00000000E+00 0.00000000E+00
 6  1-1.32777533E-01-9.56179651E-01 2.87444843E-01 0.00000000E+00 0.00000000E+00
 6  2 1.14468324E+00 0.00000000E+00 0.00000000E+00-6.43405149E-01 2.95124346E-02
 6  3-1.28362805E-02-1.66761541E-02 0.00000000E+00 0.00000000E+00 0.00000000E+00
 6  4 9.58637362E-01-3.76767807E-01 0.00000000E+00-5.55503562E-02-3.79455258E-02
 6  5 9.58637362E-01-3.76767807E-01 0.00000000E+00 5.55503562E-02-3.79455258E-02
 7  1 0.00000000E+00 0.00000000E+00 0.00000000E+00 0.00000000E+00 1.28835328E+00
 7  2 0.00000000E+00 0.00000000E+00-5.53546092E-01 0.00000000E+00 0.00000000E+00
 7  3 0.00000000E+00 0.00000000E+00 0.00000000E+00 0.00000000E+00-3.89228129E-02
 7  4-1.00980889E+00 3.23908111E-01 0.00000000E+00 1.60662828E-02-7.27479342E-03
 7  5 1.00980889E+00-3.23908111E-01 0.00000000E+00 1.60662828E-02 7.27479342E-03
 8  1-1.10386552E-01-2.97944036E-01 1.31378437E+00 0.00000000E+00 0.00000000E+00
 8  2 3.15042587E-01 0.00000000E+00 0.00000000E+00-6.36391041E-01-5.95525581E-02
 8  3 4.84168731E-02 1.11356849E-02 0.00000000E+00 0.00000000E+00 0.00000000E+00
 8  4 5.78840036E-01-1.29135363E+00 0.00000000E+00 1.54269910E-01-1.00810600E-01
 8  5 5.78840036E-01-1.29135363E+00 0.00000000E+00-1.54269910E-01-1.00810600E-01
 9  1 0.00000000E+00 0.00000000E+00 0.00000000E+00 0.00000000E+00 1.65043169E-01
 9  2 0.00000000E+00 0.00000000E+00-6.05534425E-01 0.00000000E+00 0.00000000E+00
 9  3 0.00000000E+00 0.00000000E+00 0.00000000E+00 0.00000000E+00 8.62323524E-02
 9  4-8.79698735E-01 2.10577501E+00 0.00000000E+00-9.36860316E-02 1.17790441E-01
 9  5 8.79698735E-01-2.10577501E+00 0.00000000E+00-9.36860316E-02-1.17790441E-01
10  1 3.29493559E-03-2.95529220E-01-4.91112250E-01 0.00000000E+00 0.00000000E+00
10  2-7.21873774E-01 0.00000000E+00 0.00000000E+00 1.44505681E+00-4.19257980E-02
10  3 5.85435394E-02-1.66177414E-02 0.00000000E+00 0.00000000E+00 0.00000000E+00
10  4 1.39308493E+00-7.47261771E-01 0.00000000E+00 1.01759909E-01 2.12629359E-01
10  5 1.39308493E+00-7.47261771E-01 0.00000000E+00-1.01759909E-01 2.12629359E-01
11  1 0.00000000E+00 0.00000000E+00 0.00000000E+00 0.00000000E+00-6.98285964E-01
11  2 0.00000000E+00 0.00000000E+00 2.15994216E+00 0.00000000E+00 0.00000000E+00
11  3 0.00000000E+00 0.00000000E+00 0.00000000E+00 0.00000000E+00 1.81923506E-02
11  4-1.29197523E+00 2.03942828E-02 0.00000000E+00 1.98716046E-01-5.95515776E-02
11  5 1.29197523E+00-2.03942828E-02 0.00000000E+00 1.98716046E-01 5.95515776E-02
12  1 0.00000000E+00 0.00000000E+00 0.00000000E+00-1.41743477E+00 0.00000000E+00
12  2 0.00000000E+00 1.68443375E+00 0.00000000E+00 0.00000000E+00 0.00000000E+00
12  3 0.00000000E+00 0.00000000E+00 0.00000000E+00 3.70969423E-03 0.00000000E+00
12  4 0.00000000E+00 0.00000000E+00 6.75748441E-03 0.00000000E+00 0.00000000E+00
12  5 0.00000000E+00 0.00000000E+00 6.75748441E-03 0.00000000E+00 0.00000000E+00
13  1 2.12341711E-01 1.07687246E+00-1.05401093E+00 0.00000000E+00 0.00000000E+00
13  2 3.88503266E-01 0.00000000E+00 0.00000000E+00-1.05868242E+00 4.04288503E-02
13  3 7.07737249E-02-1.11202575E-01 0.00000000E+00 0.00000000E+00 0.00000000E+00
13  4-5.33897262E-01 4.41526430E-01 0.00000000E+00 3.78278755E-01 4.81729016E-01
13  5-5.33897262E-01 4.41526430E-01 0.00000000E+00-3.78278755E-01 4.81729016E-01
14  1 0.00000000E+00 0.00000000E+00 0.00000000E+00 0.00000000E+00 0.00000000E+00
14  2 0.00000000E+00 0.00000000E+00 0.00000000E+00 0.00000000E+00 0.00000000E+00
14  3 0.00000000E+00 0.00000000E+00 1.31969304E-01 0.00000000E+00 0.00000000E+00
14  4 0.00000000E+00 0.00000000E+00 6.85359724E-01 0.00000000E+00 0.00000000E+00
14  5 0.00000000E+00 0.00000000E+00-6.85359724E-01 0.00000000E+00 0.00000000E+00
15  1 0.00000000E+00 0.00000000E+00 0.00000000E+00-3.16185618E-02 0.00000000E+00
15  2 0.00000000E+00-6.16724400E-01 0.00000000E+00 0.00000000E+00 0.00000000E+00
15  3 0.00000000E+00 0.00000000E+00 0.00000000E+00-1.61639547E-01 0.00000000E+00
15  4 0.00000000E+00 0.00000000E+00 7.66846437E-01 0.00000000E+00 0.00000000E+00
15  5 0.00000000E+00 0.00000000E+00 7.66846437E-01 0.00000000E+00 0.00000000E+00
16  1-7.15070003E-01-3.08350286E+00 4.69890495E+00 0.00000000E+00 0.00000000E+00
16  2-2.08875915E-01 0.00000000E+00 0.00000000E+00-8.30975970E-01 1.55531609E-01
16  3-3.68776060E-02-1.18654003E-01 0.00000000E+00 0.00000000E+00 0.00000000E+00
16  4-1.41705098E+00 3.47052368E-01 0.00000000E+00 3.35667069E-01 7.68732532E-02
16  5-1.41705098E+00 3.47052368E-01 0.00000000E+00-3.35667069E-01 7.68732532E-02
17  1 0.00000000E+00 0.00000000E+00 0.00000000E+00 0.00000000E+00-3.53045004E-02
17  2 0.00000000E+00 0.00000000E+00 9.43434859E-01 0.00000000E+00 0.00000000E+00
17  3 0.00000000E+00 0.00000000E+00 0.00000000E+00 0.00000000E+00 2.60834050E-02
17  4-6.53144124E-01 2.18142755E-01 0.00000000E+00-4.53728396E-01-7.07376648E-01
17  5 6.53144124E-01-2.18142755E-01 0.00000000E+00-4.53728396E-01 7.07376648E-01
18  1 0.00000000E+00 0.00000000E+00 0.00000000E+00 0.00000000E+00 9.91771961E-01
18  2 0.00000000E+00 0.00000000E+00-1.97486283E-01 0.00000000E+00 0.00000000E+00
18  3 0.00000000E+00 0.00000000E+00 0.00000000E+00 0.00000000E+00 9.47381569E-02
18  4-4.04728997E-01-1.81615771E-01 0.00000000E+00 7.75246927E-01-5.80656924E-01
18  5 4.04728997E-01 1.81615771E-01 0.00000000E+00 7.75246927E-01 5.80656924E-01
19  1 2.10323794E-01 1.08311304E+00 4.43998713E-01 0.00000000E+00 0.00000000E+00
19  2-7.47287868E-01 0.00000000E+00 0.00000000E+00 1.85692713E-02 1.67533906E-01
19  3-1.29947135E-01-3.75867709E-02 0.00000000E+00 0.00000000E+00 0.00000000E+00
19  4-7.85727335E-01 1.87141574E-01 0.00000000E+00 7.97443237E-01-6.01451459E-01
19  5-7.85727335E-01 1.87141574E-01 0.00000000E+00-7.97443237E-01-6.01451459E-01
20  1 0.00000000E+00 0.00000000E+00 0.00000000E+00 1.66211364E-02 0.00000000E+00
20  2 0.00000000E+00-3.19929804E-01 0.00000000E+00 0.00000000E+00 0.00000000E+00
20  3 0.00000000E+00 0.00000000E+00 0.00000000E+00 1.04270287E+00 0.00000000E+00
20  4 0.00000000E+00 0.00000000E+00 3.99134509E-01 0.00000000E+00 0.00000000E+00
20  5 0.00000000E+00 0.00000000E+00 3.99134509E-01 0.00000000E+00 0.00000000E+00
21  1 0.00000000E+00 0.00000000E+00 0.00000000E+00 0.00000000E+00 0.00000000E+00
21  2 0.00000000E+00 0.00000000E+00 0.00000000E+00 0.00000000E+00 0.00000000E+00
21  3 0.00000000E+00 0.00000000E+00 1.06621905E+00 0.00000000E+00 0.00000000E+00
21  4 0.00000000E+00 0.00000000E+00-3.72078982E-01 0.00000000E+00 0.00000000E+00
21  5 0.00000000E+00 0.00000000E+00 3.72078982E-01 0.00000000E+00 0.00000000E+00
22  1-9.37170391E-02-3.48131180E-01 8.06001879E-01 0.00000000E+00 0.00000000E+00
22  2-6.08303284E-03 0.00000000E+00 0.00000000E+00-5.61730454E-01-4.16879025E-01
22  3-6.70984689E-01 1.08786371E+00 0.00000000E+00 0.00000000E+00 0.00000000E+00
22  4-5.44715705E-01 2.31280749E-01 0.00000000E+00 3.60135809E-01 3.06747377E-01
22  5-5.44715705E-01 2.31280749E-01 0.00000000E+00-3.60135809E-01 3.06747377E-01
23  1-1.67069149E-01-4.95451268E-01 2.53045057E+00 0.00000000E+00 0.00000000E+00
23  2-4.41661005E-01 0.00000000E+00 0.00000000E+00-7.27313187E-01-1.07141962E+00
23  3 9.59852964E-01 1.11566652E-01 0.00000000E+00 0.00000000E+00 0.00000000E+00
23  4-1.99074668E+00 8.08743968E-01 0.00000000E+00 5.90144084E-01-4.95211835E-01
23  5-1.99074668E+00 8.08743968E-01 0.00000000E+00-5.90144084E-01-4.95211835E-01
24  1 0.00000000E+00 0.00000000E+00 0.00000000E+00 0.00000000E+00-5.25834050E-01
24  2 0.00000000E+00 0.00000000E+00-9.17398028E-01 0.00000000E+00 0.00000000E+00
24  3 0.00000000E+00 0.00000000E+00 0.00000000E+00 0.00000000E+00 1.33144825E+00
24  4 1.74880451E+00-5.92222608E-01 0.00000000E+00-5.97247992E-01 4.85414433E-01
24  5-1.74880451E+00 5.92222608E-01 0.00000000E+00-5.97247992E-01-4.85414433E-01
 $END   
 POPULATION ANALYSIS
O            8.27301   -.27301   8.56180   -.56180
H             .86349    .13651    .71910    .28090
H             .86349    .13651    .71910    .28090
 MOMENTS AT POINT    1 X,Y,Z=   .000000   .000000  -.123907
 DIPOLE        .000000   .000000 -1.914356

! TRAVIS-CI SMALL

! TRAVIS-CI SKIP
