!   water...normalised elimination of small component
!   all atoms are treated relativistically, 2e- integrals use averaged basis
!   and does the nuclear gradient.  Test is from Dmitri in his ToDai days.
!   the basis set is courtesy of K. Dyall
!
!   FINAL E=-76.0804440561, 7 iters, RMS grad=0.000069379
!
!   This run takes 0 seconds on 2.66 GHz Cloverton (16 Apr 2015)
!   results have not changed since at least 2005.
!
 $contrl scftyp=rhf runtyp=gradient relwfn=nesc ispher=1 $end
 $system mwords=1 $end
 $guess  guess=moread $end
 $dataL
H2O molecule, large component at NR opt geom
Cnv 2

 O           8.0    .0000000000    .0000000000   -.0048345588
  s 9
  1 1.1720000E+04  7.44044680157E-04
  2 1.7590000E+03  5.56870462130E-03
  3 4.0080000E+02  2.80763828518E-02
  4 1.1370000E+02  1.05191790218E-01
  5 3.7030000E+01  2.83329917867E-01
  6 1.3270000E+01  4.48337980954E-01
  7 5.0250000E+00  2.70266898852E-01
  8 1.0130000E+00  1.53634765310E-02
  9 3.0230000E-01 -2.56497431972E-03
  s 9
  1 1.1720000E+04  -1.67721663938E-04
  2 1.7590000E+03  -1.28952465760E-03
  3 4.0080000E+02  -6.33916230689E-03
  4 1.1370000E+02  -2.58933434608E-02
  5 3.7030000E+01  -7.11471075413E-02
  6 1.3270000E+01  -1.65833473039E-01
  7 5.0250000E+00  -1.16110339415E-01
  8 1.0130000E+00   5.60081019117E-01
  9 3.0230000E-01   5.69945620854E-01
  s 1
  1 3.0230000E-01  9.99993963493E-01
  p 4
  1 1.7700000E+01  4.30553387768E-02
  2 3.8540000E+00  2.28715136176E-01
  3 1.0460000E+00  5.04977579175E-01
  4 2.7530000E-01  4.64951562012E-01
  p 1
  1 2.7530000E-01  9.99990837899E-01
  d 1
  1 1.1850000E+00  9.99944801756E-01

 H           1.0    .0000000000   -.7487754347   -.5834627197
  s 4
  1 1.3010000E+01  1.96890512305E-02
  2 1.9620000E+00  1.37985789892E-01
  3 4.4460000E-01  4.78150708254E-01
  4 1.2200000E-01  5.01221958354E-01
  s 1
  1 1.2200000E-01  9.99997563783E-01
  p 1
  1 7.2700000E-01  9.99975807132E-01

 $end

 $dataS
H2O molecule, small component
Cnv 2

 O           8.0    .0000000000    .0000000000   -.0048345588
  s 9
  1 1.1720000E+04   7.14947552683E-04
  2 1.7590000E+03   5.49733106076E-03
  3 4.0080000E+02   2.79312454915E-02
  4 1.1370000E+02   1.05003175140E-01
  5 3.7030000E+01   2.83217400244E-01
  6 1.3270000E+01   4.48439637506E-01
  7 5.0250000E+00   2.70394371014E-01
  8 1.0130000E+00   1.53715124894E-02
  9 3.0230000E-01  -2.56670021084E-03
  s 9
  1 1.1720000E+04  -1.60998781550E-04
  2 1.7590000E+03  -1.27226845995E-03
  3 4.0080000E+02  -6.30151885694E-03
  4 1.1370000E+02  -2.58321333881E-02
  5 3.7030000E+01  -7.10784889987E-02
  6 1.3270000E+01  -1.65785586753E-01
  7 5.0250000E+00  -1.16123980996E-01
  8 1.0130000E+00   5.60067284642E-01
  9 3.0230000E-01   5.69964283412E-01
  s 1
  1 3.0230000E-01  9.99981890442E-01
  p 4
  1 1.7700000E+01  4.29884003275E-02
  2 3.8540000E+00  2.28661481498E-01
  3 1.0460000E+00  5.04932700389E-01
  4 2.7530000E-01  4.64928541998E-01
  p 1
  1 2.7530000E-01   9.99972513614E-01
  d 1
  1 1.1850000E+00   9.99834402221E-01

 H           1.0    .0000000000   -.7487754347   -.5834627197
  s 4
  1 1.3010000E+01   1.96862067897E-02
  2 1.9620000E+00   1.37981446500E-01
  3 4.4460000E-01   4.78149251945E-01
  4 1.2200000E-01   5.01225973793E-01
  s 1
  1 1.2200000E-01   9.99992691343E-01
  p 1
  1 7.2700000E-01   9.99927420810E-01

 $end

 $data
H2O molecule, FW basis set
Cnv 2

 O           8.0    .0000000000    .0000000000   -.0048345588
  s 9
  1 1.1720000E+04  6.97868054935E-04
  2 1.7590000E+03  5.55871012474E-03
  3 4.0080000E+02  2.81813776199E-02
  4 1.1370000E+02  1.05405968897E-01
  5 3.7030000E+01  2.83558347726E-01
  6 1.3270000E+01  4.48405544731E-01
  7 5.0250000E+00  2.70210312267E-01
  8 1.0130000E+00  1.53539353031E-02
  9 3.0230000E-01 -2.56655210386E-03
  s 9
  1 1.1720000E+04 -1.54012534405E-04
  2 1.7590000E+03 -1.28658147731E-03
  3 4.0080000E+02 -6.35345147605E-03
  4 1.1370000E+02 -2.59480400639E-02
  5 3.7030000E+01 -7.11946666664E-02
  6 1.3270000E+01 -1.65901685446E-01
  7 5.0250000E+00 -1.16087309265E-01
  8 1.0130000E+00  5.60107102424E-01
  9 3.0230000E-01  5.69941309942E-01
  s 1
  1 3.0230000E-01  1.00000000000E+00
  p 4
  1 1.7700000E+01  4.30749775899E-02
  2 3.8540000E+00  2.28742613602E-01
  3 1.0460000E+00  5.04989831799E-01
  4 2.7530000E-01  4.64951331673E-01
  p 1
  1 2.7530000E-01  1.00000000000E+00
  d 1
  1 1.1850000E+00  1.00000000000E+00

 H           1.0    .0000000000   -.7487754347   -.5834627197
  s 4
  1 1.3010000E+01  1.96897753121E-02
  2 1.9620000E+00  1.37990530014E-01
  3 4.4460000E-01  4.78155377919E-01
  4 1.2200000E-01  5.01220868481E-01
  s 1
  1 1.2200000E-01  1.00000000000E+00
  p 1
  1 7.2700000E-01  1.00000000000E+00

 $end

--- OPTIMIZED RHF      MO-S --- GENERATED AT  1:44:03 CST  3-MAR-2000
E= -76.0267505496   at a guess, these are ordinary NR orbitals.
 $VEC
 1  1-1.00055700E+00-3.59863483E-03 1.83353467E-03 0.00000000E+00 0.00000000E+00
 1  2 2.70716410E-03 0.00000000E+00 0.00000000E+00-1.54767835E-03 2.08729794E-04
 1  3-1.78198945E-04-3.05308487E-05 0.00000000E+00 0.00000000E+00 0.00000000E+00
 1  4 8.24686238E-04-7.89362764E-04 0.00000000E+00-7.08029017E-04 5.64014473E-04
 1  5 8.24686238E-04-7.89362764E-04 0.00000000E+00 7.08029017E-04 5.64014473E-04
 2  1 9.96009612E-03-8.63408015E-01 1.25204878E-01 0.00000000E+00 0.00000000E+00
 2  2 1.18241629E-01 0.00000000E+00 0.00000000E+00-7.00410432E-02 3.26561166E-03
 2  3-2.03994085E-03-1.22567080E-03 0.00000000E+00 0.00000000E+00 0.00000000E+00
 2  4-3.37803054E-01 1.59335075E-01 0.00000000E+00 3.82530211E-02-2.08353044E-02
 2  5-3.37803054E-01 1.59335075E-01 0.00000000E+00-3.82530211E-02-2.08353044E-02
 3  1 0.00000000E+00 0.00000000E+00 0.00000000E+00 0.00000000E+00 7.18815038E-01
 3  2 0.00000000E+00 0.00000000E+00-1.15266487E-01 0.00000000E+00 0.00000000E+00
 3  3 0.00000000E+00 0.00000000E+00 0.00000000E+00 0.00000000E+00-2.70643045E-02
 3  4 5.62517885E-01-1.94565373E-01 0.00000000E+00-2.36654353E-02 3.31076471E-02
 3  5-5.62517885E-01 1.94565373E-01 0.00000000E+00-2.36654353E-02-3.31076471E-02
 4  1-2.48591830E-03 2.95971323E-01 1.84813017E-01 0.00000000E+00 0.00000000E+00
 4  2 7.99750102E-01 0.00000000E+00 0.00000000E+00-6.69921525E-03 1.29038457E-02
 4  3 5.08064476E-03-1.79844904E-02 0.00000000E+00 0.00000000E+00 0.00000000E+00
 4  4-3.50882210E-01 1.37946083E-01 0.00000000E+00 3.21017025E-02 7.71471214E-03
 4  5-3.50882210E-01 1.37946083E-01 0.00000000E+00-3.21017025E-02 7.71471214E-03
 5  1 0.00000000E+00 0.00000000E+00 0.00000000E+00 9.22913386E-01 0.00000000E+00
 5  2 0.00000000E+00 6.70860533E-02 0.00000000E+00 0.00000000E+00 0.00000000E+00
 5  3 0.00000000E+00 0.00000000E+00 0.00000000E+00-1.83393285E-02 0.00000000E+00
 5  4 0.00000000E+00 0.00000000E+00 3.15134978E-02 0.00000000E+00 0.00000000E+00
 5  5 0.00000000E+00 0.00000000E+00 3.15134978E-02 0.00000000E+00 0.00000000E+00
 6  1 5.21894384E-02-1.42265445E-01-9.31624870E-01 0.00000000E+00 0.00000000E+00
 6  2 2.72516799E-01 0.00000000E+00 0.00000000E+00 2.05294699E-01 1.28380406E-02
 6  3-5.36751033E-03-7.47053029E-03 0.00000000E+00 0.00000000E+00 0.00000000E+00
 6  4 9.61741201E-02 7.85676046E-01 0.00000000E+00-1.83562564E-02 1.66995570E-02
 6  5 9.61741201E-02 7.85676046E-01 0.00000000E+00 1.83562564E-02 1.66995570E-02
 7  1 0.00000000E+00 0.00000000E+00 0.00000000E+00 0.00000000E+00 4.09337299E-01
 7  2 0.00000000E+00 0.00000000E+00 4.81457298E-01 0.00000000E+00 0.00000000E+00
 7  3 0.00000000E+00 0.00000000E+00 0.00000000E+00 0.00000000E+00-2.19814623E-02
 7  4-3.99055651E-02-1.44519724E+00 0.00000000E+00 2.14030123E-02-1.80501128E-02
 7  5 3.99055651E-02 1.44519724E+00 0.00000000E+00 2.14030123E-02 1.80501128E-02
 8  1 0.00000000E+00 0.00000000E+00 0.00000000E+00 0.00000000E+00 3.86841106E-01
 8  2 0.00000000E+00 0.00000000E+00 3.02980718E-01 0.00000000E+00 0.00000000E+00
 8  3 0.00000000E+00 0.00000000E+00 0.00000000E+00 0.00000000E+00 1.12763204E-01
 8  4-1.60963596E+00 1.47474369E+00 0.00000000E+00-7.71689294E-02 1.56527901E-01
 8  5 1.60963596E+00-1.47474369E+00 0.00000000E+00-7.71689294E-02-1.56527901E-01
 9  1-6.17336274E-02-4.95585878E-01 6.02892737E-01 0.00000000E+00 0.00000000E+00
 9  2 4.81624707E-01 0.00000000E+00 0.00000000E+00-2.42037166E-01-9.47730145E-02
 9  3 9.35784970E-02 1.19451751E-03 0.00000000E+00 0.00000000E+00 0.00000000E+00
 9  4 1.32202912E+00-1.20298841E+00 0.00000000E+00 3.05565838E-01-6.03847521E-02
 9  5 1.32202912E+00-1.20298841E+00 0.00000000E+00-3.05565838E-01-6.03847521E-02
10  1 2.81103326E-03 2.25388225E-01 6.53258294E-01 0.00000000E+00 0.00000000E+00
10  2 1.09921342E+00 0.00000000E+00 0.00000000E+00-1.80674148E+00-5.91484214E-04
10  3-1.09299757E-02 1.15214599E-02 0.00000000E+00 0.00000000E+00 0.00000000E+00
10  4-9.64950551E-01 3.69470437E-01 0.00000000E+00 8.90507866E-02-2.44054196E-01
10  5-9.64950551E-01 3.69470437E-01 0.00000000E+00-8.90507866E-02-2.44054196E-01
11  1 0.00000000E+00 0.00000000E+00 0.00000000E+00 1.41716450E+00 0.00000000E+00
11  2 0.00000000E+00-1.69236197E+00 0.00000000E+00 0.00000000E+00 0.00000000E+00
11  3 0.00000000E+00 0.00000000E+00 0.00000000E+00-4.26015089E-03 0.00000000E+00
11  4 0.00000000E+00 0.00000000E+00 3.29026620E-03 0.00000000E+00 0.00000000E+00
11  5 0.00000000E+00 0.00000000E+00 3.29026620E-03 0.00000000E+00 0.00000000E+00
12  1 0.00000000E+00 0.00000000E+00 0.00000000E+00 0.00000000E+00-1.06629449E+00
12  2 0.00000000E+00 0.00000000E+00 2.27202134E+00 0.00000000E+00 0.00000000E+00
12  3 0.00000000E+00 0.00000000E+00 0.00000000E+00 0.00000000E+00-4.82249727E-02
12  4-6.58216370E-01-5.13616124E-01 0.00000000E+00 3.02022071E-01-1.92828714E-01
12  5 6.58216370E-01 5.13616124E-01 0.00000000E+00 3.02022071E-01 1.92828714E-01
13  1 2.01184392E-01 1.03897986E+00-1.12033204E+00 0.00000000E+00 0.00000000E+00
13  2 1.76648995E-01 0.00000000E+00 0.00000000E+00-8.10801986E-01 5.60922545E-02
13  3 5.78970494E-02-1.13989304E-01 0.00000000E+00 0.00000000E+00 0.00000000E+00
13  4-5.57744687E-01 4.94766146E-01 0.00000000E+00 3.19899924E-01 5.53691906E-01
13  5-5.57744687E-01 4.94766146E-01 0.00000000E+00-3.19899924E-01 5.53691906E-01
14  1 0.00000000E+00 0.00000000E+00 0.00000000E+00 0.00000000E+00 0.00000000E+00
14  2 0.00000000E+00 0.00000000E+00 0.00000000E+00 0.00000000E+00 0.00000000E+00
14  3 0.00000000E+00 0.00000000E+00-1.29586970E-01 0.00000000E+00 0.00000000E+00
14  4 0.00000000E+00 0.00000000E+00-6.86603662E-01 0.00000000E+00 0.00000000E+00
14  5 0.00000000E+00 0.00000000E+00 6.86603662E-01 0.00000000E+00 0.00000000E+00
15  1 0.00000000E+00 0.00000000E+00 0.00000000E+00 6.13765610E-02 0.00000000E+00
15  2 0.00000000E+00 5.98017497E-01 0.00000000E+00 0.00000000E+00 0.00000000E+00
15  3 0.00000000E+00 0.00000000E+00 0.00000000E+00 1.59911628E-01 0.00000000E+00
15  4 0.00000000E+00 0.00000000E+00-7.69511880E-01 0.00000000E+00 0.00000000E+00
15  5 0.00000000E+00 0.00000000E+00-7.69511880E-01 0.00000000E+00 0.00000000E+00
16  1 7.13553363E-01 3.08713693E+00-4.81734246E+00 0.00000000E+00 0.00000000E+00
16  2 1.88009487E-01 0.00000000E+00 0.00000000E+00 8.82270504E-01-1.49618966E-01
16  3 3.61762413E-02 1.13442724E-01 0.00000000E+00 0.00000000E+00 0.00000000E+00
16  4 1.43860439E+00-3.30234685E-01 0.00000000E+00-3.73931854E-01-2.73403980E-02
16  5 1.43860439E+00-3.30234685E-01 0.00000000E+00 3.73931854E-01-2.73403980E-02
17  1 0.00000000E+00 0.00000000E+00 0.00000000E+00 0.00000000E+00 3.73804524E-03
17  2 0.00000000E+00 0.00000000E+00-9.06921691E-01 0.00000000E+00 0.00000000E+00
17  3 0.00000000E+00 0.00000000E+00 0.00000000E+00 0.00000000E+00-3.05049542E-02
17  4 6.64626842E-01-2.41082554E-01 0.00000000E+00 4.82010297E-01 6.92952020E-01
17  5-6.64626842E-01 2.41082554E-01 0.00000000E+00 4.82010297E-01-6.92952020E-01
18  1 0.00000000E+00 0.00000000E+00 0.00000000E+00 0.00000000E+00-1.25006907E+00
18  2 0.00000000E+00 0.00000000E+00 4.29621903E-01 0.00000000E+00 0.00000000E+00
18  3 0.00000000E+00 0.00000000E+00 0.00000000E+00 0.00000000E+00-1.45920396E-01
18  4 5.32395962E-01 6.08123298E-02 0.00000000E+00-7.28958853E-01 5.60022924E-01
18  5-5.32395962E-01-6.08123298E-02 0.00000000E+00-7.28958853E-01-5.60022924E-01
19  1 2.98936989E-01 1.50769212E+00-8.55226915E-02 0.00000000E+00 0.00000000E+00
19  2-9.91658174E-01 0.00000000E+00 0.00000000E+00 2.90196307E-01 2.23324945E-01
19  3-1.68330130E-01-5.49948149E-02 0.00000000E+00 0.00000000E+00 0.00000000E+00
19  4-8.29464355E-01 2.61450420E-01 0.00000000E+00 7.45079620E-01-5.37450976E-01
19  5-8.29464355E-01 2.61450420E-01 0.00000000E+00-7.45079620E-01-5.37450976E-01
20  1 0.00000000E+00 0.00000000E+00 0.00000000E+00-8.80119448E-03 0.00000000E+00
20  2 0.00000000E+00 3.23667059E-01 0.00000000E+00 0.00000000E+00 0.00000000E+00
20  3 0.00000000E+00 0.00000000E+00 0.00000000E+00-1.04608211E+00 0.00000000E+00
20  4 0.00000000E+00 0.00000000E+00-4.06903315E-01 0.00000000E+00 0.00000000E+00
20  5 0.00000000E+00 0.00000000E+00-4.06903315E-01 0.00000000E+00 0.00000000E+00
21  1 0.00000000E+00 0.00000000E+00 0.00000000E+00 0.00000000E+00 0.00000000E+00
21  2 0.00000000E+00 0.00000000E+00 0.00000000E+00 0.00000000E+00 0.00000000E+00
21  3 0.00000000E+00 0.00000000E+00 1.07069971E+00 0.00000000E+00 0.00000000E+00
21  4 0.00000000E+00 0.00000000E+00-3.78996131E-01 0.00000000E+00 0.00000000E+00
21  5 0.00000000E+00 0.00000000E+00 3.78996131E-01 0.00000000E+00 0.00000000E+00
22  1 8.44070876E-02 3.01149598E-01-7.64762526E-01 0.00000000E+00 0.00000000E+00
22  2 4.46452452E-02 0.00000000E+00 0.00000000E+00 5.36871898E-01 4.02606516E-01
22  3 6.89422742E-01-1.09202926E+00 0.00000000E+00 0.00000000E+00 0.00000000E+00
22  4 5.56159516E-01-2.38016381E-01 0.00000000E+00-3.62105495E-01-3.17813648E-01
22  5 5.56159516E-01-2.38016381E-01 0.00000000E+00 3.62105495E-01-3.17813648E-01
23  1-1.22760731E-01-2.65901702E-01 2.45375733E+00 0.00000000E+00 0.00000000E+00
23  2-6.23121976E-01 0.00000000E+00 0.00000000E+00-6.35928065E-01-1.06871226E+00
23  3 9.48254102E-01 1.20458157E-01 0.00000000E+00 0.00000000E+00 0.00000000E+00
23  4-2.16944086E+00 8.95170319E-01 0.00000000E+00 6.23736940E-01-5.03939626E-01
23  5-2.16944086E+00 8.95170319E-01 0.00000000E+00-6.23736940E-01-5.03939626E-01
24  1 0.00000000E+00 0.00000000E+00 0.00000000E+00 0.00000000E+00-7.24050473E-01
24  2 0.00000000E+00 0.00000000E+00-8.24472787E-01 0.00000000E+00 0.00000000E+00
24  3 0.00000000E+00 0.00000000E+00 0.00000000E+00 0.00000000E+00 1.33020892E+00
24  4 1.91379334E+00-6.66957319E-01 0.00000000E+00-6.16000854E-01 4.97281036E-01
24  5-1.91379334E+00 6.66957319E-01 0.00000000E+00-6.16000854E-01-4.97281036E-01
 $END


! TRAVIS-CI SMALL

! TRAVIS-CI SKIP
