!   water...normalised elimination of small component
!   only the oxygen atom is treated relativistically!
!   Test is from Dmitri in his ToDai days.
!   the basis set is courtesy of K. Dyall
!
!      FINAL E= -76.0799856686, 10 iters
!
!   This run takes 0 seconds on 2.66 GHz Cloverton (16 Apr 2015)
!   results haven't changed much since at least 2000
!
 $contrl scftyp=rhf relwfn=nesc ispher=+1 units=bohr $end
 $system mwords=1 $end
 $relwfn nratom=1 charge(1)=1 $end
 $guess  guess=huckel $end
 $dataL
H2O molecule, large component O, nonrel H
Cnv 2

O 8 0.00000000  0.00000000  0.00000000
  s 9
  1 1.1720000E+04  7.44044680157E-04
  2 1.7590000E+03  5.56870462130E-03
  3 4.0080000E+02  2.80763828518E-02
  4 1.1370000E+02  1.05191790218E-01
  5 3.7030000E+01  2.83329917867E-01
  6 1.3270000E+01  4.48337980954E-01
  7 5.0250000E+00  2.70266898852E-01
  8 1.0130000E+00  1.53634765310E-02
  9 3.0230000E-01 -2.56497431972E-03
  s 9
  1 1.1720000E+04  -1.67721663938E-04
  2 1.7590000E+03  -1.28952465760E-03
  3 4.0080000E+02  -6.33916230689E-03
  4 1.1370000E+02  -2.58933434608E-02
  5 3.7030000E+01  -7.11471075413E-02
  6 1.3270000E+01  -1.65833473039E-01
  7 5.0250000E+00  -1.16110339415E-01
  8 1.0130000E+00   5.60081019117E-01
  9 3.0230000E-01   5.69945620854E-01
  s 1
  1 3.0230000E-01  9.99993963493E-01
  p 4
  1 1.7700000E+01  4.30553387768E-02
  2 3.8540000E+00  2.28715136176E-01
  3 1.0460000E+00  5.04977579175E-01
  4 2.7530000E-01  4.64951562012E-01
  p 1
  1 2.7530000E-01  9.99990837899E-01
  d 1
  1 1.1850000E+00  9.99944801756E-01

H 1 0.00000000 -1.43042809 -1.10715266
  s 4
  1 1.3010000E+01 -1.96850444734E-02
  2 1.9620000E+00 -1.37977028830E-01
  3 4.4460000E-01 -4.78148065484E-01
  4 1.2200000E-01 -5.01239336322E-01
  s 1
  1 1.2200000E-01  1.00000000000E+00
  p 1
  1 7.2700000E-01  1.00000000000E+00

 $end

 $dataS
H2O molecule, small component O, nonrel H
Cnv 2

O 8 0.00000000  0.00000000  0.00000000
  s 9
  1 1.1720000E+04   7.14947552683E-04
  2 1.7590000E+03   5.49733106076E-03
  3 4.0080000E+02   2.79312454915E-02
  4 1.1370000E+02   1.05003175140E-01
  5 3.7030000E+01   2.83217400244E-01
  6 1.3270000E+01   4.48439637506E-01
  7 5.0250000E+00   2.70394371014E-01
  8 1.0130000E+00   1.53715124894E-02
  9 3.0230000E-01  -2.56670021084E-03
  s 9
  1 1.1720000E+04  -1.60998781550E-04
  2 1.7590000E+03  -1.27226845995E-03
  3 4.0080000E+02  -6.30151885694E-03
  4 1.1370000E+02  -2.58321333881E-02
  5 3.7030000E+01  -7.10784889987E-02
  6 1.3270000E+01  -1.65785586753E-01
  7 5.0250000E+00  -1.16123980996E-01
  8 1.0130000E+00   5.60067284642E-01
  9 3.0230000E-01   5.69964283412E-01
  s 1
  1 3.0230000E-01  9.99981890442E-01
  p 4
  1 1.7700000E+01  4.29884003275E-02
  2 3.8540000E+00  2.28661481498E-01
  3 1.0460000E+00  5.04932700389E-01
  4 2.7530000E-01  4.64928541998E-01
  p 1
  1 2.7530000E-01   9.99972513614E-01
  d 1
  1 1.1850000E+00   9.99834402221E-01

H 1 0.00000000 -1.43042809 -1.10715266
  s 4
  1 1.3010000E+01 -1.96850444734E-02
  2 1.9620000E+00 -1.37977028830E-01
  3 4.4460000E-01 -4.78148065484E-01
  4 1.2200000E-01 -5.01239336322E-01
  s 1
  1 1.2200000E-01  1.00000000000E+00
  p 1
  1 7.2700000E-01  1.00000000000E+00

 $end

 $data
H2O molecule, FW basis set O, nonrel H
Cnv 2

O 8 0.00000000  0.00000000  0.00000000
  s 9
  1 1.1720000E+04  6.97868054935E-04
  2 1.7590000E+03  5.55871012474E-03
  3 4.0080000E+02  2.81813776199E-02
  4 1.1370000E+02  1.05405968897E-01
  5 3.7030000E+01  2.83558347726E-01
  6 1.3270000E+01  4.48405544731E-01
  7 5.0250000E+00  2.70210312267E-01
  8 1.0130000E+00  1.53539353031E-02
  9 3.0230000E-01 -2.56655210386E-03
  s 9
  1 1.1720000E+04 -1.54012534405E-04
  2 1.7590000E+03 -1.28658147731E-03
  3 4.0080000E+02 -6.35345147605E-03
  4 1.1370000E+02 -2.59480400639E-02
  5 3.7030000E+01 -7.11946666664E-02
  6 1.3270000E+01 -1.65901685446E-01
  7 5.0250000E+00 -1.16087309265E-01
  8 1.0130000E+00  5.60107102424E-01
  9 3.0230000E-01  5.69941309942E-01
  s 1
  1 3.0230000E-01  1.00000000000E+00
  p 4
  1 1.7700000E+01  4.30749775899E-02
  2 3.8540000E+00  2.28742613602E-01
  3 1.0460000E+00  5.04989831799E-01
  4 2.7530000E-01  4.64951331673E-01
  p 1
  1 2.7530000E-01  1.00000000000E+00
  d 1
  1 1.1850000E+00  1.00000000000E+00

H 1 0.00000000 -1.43042809 -1.10715266
  s 4
  1 1.3010000E+01 -1.96850444734E-02
  2 1.9620000E+00 -1.37977028830E-01
  3 4.4460000E-01 -4.78148065484E-01
  4 1.2200000E-01 -5.01239336322E-01
  s 1
  1 1.2200000E-01  1.00000000000E+00
  p 1
  1 7.2700000E-01  1.00000000000E+00

 $end

! TRAVIS-CI SMALL

! TRAVIS-CI SKIP
