!   spin orbit coupling in N2O2...various Hso operators tested.
!
!   HSO1:   r.lative E= -0.238, 31935.421 (2), 31935.659
!   HSO2:   r.lative E= -0.088, 31935.421 (2), 31935.509
!   HSO2P:  RELATIVE E= -0.090, 31935.420 (2), 31935.510
!   The run is set up to do the 3rd case, for which the full
!   coupling between the singlet and the upper component of the
!   triplet is 53.58, of which the 1e- portion is 87.23.
!
!   This run takes 7 seconds on 2.66 GHz Cloverton (22 Apr 2015)
!   results have not changed since at least 2001
!
 $CONTRL SCFTYP=none cityp=guga RUNTYP=transitn $END
 $SYSTEM mwords=1 $END
 $BASIS  GBASIS=N31 NGAUSS=6 NDFUNC=1 $END
 $GUESS  GUESS=MOREAD NORB=60 $END 
 $transt operat=hso2p NFZC=11 NOCC=19 NUMVEC=1 NUMCI=2 IROOTS(1)=1,1 
         reclen=6710 skipdm=.false. $END
 $DRT1   GROUP=C1 FORS=.T. Nfzc=11 Ndoc=4 Nval=4 $END
 $DRT2   GROUP=C1 FORS=.T. Nfzc=11 Ndoc=3 Nalp=2 Nval=3 $END
 $gugdia maxham=100 $end
 $DATA
N2O2 6-31G* MCSCF 
C1
N1          7.0    .6265666992   -.7001874655   -.0844797036
N2          7.0   -.6264694346   -.7007864175    .0845522377
O3          8.0  -1.0108189910    .6133994182   -.0526863861
O4          8.0   1.0107338387    .6131117253    .0526228845
 $END

--- OPTIMIZED MCSCF MO-S --- GENERATED AT 11:20:07 CST  4-NOV-1994
N2O2                                                                        
E(MCSCF)=     -258.5484450742,  1 ITERS, E(NUC)=  108.5522256868
 $VEC1   
 1  1 3.89444409E-05 2.09751376E-04 1.67988276E-05-5.96373875E-05 1.43427823E-05
 1  2 6.20772950E-05-9.77043432E-05-1.90332221E-04-3.59326070E-06 4.08846720E-05
 1  3-1.36909591E-04 3.85962002E-06-3.04561982E-05-2.21262449E-06-2.18223087E-05
 1  4 5.31261719E-06 2.19403490E-05 8.02531653E-07-1.20359211E-05-2.13022345E-05
 1  5-2.41741574E-04 4.71471988E-05-8.43327932E-05 1.37749002E-06-9.60860921E-06
 1  6-3.14299361E-05-1.61829765E-05-8.53163447E-06 1.08390593E-06 1.17290582E-05
 1  7 2.11522162E-01 4.35185092E-03 4.43664012E-05-1.84833377E-04 2.14590056E-05
 1  8 9.96476415E-04 3.87921403E-05-5.63818743E-05-2.59507005E-05-8.03979622E-04
 1  9-8.75008310E-04-8.51796305E-04-4.44593557E-05-3.21763569E-05-3.97647927E-06
 1 10 9.72074010E-01 2.02772209E-02-2.91213884E-04-6.33749786E-04-9.64877813E-05
 1 11 3.44500845E-03 3.21375805E-04 6.21013303E-04 1.45210793E-04-3.87368011E-03
 1 12-3.89303867E-03-3.57786797E-03 6.29288772E-05-1.71535728E-04 2.61083667E-06
 2  1-1.19155042E-05-7.14498846E-05-8.63912302E-06 1.40151454E-05 1.68502950E-05
 2  2-2.93819991E-04-8.05634300E-06-6.62390414E-06 1.76793661E-07-2.91939713E-05
 2  3 2.72591059E-05-1.95343408E-05 2.27863818E-05 2.20218626E-06-2.94013063E-06
 2  4 4.01255831E-05 2.19556690E-04-1.88721522E-05-5.93843582E-05-6.10287849E-06
 2  5 1.78634763E-04 8.46906339E-05-1.68863259E-04 3.26072390E-06 4.92504015E-05
 2  6-1.33362898E-04 1.15278460E-05 3.63254282E-05-2.82293337E-06 1.83191798E-05
 2  7 9.72082933E-01 2.03045133E-02 2.99185429E-04-6.10432596E-04 9.62471725E-05
 2  8 3.32996245E-03-3.70956557E-04 7.09511913E-04-1.47954018E-04-3.89102277E-03
 2  9-3.88137717E-03-3.54384650E-03-4.84716277E-05-1.74072940E-04-8.27688493E-07
 2 10-2.11562264E-01-4.47957122E-03 8.40693692E-05 8.58192857E-05 2.04428708E-05
 2 11-4.77155237E-04-1.89488606E-04-3.46329827E-04-3.79396776E-05 8.85672058E-04
 2 12 8.16961371E-04 6.97935203E-04 2.01981853E-05 4.30293209E-05 3.27298206E-06
 3  1 7.16164134E-01 1.75620021E-02-1.33584784E-03 9.23164287E-04 3.22551502E-04
 3  2-2.45481282E-04 5.06189143E-04-7.30758579E-04-2.08283217E-04-2.44040524E-03
 3  3-2.36690651E-03-2.44553236E-03 5.92454942E-06 3.08035768E-05 1.31912675E-05
 3  4 6.90819917E-01 1.69527157E-02 1.29594891E-03 8.87935977E-04-3.04681868E-04
 3  5-1.85817215E-04-4.75419836E-04-6.98003156E-04 2.07207905E-04-2.39049744E-03
 3  6-2.29144520E-03-2.35827200E-03-9.43043017E-06 3.67095646E-05-1.09414464E-05
 3  7-5.43366581E-05 7.85860824E-05-1.89806861E-05 2.28077362E-04-1.04819470E-05
 3  8 4.78643599E-04 1.17018338E-04 2.56204986E-04-1.02537609E-04 3.87259600E-05
 3  9-3.73106268E-04 4.97947581E-05 7.61488833E-05-1.58187344E-05 6.06188525E-05
 3 10-5.53684575E-05 8.87412773E-05 2.30790274E-05 2.35548026E-04 1.16075428E-05
 3 11 4.76582410E-04-1.02884883E-04 2.74907745E-04 1.03430356E-04 3.70198877E-05
 3 12-3.86109520E-04 5.78643549E-05-8.55128767E-05-1.59940640E-05-6.30284469E-05
 4  1-6.91036039E-01-1.65778725E-02 1.11938905E-03-9.55760285E-04-4.81333009E-04
 4  2 1.76238433E-03-8.20976266E-04 9.57562317E-04 3.44464497E-05 1.30144278E-03
 4  3 2.08741326E-03 2.35552268E-03 1.13918353E-04 1.66556538E-04-5.40606043E-05
 4  4 7.16372978E-01 1.71982875E-02 1.16782009E-03 9.87859031E-04-4.92535716E-04
 4  5-1.77234382E-03-8.37736775E-04-9.84944526E-04 4.20086597E-05-1.38838352E-03
 4  6-2.17218237E-03-2.44125650E-03 1.15211937E-04-1.65292410E-04-5.43669181E-05
 4  7-3.20165587E-05 2.64921531E-04-1.01888443E-04 1.74846720E-04-2.82919387E-05
 4  8 7.32668495E-05-3.56464206E-04 4.33424636E-04-1.35207551E-05-5.54983202E-05
 4  9-3.35614383E-04 2.05336189E-04 2.37391402E-04-2.13391498E-06 6.17887772E-05
 4 10 3.00420913E-05-2.62593799E-04-1.01674001E-04-1.67230889E-04-2.81279315E-05
 4 11-5.32942316E-05-3.61036485E-04-4.26590737E-04-1.01989616E-05 5.64064748E-05
 4 12 3.23446305E-04-2.04163434E-04 2.35111538E-04 1.56934700E-06 5.98332751E-05
 5  1-5.01376398E-02 1.03672107E-01 4.02124366E-02-3.96941899E-02 4.24500760E-03
 5  2 6.97931026E-02 2.35565552E-02-4.88635250E-02 4.14281512E-04 5.75449484E-05
 5  3 6.83061649E-03-1.64749077E-03 9.23731364E-03 9.36355869E-04 1.82151557E-03
 5  4-5.00792942E-02 1.03570555E-01-4.00832418E-02-3.96352616E-02-4.26063258E-03
 5  5 6.97508013E-02-2.34736317E-02-4.87641238E-02-4.36045634E-04 6.99055108E-05
 5  6 6.81854624E-03-1.64121432E-03-9.21994852E-03 9.29877952E-04-1.81738009E-03
 5  7-1.49150244E-01 3.49253109E-01-2.00310674E-02 6.01807318E-02-2.94318263E-02
 5  8 3.44397878E-01-7.93983761E-03 3.46315171E-02-1.95286625E-02 4.06346683E-03
 5  9 6.62381783E-03 3.39340631E-03 3.89458008E-04-8.60865391E-04 5.41606201E-04
 5 10-1.49257708E-01 3.49494413E-01 2.01952822E-02 6.03627920E-02 2.95025642E-02
 5 11 3.44651019E-01 8.04386100E-03 3.47564220E-02 1.95804563E-02 4.06075451E-03
 5 12 6.61874286E-03 3.39789215E-03-4.01044476E-04-8.63644617E-04-5.46886722E-04
 6  1 4.09436927E-02-8.68556473E-02-4.64252932E-02 1.80956728E-02 3.84552606E-03
 6  2-6.40239065E-02-1.81741552E-02 4.86964252E-02 5.27960571E-03 5.15041955E-03
 6  3-8.56883380E-03 1.55635106E-03-4.28670135E-03-1.84577707E-03-1.44118030E-03
 6  4-4.09300467E-02 8.68456846E-02-4.64213448E-02-1.80219275E-02 3.85289759E-03
 6  5 6.40191658E-02-1.81536713E-02-4.86622484E-02 5.27746826E-03-5.15500398E-03
 6  6 8.58198657E-03-1.55267107E-03-4.27961286E-03 1.84441251E-03-1.43997552E-03
 6  7-1.56011370E-01 3.62410594E-01-4.97940639E-02 7.41162207E-02-1.94280291E-02
 6  8 3.74379490E-01-2.10905741E-02 4.26035846E-02-1.36927874E-02 1.36746756E-03
 6  9 6.00711102E-03 2.06237642E-03-1.33500802E-03-1.48250305E-03-1.51925964E-04
 6 10 1.55863792E-01-3.62049985E-01-4.98840124E-02-7.41753549E-02-1.94527320E-02
 6 11-3.74073460E-01-2.11398980E-02-4.26481364E-02-1.37125156E-02-1.35374395E-03
 6 12-5.99178296E-03-2.06044264E-03-1.31989983E-03 1.48327664E-03-1.47786555E-04
 7  1-1.33929572E-01 2.93303318E-01 1.17282119E-01-1.50760378E-01-1.35029604E-02
 7  2 3.34094209E-01 9.45957499E-02-7.50052399E-02-7.81622489E-03 7.51213963E-03
 7  3-1.03113189E-02 3.22649644E-04 1.36603313E-02 2.11798859E-04-1.59980517E-03
 7  4-1.34035811E-01 2.93532579E-01-1.17234537E-01-1.50726321E-01 1.34543353E-02
 7  5 3.34431535E-01-9.45126322E-02-7.50057958E-02 7.77519073E-03 7.49468345E-03
 7  6-1.03076679E-02 3.16897072E-04-1.36429049E-02 2.06428487E-04 1.59948671E-03
 7  7 5.61668604E-02-1.32930583E-01-9.16443293E-03-7.13596439E-02-1.44323010E-03
 7  8-1.70698302E-01-3.66647566E-03-1.93867945E-02-5.38563973E-03-7.85295385E-03
 7  9 1.17613021E-02-1.55862352E-03 3.46119494E-03 2.79492621E-04-1.27400180E-03
 7 10 5.62055710E-02-1.33022321E-01 9.25179721E-03-7.15216249E-02 1.48960739E-03
 7 11-1.70856987E-01 3.71509334E-03-1.94556729E-02 5.43120841E-03-7.85994438E-03
 7 12 1.17704069E-02-1.56162603E-03-3.46808511E-03 2.79189331E-04 1.27214069E-03
 8  1-1.40285968E-01 3.21671553E-01 1.70117021E-01-1.27590192E-01-2.58248637E-02
 8  2 4.96839199E-01 6.52413574E-02-7.08189831E-02-5.38309921E-03-1.10263673E-02
 8  3-3.84962781E-03 6.79057647E-04 2.58045769E-03 3.88283311E-03-1.29396356E-03
 8  4 1.40280083E-01-3.21663614E-01 1.70091145E-01 1.27393884E-01-2.57838137E-02
 8  5-4.96776100E-01 6.51882005E-02 7.07174854E-02-5.35898146E-03 1.10513396E-02
 8  6 3.82437120E-03-6.77186432E-04 2.56455416E-03-3.88334638E-03-1.28668666E-03
 8  7-5.13135196E-02 1.25550899E-01 2.34290482E-02 6.07374684E-02-2.02350313E-02
 8  8 1.98314276E-01 2.84628460E-02-8.76533839E-04-6.68942817E-03 4.48600903E-03
 8  9-1.28426330E-02 3.35254030E-03-1.50938900E-03-7.65805976E-04 2.22322896E-03
 8 10 5.13393504E-02-1.25623589E-01 2.35494596E-02-6.09305055E-02-2.03361419E-02
 8 11-1.98480997E-01 2.85309891E-02 8.03737582E-04-6.74844641E-03-4.50508349E-03
 8 12 1.28605491E-02-3.35700265E-03-1.52461999E-03 7.65475980E-04 2.22844013E-03
 9  1-1.21565496E-02 3.16127242E-02 8.62622590E-04-2.34855226E-03 3.29231278E-02
 9  2 3.50246658E-02-7.22471562E-03-1.43922066E-02-4.94721414E-03-3.77323855E-03
 9  3 1.05114343E-03 4.28417493E-03-3.74969454E-03 2.83686944E-03 1.80404184E-02
 9  4 1.21543842E-02-3.16570317E-02 7.98268693E-04 2.37562894E-03 3.19921761E-02
 9  5-3.50700776E-02-7.34995213E-03 1.43120686E-02-5.49823869E-03 3.73984000E-03
 9  6-1.05372137E-03-4.26696088E-03-3.70064186E-03-2.78441971E-03 1.78564160E-02
 9  7-3.82856596E-05 2.26496520E-03-1.56078440E-01 2.64629883E-02 4.37770048E-01
 9  8-1.17585974E-02-1.11068501E-01 2.06689632E-02 3.03867815E-01-1.11021370E-03
 9  9-3.03685719E-03 4.85459711E-03 5.76332846E-03 8.99327884E-03-1.42825091E-02
 9 10 1.08989729E-04-2.46061382E-03-1.57413355E-01-2.67338095E-02 4.41407836E-01
 9 11 1.15772063E-02-1.11955678E-01-2.08516798E-02 3.06296454E-01 1.14065242E-03
 9 12 3.04809345E-03-4.90514722E-03 5.81292231E-03-9.03695037E-03-1.44533522E-02
10  1 4.66713590E-04 5.71365713E-03-1.07330656E-02-3.00885756E-03-8.22100211E-02
10  2 1.43081304E-04-1.31887758E-02 5.77152943E-03-5.45245123E-02 4.09178149E-03
10  3-2.48575208E-04-1.42327135E-03 5.37433332E-03-5.26551714E-03-1.73647910E-02
10  4 5.14991166E-04 5.55968616E-03 1.07163787E-02-2.99990591E-03 8.23077955E-02
10  5 7.77041616E-05 1.31092041E-02 5.91240204E-03 5.44670121E-02 4.10741793E-03
10  6-2.59462631E-04-1.45460904E-03-5.39219276E-03-5.28171047E-03 1.74771507E-02
10  7-8.40295277E-03 2.32034172E-02-1.77101334E-01 3.03156714E-02 4.38602920E-01
10  8 2.38762203E-02-1.18628064E-01 2.05442163E-02 2.96171992E-01-4.16743421E-03
10  9-5.77462761E-04 5.49087944E-03 5.36238375E-03 4.10222597E-03-1.71433827E-02
10 10-8.42507540E-03 2.32374377E-02 1.75669910E-01 3.01217230E-02-4.34944550E-01
10 11 2.41025848E-02 1.17587860E-01 2.03531918E-02-2.93588588E-01-4.15897205E-03
10 12-5.61658272E-04 5.45616087E-03-5.31619418E-03 4.03303618E-03 1.70543776E-02
11  1 4.59168535E-02-1.46535010E-01 9.05229853E-02-1.97599473E-01-2.10821832E-01
11  2-1.21878527E-01 2.89022953E-02-7.91650981E-02-1.22996424E-01 1.17138947E-02
11  3-1.76759293E-02 6.90637174E-03 9.31022404E-03 2.14962825E-02-2.14699043E-03
11  4-4.46020595E-02 1.45101689E-01 9.39319407E-02 1.83074954E-01-2.19890752E-01
11  5 1.28453482E-01 2.94411350E-02 7.42828436E-02-1.27493185E-01-1.09801839E-02
11  6 1.51043714E-02-6.34837497E-03 8.50014606E-03-2.16385729E-02-2.25599172E-03
11  7-9.83448035E-03 1.52494623E-02 3.81414992E-01 5.79124266E-02 1.58211680E-01
11  8-1.14689319E-02 2.26188533E-01 2.08187877E-02 1.11126594E-01 5.48060050E-03
11  9 6.56442712E-03-1.94053609E-03-1.45648927E-02 1.34548514E-03-3.63646467E-03
11 10 1.15005140E-02-2.01991608E-02 4.13763553E-01-2.21215166E-02 1.72878859E-01
11 11 1.30177149E-02 2.44745661E-01-4.29458580E-03 1.19380643E-01-5.72198723E-03
11 12-8.50026666E-03 3.08313002E-03-1.67680839E-02-1.88914510E-03-4.65244419E-03
12  1 4.86916239E-02-1.63111431E-01-6.13405587E-02-4.13747962E-01 2.16519442E-01
12  2-2.36779455E-01-3.16970613E-03-1.52190242E-01 1.18760810E-01 2.34595590E-02
12  3-3.18986654E-02 1.81048543E-02 1.05967435E-02-1.75932103E-02 7.52307784E-03
12  4-3.73404267E-02 1.35232100E-01-6.15393445E-02 3.24598925E-01 1.51978207E-01
12  5 2.35012928E-01-5.37723630E-03 1.20564945E-01 9.28283264E-02-2.06972014E-02
12  6 2.28167981E-02-1.49023314E-02 4.75970094E-03 1.57657186E-02 6.45331407E-03
12  7 4.07940324E-02-1.25242650E-01-4.29408698E-02 5.24193628E-01-8.76011478E-02
12  8-1.62747523E-01 8.90767306E-03 2.18055366E-01-5.05498989E-02 8.18117909E-03
12  9-7.27433926E-03 1.39653557E-02 9.60528977E-03-1.66279328E-03-2.50388672E-03
12 10-4.12596444E-02 1.27067923E-01 2.08840443E-02-4.71525957E-01-6.65922844E-02
12 11 1.89357430E-01 5.10202329E-02-1.87317495E-01-3.79630236E-02-1.00397793E-02
12 12 1.85667572E-03-1.23321715E-02 3.56833146E-03 4.43144934E-04-5.24509940E-03
13  1 9.97341145E-03-2.82623278E-02-2.52203627E-02-3.67862556E-01 1.32796561E-01
13  2 6.85255685E-02 7.02983617E-02-1.68829809E-01 8.38033116E-02 8.89991399E-03
13  3-3.95172339E-02 1.50238620E-02-1.74566429E-02-1.61147682E-02-7.35342065E-04
13  4-1.95334445E-02 5.73702109E-02-4.82395295E-02 4.43652171E-01 1.60391638E-01
13  5-3.66494958E-02 6.02871611E-02 1.93031156E-01 9.53772599E-02-1.28317577E-02
13  6 4.49544251E-02-1.70644333E-02-1.28160897E-02 1.70368202E-02 3.00307362E-05
13  7 8.68488522E-04-5.49105631E-03-9.92411056E-02-2.35662941E-01-5.55022823E-02
13  8-9.07200361E-02-2.00475711E-02-1.81719775E-01-3.13302228E-02-1.41512346E-03
13  9 2.73459813E-02-1.57113015E-03-8.03870343E-03 2.24900248E-03-5.96145914E-03
13 10 6.03462828E-03-1.68635388E-02-1.00758101E-01 2.94040820E-01-4.91008012E-02
13 11 5.66340926E-02-3.09494227E-02 1.98557400E-01-3.16881762E-02 3.43072121E-03
13 12-2.65555439E-02 2.75381079E-03-7.39414339E-03-2.28568242E-03-5.20665232E-03
14  1 2.52636842E-03-2.98398398E-02 5.10003830E-02-3.31411020E-02 4.83339368E-01
14  2-6.75119808E-02 2.64369721E-02-1.32702425E-02 1.64173993E-01 4.99610787E-03
14  3 5.66123552E-03 1.52816148E-03 5.33648001E-03-2.32232455E-02 1.00133073E-02
14  4-4.96174786E-03-3.77284517E-03-4.44553604E-03-2.57547585E-02-4.29277309E-01
14  5-3.73531262E-02-7.11353172E-03-1.05050249E-02-1.31397840E-01 6.84422956E-03
14  6 5.05947374E-03-1.04058545E-03-2.07945825E-03-1.87770860E-02-8.47850697E-03
14  7-1.08424084E-02 2.75206009E-02 3.18905237E-01-1.48394988E-01 2.26770148E-01
14  8 1.95675686E-02 1.63592711E-01-5.72947240E-02 1.49595191E-01 3.34698845E-03
14  9 4.20397108E-03-1.03515786E-02-8.95029690E-03 3.43587205E-03-5.92609659E-03
14 10-7.90021672E-03 2.01592934E-02-2.56341695E-01-1.53236314E-01-2.19162505E-01
14 11 1.00576630E-02-1.25640320E-01-6.12009853E-02-1.51300499E-01 2.36336298E-03
14 12 4.67253000E-03-1.03219909E-02 6.60902257E-03 2.57147108E-03 3.80977058E-03
15  1 7.52212596E-02-3.50360924E-01 8.01273775E-01 1.07532808E-01-8.17148947E-02
15  2-4.28071855E-01 2.49642237E-01 5.03642121E-02-2.91935576E-02-4.66423735E-02
15  3 6.76299777E-02 2.04360207E-02 3.65053328E-02 5.83620456E-03 3.07975444E-04
15  4-9.47338507E-02 4.05139943E-01 7.95747501E-01 4.50262582E-02 4.11558697E-02
15  5 4.59000930E-01 2.49737977E-01 3.01085554E-03 1.67119001E-02 4.13174510E-02
15  6-5.55253736E-02-2.53486716E-02 4.63795709E-02-1.52794773E-03 2.57160616E-03
15  7 4.87334968E-03-5.20255083E-03-8.07177310E-02-2.27900073E-02-2.03566508E-02
15  8-4.49767947E-02-5.63890454E-02 6.12674518E-03-1.06023766E-02 2.40215991E-03
15  9 2.95874613E-03-2.20728740E-05-1.81640862E-03 7.27238578E-04-8.20759965E-04
15 10 2.11283102E-03-1.67653565E-02-1.04530655E-01 3.46806335E-02-1.06871432E-02
15 11-1.00929102E-02-8.38379825E-02-1.61021328E-02-6.63112719E-03 5.94405448E-04
15 12 2.64453800E-03 5.58241144E-04 3.61629304E-03 1.53112895E-06 1.71836694E-03
16  1 4.76221524E-02-1.08464268E-01 5.04267074E-01 3.77313790E-02 3.20679523E-04
16  2 6.45113200E-02 1.94653300E-01-3.16099360E-02-4.11375539E-03-4.37227216E-02
16  3 2.26493235E-02 8.58092923E-03 1.53087721E-02 7.84118116E-03 4.29595761E-04
16  4 4.74499764E-02-1.06664236E-01-4.79872756E-01 9.67534989E-03 5.99117655E-03
16  5 6.72684955E-02-1.88292784E-01-4.28349709E-02 8.12895252E-03-4.13088599E-02
16  6 1.92700693E-02 8.85471688E-03-1.40369515E-02 8.19086859E-03-2.26894184E-04
16  7-1.03470378E-03-7.27296535E-03 2.97204731E-02 1.78282062E-02-8.77663173E-03
16  8 3.10534698E-03 4.94043342E-02-1.70782494E-02-4.62236310E-03-6.02976899E-03
16  9 3.66925670E-03 4.42035807E-04 9.17833789E-03-9.89315548E-04-1.03329536E-03
16 10 1.43858044E-03-1.47668774E-02-1.44959937E-02 3.22596099E-02 1.35419856E-02
16 11-9.49872820E-03-4.28228594E-02-1.42197859E-02 5.40327500E-03-5.91531047E-03
16 12 4.41820580E-03 9.60255585E-04-9.76146466E-03-1.21546449E-03 7.91808421E-04
17  1-3.98329770E-02 1.19838921E-01 5.19018360E-02 1.51053966E-01-7.91818050E-03
17  2 1.95124000E-01 4.14581819E-02 3.13573006E-02-2.91805245E-02-1.15407931E-02
17  3 6.15915875E-03-6.76928707E-03-1.87260698E-02-2.13680137E-03-6.08897188E-03
17  4-3.56979138E-02 1.05952655E-01-1.01836590E-01 1.53395352E-01-6.22452674E-02
17  5 1.88939660E-01-6.65071943E-02 3.04721580E-02-1.33270670E-02-1.50364313E-02
17  6 6.64434709E-03-4.35413264E-03 1.70180886E-02-8.21091858E-03 4.70339191E-03
17  7 4.53922631E-02-1.47924006E-01 9.19425338E-02 5.67440018E-01 2.30123833E-02
17  8-1.37692025E-01 1.10419532E-01 2.40073227E-01 4.84558945E-02 1.60787063E-02
17  9-2.06093563E-02 7.39329058E-03 7.02782540E-03-6.27010352E-04-4.73516581E-04
17 10 3.88768396E-02-1.29516680E-01-1.44269572E-01 5.14382901E-01-2.76275084E-02
17 11-1.16473944E-01-1.41859812E-01 2.15449588E-01-4.28191956E-02 1.61304580E-02
17 12-1.93958699E-02 6.29365707E-03-3.87467848E-03 5.63845074E-04 2.90263001E-03
18  1-3.33527919E-02 1.38931040E-01-6.99295695E-03 3.26108920E-01 2.80794143E-01
18  2 1.54282567E-01 6.05069048E-03 1.22841862E-01 1.78648154E-01-1.43627961E-02
18  3 1.08331067E-02-7.85686013E-03-2.71825289E-03-2.58105970E-02 5.76417288E-03
18  4 1.83434938E-02-9.36303940E-02-1.49401703E-03-2.39141048E-01 3.76931707E-01
18  5-1.07118239E-01 6.13143247E-03-9.41182550E-02 2.14328460E-01 1.09403320E-02
18  6-6.53834536E-03 4.73964384E-03 4.80896557E-03 2.88974156E-02 8.55699909E-03
18  7-3.07357343E-02 8.52825190E-02 3.17711300E-01-1.09046990E-01 2.86906618E-02
18  8 1.56709817E-01 1.82492986E-01-2.34821579E-02-2.97774366E-02 1.66386663E-03
18  9-1.02998423E-02-3.99180009E-03-1.18009594E-02 4.94120606E-03-9.80968527E-03
18 10 4.14346302E-02-1.18865662E-01 3.31339982E-01 2.18723153E-01 5.69338127E-02
18 11-2.00569764E-01 1.74541837E-01 6.38323256E-02-1.65161927E-02 1.81477204E-03
18 12 8.65773777E-03 6.67947756E-03-1.14195936E-02-5.08118009E-03-9.30527867E-03
19  1 7.11311608E-03-3.12625643E-02-1.01848060E-01-1.41244365E-01-4.44771342E-01
19  2-3.72984278E-02-3.19195723E-02-6.15227323E-02-1.70094333E-01-5.90680411E-04
19  3-4.66394902E-03-6.72073946E-04-6.76477658E-03 1.45606760E-02-1.25015464E-02
19  4 1.02178050E-02-5.69021768E-02-5.71453474E-02-3.83889023E-02 4.45614970E-01
19  5-5.63053907E-02-1.72238385E-02-2.12653471E-02 1.68663462E-01-1.49611777E-02
19  6 1.35131462E-02-9.00349773E-05 1.26404805E-03 1.48767411E-02 1.30482607E-02
19  7-1.06634887E-02 3.20988355E-02 3.19835076E-01-1.25036216E-01 4.84399429E-02
19  8 3.18317911E-02 2.10828022E-01-3.24173228E-02 8.08707165E-03 5.20182495E-03
19  9-2.25138412E-03-5.46458542E-03-1.40279770E-02 5.04192846E-03-7.40339060E-03
19 10-2.03421571E-02 6.43200983E-02-2.92517739E-01-2.52118806E-01-4.98339584E-02
19 11 7.47299479E-02-1.84282329E-01-8.00655814E-02-4.27482134E-03 3.03427255E-03
19 12-1.74699190E-03-8.43099274E-03 1.49914545E-02 5.58882765E-03 6.97702915E-03
20  1-6.22043807E-02 1.99183676E-01-6.36136873E-02 4.59192550E-01-4.71350167E-02
20  2 1.11973800E-01-3.04240513E-02 1.65891168E-01-2.07321866E-02-2.18355119E-03
20  3 2.59799050E-02-1.55219923E-02-2.76663519E-02 3.20889945E-03 3.60189984E-03
20  4-4.87060708E-02 1.29946199E-01-1.91253737E-01 5.46143891E-01 2.48939925E-02
20  5 5.37124108E-02-5.62421749E-02 1.99162129E-01 4.56738006E-03-2.17166738E-02
20  6 4.81905648E-02-1.11148640E-02 1.85015130E-02 1.55653565E-03-3.46039290E-03
20  7 2.75268383E-02-8.75953268E-02-7.16416630E-02 9.99988950E-02-2.61388203E-02
20  8-2.01862096E-01-1.82964529E-02-2.25785549E-02 5.00106093E-03 4.75010006E-03
20  9 2.31369270E-02 4.50128706E-03-8.91419383E-03-1.03800034E-03-4.02204792E-03
20 10 1.46949779E-02-4.56148425E-02 9.20988518E-02-7.37658008E-02 2.38987060E-02
20 11-1.54942182E-01 4.08888398E-02-9.30856541E-02 7.05215722E-04 2.42332653E-03
20 12 2.58928188E-02 7.47765053E-04 1.15836040E-02 1.04820010E-04 4.64160972E-03
21  1-6.15908424E-02 4.56261971E-02 2.99346553E-01-1.71844208E-01-3.46496082E-02
21  2 2.85455056E+00-2.29345084E+00 4.89526089E-01 3.45662418E-01 1.67194640E-01
21  3 1.15978025E-02-2.66023451E-02 3.00589511E-03-2.32549860E-02 3.23850586E-03
21  4 6.16185333E-02-4.51548595E-02 2.99438962E-01 1.71790942E-01-3.45905983E-02
21  5-2.85449501E+00-2.29346264E+00-4.90964204E-01 3.45405290E-01-1.66999853E-01
21  6-1.15238284E-02 2.66706753E-02 2.67505649E-03 2.32426069E-02 3.26081068E-03
21  7-6.42508713E-03-1.18423203E-01 9.41483998E-02 2.97346660E-02-3.99033911E-03
21  8 4.49350910E-01 2.32049191E-01-1.73662778E-01-3.72680367E-03-1.72786133E-02
21  9-4.93391949E-02-4.31495935E-02-2.82090051E-02-6.13858650E-03 2.94763764E-03
21 10 6.43456934E-03 1.18611450E-01 9.40081566E-02-2.97145058E-02-3.99679204E-03
21 11-4.49945665E-01 2.32787205E-01 1.73918143E-01-3.85957924E-03 1.72142248E-02
21 12 4.94462822E-02 4.32043746E-02-2.83416885E-02 6.14367840E-03 2.96577455E-03
22  1-2.40323794E-02-4.30488501E-02-1.12090893E-01-3.39614399E-01-7.79153245E-04
22  2 8.43571845E-01 4.70470719E-01 1.02946550E+00 1.00538319E-01 1.62242541E-02
22  3 2.92274301E-02-1.07551847E-02 7.59036232E-02-1.04409180E-03 8.06853997E-03
22  4-2.39528624E-02-4.24166587E-02 1.12083202E-01-3.39418230E-01 6.25501713E-04
22  5 8.38952476E-01-4.68024130E-01 1.02206395E+00-1.00220512E-01 1.65394032E-02
22  6 2.87396550E-02-1.05963949E-02-7.56781615E-02-1.10567410E-03-8.04106025E-03
22  7 2.67052814E-02-1.71628555E-01 7.33504306E-02-1.33747336E-01 1.18985013E-02
22  8-5.98764260E-01-2.22767976E-01 7.45602312E-01-7.99364037E-02-4.08055622E-02
22  9-1.65911756E-01-1.51876705E-02 7.49332649E-02-6.25166066E-03 2.10454036E-02
22 10 2.68482033E-02-1.71953994E-01-7.39440843E-02-1.33902239E-01-1.18120521E-02
22 11-6.04495776E-01 2.23940504E-01 7.49336418E-01 8.04212229E-02-4.08466610E-02
22 12-1.66486978E-01-1.51020195E-02-7.51450854E-02-6.26283165E-03-2.11036888E-02
23  1-7.62309875E-04-6.64000741E-01-2.24567358E-01 2.02452154E-01 6.56898774E-02
23  2 8.80905920E-01 2.19020417E-01-2.00596009E-01-1.15271098E-01-1.62517955E-01
23  3-1.61728248E-01-1.20865872E-01-5.39947266E-02 8.31059173E-03-5.49880642E-04
23  4-3.88515362E-04-6.62315330E-01 2.23939816E-01 2.04723493E-01-6.71777342E-02
23  5 8.65940638E-01-2.17688780E-01-2.19002398E-01 1.17781287E-01-1.62180750E-01
23  6-1.62249412E-01-1.20424242E-01 5.39867408E-02 8.08944564E-03 5.07171655E-04
23  7-3.42996198E-03-3.72983985E-01-7.77673665E-03-4.37914489E-02 1.93608994E-02
23  8 5.53678448E-01 2.22689615E-03 9.09623558E-04-3.67897264E-02-9.55561486E-02
23  9-1.63089828E-01-1.06017962E-01-1.07950326E-02-1.62530783E-03 1.24629157E-02
23 10-3.09466315E-03-3.74274937E-01 5.90168003E-03-4.49076659E-02-1.93123816E-02
23 11 5.43084908E-01 1.84673159E-03 9.81089945E-03 3.78353400E-02-9.58053069E-02
23 12-1.64487584E-01-1.05885072E-01 1.02770437E-02-1.59389224E-03-1.25431141E-02
24  1-3.48104455E-02-1.50605491E-01-7.98455905E-02-2.29915596E-01-1.88291436E-01
24  2 1.34378569E+00 2.52761810E-01 1.86431029E+00 2.78238658E-01-4.96667257E-02
24  3 5.91044617E-02-3.88670570E-02-4.16465455E-03 3.00105656E-02-8.16289568E-03
24  4 3.48701194E-02 1.56669954E-01-8.28034287E-02 2.29234929E-01-1.87499392E-01
24  5-1.35083824E+00 2.56689174E-01-1.86337761E+00 2.76672296E-01 5.10166051E-02
24  6-5.74187791E-02 4.00151582E-02-4.43389742E-03-3.00395426E-02-8.20916880E-03
24  7-3.39590051E-02 1.87709087E-01-2.08725307E-01 1.05418942E-01-1.26975251E-03
24  8 9.69070197E-01 4.31497567E-01-9.27821863E-01 1.04499374E-01 4.76346523E-02
24  9 1.69090194E-01 6.31905434E-03-5.61794676E-02-3.12335426E-03-6.12528262E-03
24 10 3.39835464E-02-1.83400742E-01-2.08455188E-01-1.04517919E-01-1.16753757E-03
24 11-9.76719372E-01 4.31763253E-01 9.26892860E-01 1.04012659E-01-4.65171537E-02
24 12-1.67114851E-01-5.07915354E-03-5.61019072E-02 3.17912334E-03-5.94018236E-03
25  1-1.03537885E-02-5.65134436E-02 4.53853911E-02-1.19993958E-01 6.15005889E-01
25  2 3.79271789E-01-1.77845295E-02 5.69683818E-01-5.77900500E-01-4.25141726E-02
25  3 2.45944534E-03 1.07453500E-02-2.60616610E-03-6.43829327E-02 3.11519641E-02
25  4 1.03564039E-02 5.67372405E-02 4.50250196E-02 1.20203390E-01 6.15213182E-01
25  5-3.79113015E-01-1.72210493E-02-5.69651669E-01-5.78456164E-01 4.25295072E-02
25  6-2.36851863E-03-1.06662485E-02-2.55030224E-03 6.43947613E-02 3.11542111E-02
25  7-7.17132130E-03 4.64955440E-02-6.10644368E-02 4.25168611E-02 1.83380931E-01
25  8 2.34715594E-01 1.22654800E-01-2.27945765E-01 1.19453454E-02 1.47349626E-02
25  9 3.04584905E-02 9.94621305E-03-1.22118786E-02-9.07336246E-04-2.85809393E-02
25 10 7.18285503E-03-4.61424325E-02-6.09824696E-02-4.24057115E-02 1.83260312E-01
25 11-2.35833700E-01 1.22806777E-01 2.27948950E-01 1.19092778E-02-1.46562024E-02
25 12-3.02419788E-02-9.85482744E-03-1.21922778E-02 8.73907538E-04-2.87078479E-02
26  1-3.20957768E-02-2.35166762E-01 3.72625964E-01-2.44413138E-02-3.03411969E-01
26  2 2.89132398E-01-6.01752308E-01 2.25363932E-01 7.29189073E-01-1.41077337E-01
26  3-9.57267261E-03 2.40898593E-02 2.85726267E-02 2.37538459E-02-1.59502426E-02
26  4-3.21132809E-02-2.35427918E-01-3.72459566E-01-2.47046096E-02 3.03295876E-01
26  5 2.89083231E-01 6.00969164E-01 2.26304271E-01-7.28907117E-01-1.41164781E-01
26  6-9.64558603E-03 2.40466860E-02-2.86426128E-02 2.37555284E-02 1.58970161E-02
26  7 9.71285820E-03-2.22795114E-01-5.47095953E-02-1.15779224E-01 1.37636329E-01
26  8 1.23089003E-01-2.02769332E-01 2.85532756E-01 1.16081057E-02-9.36715985E-02
26  9-8.35727018E-02-3.97806277E-02 3.63782718E-03 1.88529051E-02 2.24739674E-04
26 10 9.69970226E-03-2.22280165E-01 5.50751772E-02-1.15733842E-01-1.37787189E-01
26 11 1.22719611E-01 2.02504945E-01 2.85100298E-01-1.18436354E-02-9.35502334E-02
26 12-8.33225109E-02-3.96184406E-02-3.64141968E-03 1.88892762E-02-1.32842457E-04
27  1 1.83465435E-02 1.38214285E-01-3.05826125E-01 1.13554398E-01-4.30062381E-01
27  2-1.09057531E-01 5.86373462E-01-1.97295714E-01 1.00902904E+00 7.92524628E-02
27  3 2.51262864E-02-2.31780484E-02-3.34905907E-02-2.47723838E-02-1.35263127E-02
27  4 1.83448681E-02 1.38374246E-01 3.05592833E-01 1.13495417E-01 4.29964863E-01
27  5-1.08914528E-01-5.85758523E-01-1.97038512E-01-1.00877156E+00 7.92838631E-02
27  6 2.51655360E-02-2.31239216E-02 3.35238789E-02-2.47612949E-02 1.34171968E-02
27  7-3.73914939E-03 8.07230222E-02 3.55833511E-02 5.11472389E-02 9.01634100E-02
27  8-7.06953873E-02 1.63871513E-01-4.81060647E-02 1.16662739E-01 5.24585943E-02
27  9 2.62250416E-02-7.59871239E-04 5.49916996E-03 2.94291696E-02-2.22059395E-02
27 10-3.73276551E-03 8.05530441E-02-3.57201944E-02 5.11350216E-02-9.02532618E-02
27 11-7.05076756E-02-1.63893580E-01-4.79448785E-02-1.16943355E-01 5.24447592E-02
27 12 2.61104473E-02-7.99163977E-04-5.46723870E-03 2.94855942E-02 2.23332822E-02
28  1 2.84492490E-02 3.97839799E-01-2.15564166E-02 3.01055730E-01 6.12415803E-02
28  2-5.97170007E-01 7.24938073E-02-4.57548852E-01-1.29310402E-01 1.12528517E-01
28  3 1.82746516E-01-1.74942822E-02 3.47311585E-02-1.41497290E-02 2.26080501E-02
28  4 2.83791326E-02 3.97475988E-01 2.15054501E-02 3.00177392E-01-6.09370284E-02
28  5-5.97686401E-01-7.30112563E-02-4.55609440E-01 1.28914086E-01 1.12396001E-01
28  6 1.82304690E-01-1.74201381E-02-3.45878216E-02-1.41224130E-02-2.24271780E-02
28  7-4.56354940E-03-3.48109761E-01-1.39507678E-02-3.98526841E-01-7.33555361E-02
28  8 9.07635941E-01 7.90046503E-02 3.85482484E-01 5.31246788E-02-1.47889455E-01
28  9-3.26677876E-02-1.79920751E-01 6.18419436E-03-4.40512811E-04-1.98087948E-02
28 10-4.51970403E-03-3.49236170E-01 1.33527384E-02-3.99738002E-01 7.23846512E-02
28 11 9.10057152E-01-7.77761393E-02 3.87891845E-01-5.19282294E-02-1.48260049E-01
28 12-3.31074156E-02-1.80436260E-01-6.01726384E-03-5.20501844E-04 1.98030004E-02
29  1 4.19816873E-03 1.84551757E-02 5.44973343E-02 1.33983888E-01 1.30551071E-01
29  2 1.19427352E-01-2.57304808E-01-3.02337541E-01-2.69594593E-01 7.61706201E-03
29  3 4.26802832E-02-6.33705358E-03 2.81894956E-02-3.47707090E-02 5.19015128E-02
29  4-4.29649789E-03-1.98914221E-02 5.44664058E-02-1.34686141E-01 1.30703108E-01
29  5-1.17013334E-01-2.57069272E-01 3.03732792E-01-2.69559176E-01-8.10782517E-03
29  6-4.31773215E-02 6.36107653E-03 2.81835843E-02 3.46925129E-02 5.21416958E-02
29  7 3.63007554E-03 2.75151910E-01-6.58569014E-02 1.32426601E-01-5.61865586E-01
29  8-6.18927802E-01 1.33418156E-01-1.22755177E-01 6.63672838E-01 9.26124142E-02
29  9 7.13206165E-02 1.09077373E-01 2.76081191E-02 4.29086835E-02 1.63642943E-02
29 10-3.59894528E-03-2.73869558E-01-6.61413783E-02-1.31295993E-01-5.62150835E-01
29 11 6.15710552E-01 1.34075953E-01 1.22203457E-01 6.64195764E-01-9.21652413E-02
29 12-7.12418849E-02-1.08448383E-01 2.76230184E-02-4.29205952E-02 1.63450011E-02
30  1-6.92408907E-03-2.96559836E-01 6.51293106E-02 3.12360571E-01-4.57169407E-02
30  2 1.66566786E+00-1.09760297E+00-8.43300393E-01 2.64946562E-01-2.82459594E-02
30  3 9.31505379E-03-9.06966731E-02 8.86910455E-03 1.49955104E-02-5.64056916E-03
30  4 6.83422199E-03 2.95212809E-01 6.51428146E-02-3.12700864E-01-4.56673835E-02