!   NiCl diatomic
!   This is an example from Dima's paper on SO-MCQDPT, see Table I of
!   D.G.Fedorov, J.P.Finley  Phys.Rev.A  64, 042502(2001).
!
!   CAS AND MCQDPT LEVELS IN CM-1
!   N OMEGA & E(CAS)   OMEGA & E(MCQDPT)       E(CAS)           E(MCQDPT)
!   1  2.5     0.0000  2.5       0.0000  -1957.6510283503  -1957.8016736545
!   2  2.5     0.0000  2.5       0.0000  -1957.6510283503  -1957.8016736545
!   3  1.5   824.4318  1.5     814.7820  -1957.6472720267  -1957.7979612977
!   4  1.5   824.4318  1.5     814.7820  -1957.6472720267  -1957.7979612977
!
!   This run takes 7 seconds on 2.66 GHz Cloverton (22 Apr 2015)
!   results have not changed since 2001
!
!   --------------------------------------------------------------------
!   Rather big energy denominator shifts are input in order to test that
!   option, but this case does not really have a singularity problem.
!   In the absence of a denominator shift, the MCDPT result is 813.9069,
!   and the matrix element reported in the paper as 407.0 in Table I
!   will print out as 406.954.
!
 $contrl scftyp=none cityp=none mplevl=2 runtyp=transitn mult=2
         ispher=+1 coord=hint $end
 $SYSTEM mwords=5 memddi=5 $END
 $basis  gbasis=midi npfunc=1 ndfunc=1 $end
 $GUESS  GUESS=moread norb=42 norder=0 iorder(24)=26,25,24 $end

 $transt OPERAT=hso2 NOCC=24 NUMVEC=-1 NUMCI=1 iroots(1)=2 nfzc=14 parmp=3 $end
 $MCSCF  fullnr=.t. MAXIT=60 cistep=guga fcore=.f. $END
 $DRT    GROUP=C1 FORS=.T. NDOC=8 NALP=1 NVAL=1 NMCC=14 $END	
 $mrmp   rdvecs=.true. $end
 $MCQD1  istsym=1 nosym=1 mult=2 nmofzc=14 nmodoc=0 nmoact=10
         wstate(1)=1,1 edshft(1)=0.2,1.0 thrcon=1e-8 thrgen=1e-10 $END

 $DATA
NiCl...geometry optimized by TRUDGE
Cnv 2

Ni         28.0       lc     0 0  0 - o k
Cl         17.0       lc   2.1188993398 90 0 + o k i
 $end
--- OPTIMIZED MCSCF MO-S --- GENERATED AT 22:13:09 CST 13-MAR-2001
NiCl...E(MCSCF)= -1957.6491501071, 10 ITERS, E(NUC)=  118.8769876449
 $VEC1
 1  1 9.84118732E-01 5.50814515E-02 0.00000000E+00 0.00000000E+00-9.16627370E-06
 1  2-1.44178379E-02 0.00000000E+00 0.00000000E+00 4.26159254E-05 1.49090940E-05
 1  3 1.49090877E-05-2.98181817E-05 0.00000000E+00 0.00000000E+00 0.00000000E+00
 1  4-4.48261403E-05-4.48261336E-05 8.96522739E-05 0.00000000E+00 0.00000000E+00
 1  5 0.00000000E+00 3.38607064E-03-1.53828269E-03 0.00000000E+00 0.00000000E+00
 1  6-6.08882897E-05-2.46321781E-05 7.28238048E-06 0.00000000E+00 0.00000000E+00
 1  7-1.64571723E-04 5.17666889E-04-1.77074704E-04 0.00000000E+00 0.00000000E+00
 1  8 1.51540584E-03 0.00000000E+00 0.00000000E+00-1.52474089E-03-6.19615987E-05
 1  9-6.19615988E-05 1.23923198E-04 0.00000000E+00 0.00000000E+00 0.00000000E+00
 2  1-3.53908743E-05 4.53733719E-05 0.00000000E+00 0.00000000E+00-1.07940437E-04
 2  2-6.30776200E-04 0.00000000E+00 0.00000000E+00 3.86615012E-04-1.54545194E-05
 2  3-1.54545197E-05 3.09090392E-05 0.00000000E+00 0.00000000E+00 0.00000000E+00
 2  4 1.34338499E-04 1.34338499E-04-2.68676998E-04 0.00000000E+00 0.00000000E+00
 2  5 0.00000000E+00-2.94378873E-03-1.10934159E-03 0.00000000E+00 0.00000000E+00
 2  6 3.58436234E-03 9.86134190E-01 4.82040045E-02 0.00000000E+00 0.00000000E+00
 2  7-7.21980615E-04 2.46735424E-02-1.75855161E-02 0.00000000E+00 0.00000000E+00
 2  8 4.60783656E-03 0.00000000E+00 0.00000000E+00-2.39778199E-03-1.76386489E-04
 2  9-1.76386488E-04 3.52772977E-04 0.00000000E+00 0.00000000E+00 0.00000000E+00
 3  1-3.28290302E-01 1.04188774E+00 0.00000000E+00 0.00000000E+00-5.09702315E-03
 3  2-1.24885573E-02 0.00000000E+00 0.00000000E+00 3.12701053E-02 6.00448736E-05
 3  3 6.00448666E-05-1.20089740E-04 0.00000000E+00 0.00000000E+00 0.00000000E+00
 3  4 4.33186829E-05 4.33186901E-05-8.66373730E-05 0.00000000E+00 0.00000000E+00
 3  5 0.00000000E+00-1.94384529E-03 5.54134407E-04 0.00000000E+00 0.00000000E+00
 3  6 4.83678454E-05 7.88896038E-04-3.16542437E-03 0.00000000E+00 0.00000000E+00
 3  7 1.38375537E-03-5.75996472E-03-4.94549930E-03 0.00000000E+00 0.00000000E+00
 3  8-2.08516398E-03 0.00000000E+00 0.00000000E+00-2.91264368E-03 6.59715676E-05
 3  9 6.59715668E-05-1.31943134E-04 0.00000000E+00 0.00000000E+00 0.00000000E+00
 4  1 3.54165453E-03-1.22230461E-02 0.00000000E+00 0.00000000E+00 9.89299839E-01
 4  2 1.47985173E-02 0.00000000E+00 0.00000000E+00 3.10892841E-02 1.31365509E-05
 4  3 1.31365554E-05-2.62731063E-05 0.00000000E+00 0.00000000E+00 0.00000000E+00
 4  4 1.64818241E-04 1.64818236E-04-3.29636477E-04 0.00000000E+00 0.00000000E+00
 4  5 0.00000000E+00-2.42701267E-03 1.44803480E-03 0.00000000E+00 0.00000000E+00
 4  6-5.02736114E-03-6.83315769E-04 2.19467385E-03 0.00000000E+00 0.00000000E+00
 4  7-1.14109485E-03 6.50196939E-03 2.28876195E-03 0.00000000E+00 0.00000000E+00
 4  8 5.06952962E-03 0.00000000E+00 0.00000000E+00-1.87320166E-03-1.00346680E-03
 4  9-1.00346679E-03 2.00693359E-03 0.00000000E+00 0.00000000E+00 0.00000000E+00
 5  1 0.00000000E+00 0.00000000E+00 1.00445138E+00 0.00000000E+00 0.00000000E+00
 5  2 0.00000000E+00-1.41312503E-02 0.00000000E+00 0.00000000E+00 0.00000000E+00
 5  3 0.00000000E+00 0.00000000E+00 0.00000000E+00-1.09229585E-03 0.00000000E+00
 5  4 0.00000000E+00 0.00000000E+00 0.00000000E+00 0.00000000E+00-1.05891404E-03
 5  5 0.00000000E+00 0.00000000E+00 0.00000000E+00-4.20570148E-03 0.00000000E+00
 5  6 0.00000000E+00 0.00000000E+00 0.00000000E+00-4.50003641E-03 0.00000000E+00
 5  7 0.00000000E+00 0.00000000E+00 0.00000000E+00 8.49627862E-03 0.00000000E+00
 5  8 0.00000000E+00 7.47149919E-03 0.00000000E+00 0.00000000E+00 0.00000000E+00
 5  9 0.00000000E+00 0.00000000E+00 0.00000000E+00 6.08614376E-04 0.00000000E+00
 6  1 0.00000000E+00 0.00000000E+00 0.00000000E+00 1.00445145E+00 0.00000000E+00
 6  2 0.00000000E+00 0.00000000E+00-1.41316992E-02 0.00000000E+00 0.00000000E+00
 6  3 0.00000000E+00 0.00000000E+00 0.00000000E+00 0.00000000E+00-1.09269506E-03
 6  4 0.00000000E+00 0.00000000E+00 0.00000000E+00 0.00000000E+00 0.00000000E+00
 6  5-1.05930783E-03 0.00000000E+00 0.00000000E+00 0.00000000E+00-4.20525685E-03
 6  6 0.00000000E+00 0.00000000E+00 0.00000000E+00 0.00000000E+00-4.50178744E-03
 6  7 0.00000000E+00 0.00000000E+00 0.00000000E+00 0.00000000E+00 8.49841504E-03
 6  8 0.00000000E+00 0.00000000E+00 7.47388097E-03 0.00000000E+00 0.00000000E+00
 6  9 0.00000000E+00 0.00000000E+00 0.00000000E+00 0.00000000E+00 6.08764672E-04
 7  1 2.86218479E-04-1.07956757E-03 0.00000000E+00 0.00000000E+00 1.17215448E-03
 7  2 2.34710803E-03 0.00000000E+00 0.00000000E+00-3.02248841E-03-5.97144341E-05
 7  3-5.97115093E-05 1.19425943E-04 0.00000000E+00 0.00000000E+00 0.00000000E+00
 7  4 3.04474040E-05 3.04499960E-05-6.08974000E-05 0.00000000E+00 0.00000000E+00
 7  5 0.00000000E+00-3.66995001E-04-5.63097399E-05 0.00000000E+00 0.00000000E+00
 7  6 6.22835183E-04-2.98768620E-01 1.02859624E+00 0.00000000E+00 0.00000000E+00
 7  7 2.02973335E-03-6.94838092E-03-1.79779596E-03 0.00000000E+00 0.00000000E+00
 7  8 1.53871206E-03 0.00000000E+00 0.00000000E+00 5.24772721E-04-1.35280752E-04
 7  9-1.35280732E-04 2.70561485E-04 0.00000000E+00 0.00000000E+00 0.00000000E+00
 8  1-1.08437278E-04-3.24172294E-04 0.00000000E+00 0.00000000E+00-8.77352627E-04
 8  2-3.36334231E-03 0.00000000E+00 0.00000000E+00 2.55029949E-03-6.86123195E-04
 8  3-6.86123195E-04 1.37224639E-03 0.00000000E+00 0.00000000E+00 0.00000000E+00
 8  4 2.68808698E-03 2.68808698E-03-5.37617396E-03 0.00000000E+00 0.00000000E+00
 8  5 0.00000000E+00-3.46113800E-02 9.60280276E-03 0.00000000E+00 0.00000000E+00
 8  6 2.52408997E-02 2.09773172E-04-5.29488957E-03 0.00000000E+00 0.00000000E+00
 8  7 9.82645428E-01 1.71415657E-02-4.05631570E-02 0.00000000E+00 0.00000000E+00
 8  8 4.50431422E-02 0.00000000E+00 0.00000000E+00 2.26460106E-02-2.01516589E-03
 8  9-2.01516589E-03 4.03033178E-03 0.00000000E+00 0.00000000E+00 0.00000000E+00
 9  1 0.00000000E+00 0.00000000E+00 7.02724439E-04 0.00000000E+00 0.00000000E+00
 9  2 0.00000000E+00-1.70589783E-03 0.00000000E+00 0.00000000E+00 0.00000000E+00
 9  3 0.00000000E+00 0.00000000E+00 0.00000000E+00-3.67806253E-04 0.00000000E+00
 9  4 0.00000000E+00 0.00000000E+00 0.00000000E+00 0.00000000E+00 1.35639666E-03
 9  5 0.00000000E+00 0.00000000E+00 0.00000000E+00-7.06093886E-03 0.00000000E+00
 9  6 0.00000000E+00 0.00000000E+00 0.00000000E+00 9.88700123E-01 0.00000000E+00
 9  7 0.00000000E+00 0.00000000E+00 0.00000000E+00 1.57317637E-02 0.00000000E+00
 9  8 0.00000000E+00 3.20669525E-02 0.00000000E+00 0.00000000E+00 0.00000000E+00
 9  9 0.00000000E+00 0.00000000E+00 0.00000000E+00 9.44013048E-04 0.00000000E+00
10  1 0.00000000E+00 0.00000000E+00 0.00000000E+00 7.05441325E-04 0.00000000E+00
10  2 0.00000000E+00 0.00000000E+00-1.71292555E-03 0.00000000E+00 0.00000000E+00
10  3 0.00000000E+00 0.00000000E+00 0.00000000E+00 0.00000000E+00-3.68398500E-04
10  4 0.00000000E+00 0.00000000E+00 0.00000000E+00 0.00000000E+00 0.00000000E+00
10  5 1.35585749E-03 0.00000000E+00 0.00000000E+00 0.00000000E+00-7.06084082E-03
10  6 0.00000000E+00 0.00000000E+00 0.00000000E+00 0.00000000E+00 9.88699825E-01
10  7 0.00000000E+00 0.00000000E+00 0.00000000E+00 0.00000000E+00 1.57322624E-02
10  8 0.00000000E+00 0.00000000E+00 3.20674918E-02 0.00000000E+00 0.00000000E+00
10  9 0.00000000E+00 0.00000000E+00 0.00000000E+00 0.00000000E+00 9.44062291E-04
11  1 1.05980605E-01-3.94526262E-01 0.00000000E+00 0.00000000E+00-1.98774702E-01
11  2 9.44554528E-01 0.00000000E+00 0.00000000E+00 5.27822648E-01-9.69293578E-04
11  3-9.69293553E-04 1.93858713E-03 0.00000000E+00 0.00000000E+00 0.00000000E+00
11  4-1.37030416E-04-1.37030442E-04 2.74060858E-04 0.00000000E+00 0.00000000E+00
11  5 0.00000000E+00-1.50216188E-02 5.59240792E-03 0.00000000E+00 0.00000000E+00
11  6-8.27327021E-04 5.17480946E-03-2.06304922E-02 0.00000000E+00 0.00000000E+00
11  7 7.13014394E-03-3.42142157E-02-2.98852010E-02 0.00000000E+00 0.00000000E+00
11  8-1.20390297E-02 0.00000000E+00 0.00000000E+00-1.39435455E-02 5.09604568E-05
11  9 5.09604528E-05-1.01920910E-04 0.00000000E+00 0.00000000E+00 0.00000000E+00
12  1-9.82294995E-03 3.75852386E-02 0.00000000E+00 0.00000000E+00-1.01720902E-01
12  2-8.43640712E-02 0.00000000E+00 0.00000000E+00 2.69832087E-01 4.05177943E-03
12  3 4.05177946E-03-8.10355889E-03 0.00000000E+00 0.00000000E+00 0.00000000E+00
12  4 6.04957210E-03 6.04957207E-03-1.20991442E-02 0.00000000E+00 0.00000000E+00
12  5 0.00000000E+00-5.59050618E-03-5.49228409E-04 0.00000000E+00 0.00000000E+00
12  6 8.64522856E-03-8.40821905E-02 3.35153327E-01 0.00000000E+00 0.00000000E+00
12  7-2.39707364E-02 5.71340398E-01 4.63980551E-01 0.00000000E+00 0.00000000E+00
12  8 5.19018794E-02 0.00000000E+00 0.00000000E+00 3.67952821E-02 6.08023125E-03
12  9 6.08023130E-03-1.21604626E-02 0.00000000E+00 0.00000000E+00 0.00000000E+00
13  1 0.00000000E+00 0.00000000E+00 0.00000000E+00-8.56416239E-02 0.00000000E+00
13  2 0.00000000E+00 0.00000000E+00 2.27443567E-01 0.00000000E+00 0.00000000E+00
13  3 0.00000000E+00 0.00000000E+00 0.00000000E+00 0.00000000E+00-6.18712127E-02
13  4 0.00000000E+00 0.00000000E+00 0.00000000E+00 0.00000000E+00 0.00000000E+00
13  5-6.31020029E-02 0.00000000E+00 0.00000000E+00 0.00000000E+00 9.60281523E-02
13  6 0.00000000E+00 0.00000000E+00 0.00000000E+00 0.00000000E+00-2.68577120E-01
13  7 0.00000000E+00 0.00000000E+00 0.00000000E+00 0.00000000E+00 4.66621879E-01
13  8 0.00000000E+00 0.00000000E+00 5.22718586E-01 0.00000000E+00 0.00000000E+00
13  9 0.00000000E+00 0.00000000E+00 0.00000000E+00 0.00000000E+00 3.20780709E-02
14  1 0.00000000E+00 0.00000000E+00-8.56144102E-02 0.00000000E+00 0.00000000E+00
14  2 0.00000000E+00 2.27369885E-01 0.00000000E+00 0.00000000E+00 0.00000000E+00
14  3 0.00000000E+00 0.00000000E+00 0.00000000E+00-6.18725799E-02 0.00000000E+00
14  4 0.00000000E+00 0.00000000E+00 0.00000000E+00 0.00000000E+00-6.31034273E-02
14  5 0.00000000E+00 0.00000000E+00 0.00000000E+00 9.60300718E-02 0.00000000E+00
14  6 0.00000000E+00 0.00000000E+00 0.00000000E+00-2.68582671E-01 0.00000000E+00
14  7 0.00000000E+00 0.00000000E+00 0.00000000E+00 4.66630305E-01 0.00000000E+00
14  8 0.00000000E+00 5.22728009E-01 0.00000000E+00 0.00000000E+00 0.00000000E+00
14  9 0.00000000E+00 0.00000000E+00 0.00000000E+00 3.20785926E-02 0.00000000E+00
15  1-4.78031207E-02 1.82912927E-01 0.00000000E+00 0.00000000E+00-2.93927351E-01
15  2-5.27572797E-01 0.00000000E+00 0.00000000E+00 8.53558291E-01-8.07545482E-02
15  3-6.07838104E-02 1.41538359E-01 0.00000000E+00 0.00000000E+00 0.00000000E+00
15  4-7.29331442E-02-5.54236156E-02 1.28356760E-01 0.00000000E+00 0.00000000E+00
15  5 0.00000000E+00 7.51928007E-03-2.17260085E-02 0.00000000E+00 0.00000000E+00
15  6-2.66137434E-02 2.31028290E-02-9.58435516E-02 0.00000000E+00 0.00000000E+00
15  7-5.27014007E-02-1.56732185E-01-1.45169672E-01 0.00000000E+00 0.00000000E+00
15  8 7.97365549E-02 0.00000000E+00 0.00000000E+00 1.11839493E-01-1.11453304E-02
15  9-1.10124230E-02 2.21577534E-02 0.00000000E+00 0.00000000E+00 0.00000000E+00
16  1 1.40185165E-02-5.54828238E-02 0.00000000E+00 0.00000000E+00 7.27554446E-02
16  2 1.55516057E-01 0.00000000E+00 0.00000000E+00-2.11025010E-01-4.67414620E-01
16  3-5.86786190E-02 5.26093239E-01 0.00000000E+00 0.00000000E+00 0.00000000E+00
16  4-4.08897903E-01-5.05348400E-02 4.59432743E-01 0.00000000E+00 0.00000000E+00
16  5 0.00000000E+00-1.16556314E-01-2.63950465E-02 0.00000000E+00 0.00000000E+00
16  6 2.16434541E-03-7.68088877E-03 2.47870894E-02 0.00000000E+00 0.00000000E+00
16  7-8.90384137E-02 7.37454699E-02-1.82740171E-02 0.00000000E+00 0.00000000E+00
16  8 1.31907700E-01 0.00000000E+00 0.00000000E+00 2.01983455E-01-2.10458933E-02
16  9-1.83257111E-02 3.93716044E-02 0.00000000E+00 0.00000000E+00 0.00000000E+00
17  1 0.00000000E+00 0.00000000E+00 0.00000000E+00-2.39445033E-01 0.00000000E+00
17  2 0.00000000E+00 0.00000000E+00 7.69513144E-01 0.00000000E+00 0.00000000E+00
17  3 0.00000000E+00 0.00000000E+00 0.00000000E+00 0.00000000E+00 4.34457821E-01
17  4 0.00000000E+00 0.00000000E+00 0.00000000E+00 0.00000000E+00 0.00000000E+00
17  5 3.86402273E-01 0.00000000E+00 0.00000000E+00 0.00000000E+00 4.72394110E-03
17  6 0.00000000E+00 0.00000000E+00 0.00000000E+00 0.00000000E+00 3.01878205E-02
17  7 0.00000000E+00 0.00000000E+00 0.00000000E+00 0.00000000E+00-5.57088607E-02
17  8 0.00000000E+00 0.00000000E+00-4.69965987E-02 0.00000000E+00 0.00000000E+00
17  9 0.00000000E+00 0.00000000E+00 0.00000000E+00 0.00000000E+00-2.03915524E-02
18  1 0.00000000E+00 0.00000000E+00 0.00000000E+00 0.00000000E+00 0.00000000E+00
18  2 0.00000000E+00 0.00000000E+00 0.00000000E+00 0.00000000E+00 0.00000000E+00
18  3 0.00000000E+00 0.00000000E+00 6.45342951E-01 0.00000000E+00 0.00000000E+00
18  4 0.00000000E+00 0.00000000E+00 0.00000000E+00 5.65810391E-01 0.00000000E+00
18  5 0.00000000E+00 0.00000000E+00 0.00000000E+00 0.00000000E+00 0.00000000E+00
18  6 0.00000000E+00 0.00000000E+00 0.00000000E+00 0.00000000E+00 0.00000000E+00
18  7 0.00000000E+00 0.00000000E+00 0.00000000E+00 0.00000000E+00 0.00000000E+00
18  8 0.00000000E+00 0.00000000E+00 0.00000000E+00 0.00000000E+00 0.00000000E+00
18  9 0.00000000E+00 0.00000000E+00 4.29482751E-03 0.00000000E+00 0.00000000E+00
19  1-4.52361374E-03 1.84588898E-02 0.00000000E+00 0.00000000E+00-2.30003642E-02
19  2-5.09411273E-02 0.00000000E+00 0.00000000E+00 6.64204457E-02-4.27268732E-01
19  3 6.06945523E-01-1.79676791E-01 0.00000000E+00 0.00000000E+00 0.00000000E+00
19  4-3.73198007E-01 5.33558892E-01-1.60360885E-01 0.00000000E+00 0.00000000E+00
19  5 0.00000000E+00 2.86829042E-02 2.33339165E-02 0.00000000E+00 0.00000000E+00
19  6 2.18374222E-02 2.31024333E-03-6.68928620E-03 0.00000000E+00 0.00000000E+00
19  7 6.23700545E-02-2.54795419E-02 3.71981981E-03 0.00000000E+00 0.00000000E+00
19  8-9.52567729E-02 0.00000000E+00 0.00000000E+00-1.34346860E-01 6.68970741E-03
19  9 1.35725164E-02-2.02622238E-02 0.00000000E+00 0.00000000E+00 0.00000000E+00
20  1 0.00000000E+00 0.00000000E+00-3.17504285E-01 0.00000000E+00 0.00000000E+00
20  2 0.00000000E+00 1.01965213E+00 0.00000000E+00 0.00000000E+00 0.00000000E+00
20  3 0.00000000E+00 0.00000000E+00 0.00000000E+00 1.19042730E-01 0.00000000E+00
20  4 0.00000000E+00 0.00000000E+00 0.00000000E+00 0.00000000E+00 1.08217793E-01
20  5 0.00000000E+00 0.00000000E+00 0.00000000E+00-2.09757996E-02 0.00000000E+00
20  6 0.00000000E+00 0.00000000E+00 0.00000000E+00 6.38710761E-02 0.00000000E+00
20  7 0.00000000E+00 0.00000000E+00 0.00000000E+00-1.08619298E-01 0.00000000E+00
20  8 0.00000000E+00-1.18021677E-01 0.00000000E+00 0.00000000E+00 0.00000000E+00
20  9 0.00000000E+00 0.00000000E+00 0.00000000E+00-1.07627935E-02 0.00000000E+00
21  1-5.06313561E-03 1.47275866E-02 0.00000000E+00 0.00000000E+00 5.97575304E-03
21  2-4.71290914E-02 0.00000000E+00 0.00000000E+00-1.63072415E-02 7.61508179E-02
21  3 1.83984849E-01-2.60135667E-01 0.00000000E+00 0.00000000E+00 0.00000000E+00
21  4 5.43972846E-02 1.48941767E-01-2.03339052E-01 0.00000000E+00 0.00000000E+00
21  5 0.00000000E+00 3.51717838E-01-7.26708880E-02 0.00000000E+00 0.00000000E+00
21  6-1.11524172E-01 8.29660293E-04-4.42343383E-03 0.00000000E+00 0.00000000E+00
21  7-2.33854379E-01 6.93350446E-03 7.57388153E-02 0.00000000E+00 0.00000000E+00
21  8 3.70777058E-01 0.00000000E+00 0.00000000E+00 4.62208676E-01-1.92825450E-02
21  9-1.85648971E-02 3.78474420E-02 0.00000000E+00 0.00000000E+00 0.00000000E+00
22  1 0.00000000E+00 0.00000000E+00 0.00000000E+00-2.15705513E-01 0.00000000E+00
22  2 0.00000000E+00 0.00000000E+00 6.91876253E-01 0.00000000E+00 0.00000000E+00
22  3 0.00000000E+00 0.00000000E+00 0.00000000E+00 0.00000000E+00-4.67874472E-01
22  4 0.00000000E+00 0.00000000E+00 0.00000000E+00 0.00000000E+00 0.00000000E+00
22  5-4.11717639E-01 0.00000000E+00 0.00000000E+00 0.00000000E+00-4.69700641E-02
22  6 0.00000000E+00 0.00000000E+00 0.00000000E+00 0.00000000E+00 7.20696714E-02
22  7 0.00000000E+00 0.00000000E+00 0.00000000E+00 0.00000000E+00-1.15582110E-01
22  8 0.00000000E+00 0.00000000E+00-1.47137280E-01 0.00000000E+00 0.00000000E+00
22  9 0.00000000E+00 0.00000000E+00 0.00000000E+00 0.00000000E+00 1.22258430E-02
23  1-1.68408670E-02 6.20032287E-02 0.00000000E+00 0.00000000E+00 2.71801069E-02
23  2-1.77617785E-01 0.00000000E+00 0.00000000E+00-8.52188457E-02-6.13556130E-02
23  3-8.80261702E-02 1.49381783E-01 0.00000000E+00 0.00000000E+00 0.00000000E+00
23  4-3.65954686E-02-5.99791267E-02 9.65745953E-02 0.00000000E+00 0.00000000E+00
23  5 0.00000000E+00 7.53671366E-01 1.90224025E-01 0.00000000E+00 0.00000000E+00
23  6 4.09125900E-01-7.47354396E-03 3.08265433E-02 0.00000000E+00 0.00000000E+00
23  7 6.90218388E-02 5.28195175E-02 6.17134327E-02 0.00000000E+00 0.00000000E+00
23  8-1.13448141E-01 0.00000000E+00 0.00000000E+00-1.61607810E-01 6.44671694E-03
23  9 6.26921891E-03-1.27159359E-02 0.00000000E+00 0.00000000E+00 0.00000000E+00
24  1 0.00000000E+00 0.00000000E+00 5.53049649E-02 0.00000000E+00 0.00000000E+00
24  2 0.00000000E+00-1.76596473E-01 0.00000000E+00 0.00000000E+00 0.00000000E+00
24  3 0.00000000E+00 0.00000000E+00 0.00000000E+00 6.27286840E-01 0.00000000E+00
24  4 0.00000000E+00 0.00000000E+00 0.00000000E+00 0.00000000E+00 5.54172229E-01
24  5 0.00000000E+00 0.00000000E+00 0.00000000E+00 4.22864263E-02 0.00000000E+00
24  6 0.00000000E+00 0.00000000E+00 0.00000000E+00-4.49697056E-02 0.00000000E+00
24  7 0.00000000E+00 0.00000000E+00 0.00000000E+00 6.82403133E-02 0.00000000E+00
24  8 0.00000000E+00 9.95950006E-02 0.00000000E+00 0.00000000E+00 0.00000000E+00
24  9 0.00000000E+00 0.00000000E+00 0.00000000E+00-2.11994273E-02 0.00000000E+00
25  1 0.00000000E+00 0.00000000E+00 5.43177636E-02 0.00000000E+00 0.00000000E+00
25  2 0.00000000E+00-1.71235655E-01 0.00000000E+00 0.00000000E+00 0.00000000E+00
25  3 0.00000000E+00 0.00000000E+00 0.00000000E+00-1.91405142E-02 0.00000000E+00
25  4 0.00000000E+00 0.00000000E+00 0.00000000E+00 0.00000000E+00-1.34322412E-02
25  5 0.00000000E+00 0.00000000E+00 0.00000000E+00 1.04277386E+00 0.00000000E+00
25  6 0.00000000E+00 0.00000000E+00 0.00000000E+00 9.47460459E-02 0.00000000E+00
25  7 0.00000000E+00 0.00000000E+00 0.00000000E+00-2.08970315E-01 0.00000000E+00
25  8 0.00000000E+00-1.78616121E-01 0.00000000E+00 0.00000000E+00 0.00000000E+00
25  9 0.00000000E+00 0.00000000E+00 0.00000000E+00 3.13015573E-02 0.00000000E+00
26  1 0.00000000E+00 0.00000000E+00 0.00000000E+00 5.43177635E-02 0.00000000E+00
26  2 0.00000000E+00 0.00000000E+00-1.71235655E-01 0.00000000E+00 0.00000000E+00
26  3 0.00000000E+00 0.00000000E+00 0.00000000E+00 0.00000000E+00-1.91405144E-02
26  4 0.00000000E+00 0.00000000E+00 0.00000000E+00 0.00000000E+00 0.00000000E+00
26  5-1.34322413E-02 0.00000000E+00 0.00000000E+00 0.00000000E+00 1.04277386E+00
26  6 0.00000000E+00 0.00000000E+00 0.00000000E+00 0.00000000E+00 9.47460495E-02
26  7 0.00000000E+00 0.00000000E+00 0.00000000E+00 0.00000000E+00-2.08970321E-01
26  8 0.00000000E+00 0.00000000E+00-1.78616127E-01 0.00000000E+00 0.00000000E+00
26  9 0.00000000E+00 0.00000000E+00 0.00000000E+00 0.00000000E+00 3.13015572E-02
27  1 5.34700106E-03-4.45806742E-02 0.00000000E+00 0.00000000E+00-1.82947410E-02
27  2-1.97677680E-02 0.00000000E+00 0.00000000E+00 5.81914091E-02-6.09796565E-03
27  3-6.09796623E-03 1.21959319E-02 0.00000000E+00 0.00000000E+00 0.00000000E+00
27  4-5.05387878E-03-5.05387935E-03 1.01077581E-02 0.00000000E+00 0.00000000E+00
27  5 0.00000000E+00-1.48541808E+00 1.90290716E+00 0.00000000E+00 0.00000000E+00
27  6-4.36727825E-01-7.02223146E-03 4.49612701E-02 0.00000000E+00 0.00000000E+00
27  7-1.99792652E-02 9.47626954E-03 3.82024997E-01 0.00000000E+00 0.00000000E+00
27  8 3.55980714E-02 0.00000000E+00 0.00000000E+00 4.65167504E-02 8.47161461E-03
27  9 8.47161474E-03-1.69432294E-02 0.00000000E+00 0.00000000E+00 0.00000000E+00
28  1 9.63507376E-03-4.86077788E-02 0.00000000E+00 0.00000000E+00 3.77207711E-02
28  2 6.31597872E-02 0.00000000E+00 0.00000000E+00-1.22269051E-01 5.12679841E-02
28  3 5.12679839E-02-1.02535968E-01 0.00000000E+00 0.00000000E+00 0.00000000E+00
28  4 3.62725825E-02 3.62725823E-02-7.25451647E-02 0.00000000E+00 0.00000000E+00
28  5 0.00000000E+00-1.17158778E+00 4.90287732E-01 0.00000000E+00 0.00000000E+00
28  6 1.24183274E+00 2.39679627E-02-1.01015327E-01 0.00000000E+00 0.00000000E+00
28  7-1.60286564E-01-1.75133620E-01-7.27671464E-01 0.00000000E+00 0.00000000E+00
28  8 3.31325302E-01 0.00000000E+00 0.00000000E+00 4.11259313E-01 7.30909366E-03
28  9 7.30909362E-03-1.46181873E-02 0.00000000E+00 0.00000000E+00 0.00000000E+00
29  1-8.77950003E-04 2.91716759E-03 0.00000000E+00 0.00000000E+00 2.42185648E-03
29  2-1.18307383E-02 0.00000000E+00 0.00000000E+00-5.12822484E-03-2.99067391E-02
29  3-2.99067390E-02 5.98134782E-02 0.00000000E+00 0.00000000E+00 0.00000000E+00
29  4-2.15782089E-02-2.15782088E-02 4.31564177E-02 0.00000000E+00 0.00000000E+00
29  5 0.00000000E+00 1.48903209E-01 3.11674813E-01 0.00000000E+00 0.00000000E+00
29  6-5.18381892E-01 1.00194719E-01 1.86752554E-02 0.00000000E+00 0.00000000E+00
29  7-1.05933548E-03-1.88852877E+00 2.34499985E+00 0.00000000E+00 0.00000000E+00
29  8 3.81418196E-01 0.00000000E+00 0.00000000E+00-5.83157412E-01-2.82367760E-02
29  9-2.82367767E-02 5.64735527E-02 0.00000000E+00 0.00000000E+00 0.00000000E+00
30  1 4.11133835E-04-1.29846513E-03 0.00000000E+00 0.00000000E+00-1.36352132E-02
30  2 7.67257544E-03 0.00000000E+00 0.00000000E+00 3.67276432E-02 5.81142861E-02
30  3 5.81142863E-02-1.16228572E-01 0.00000000E+00 0.00000000E+00 0.00000000E+00
30  4 1.32042225E-02 1.32042227E-02-2.64084452E-02 0.00000000E+00 0.00000000E+00
30  5 0.00000000E+00-1.58700268E-01 1.54748062E-01 0.00000000E+00 0.00000000E+00
30  6 5.16664151E-02-3.09814272E-03 3.52656233E-03 0.00000000E+00 0.00000000E+00
30  7 3.58007864E-02 4.60880813E-02-5.69294118E-02 0.00000000E+00 0.00000000E+00
30  8-3.17721472E-01 0.00000000E+00 0.00000000E+00 2.90644165E-01-4.92959440E-01
30  9-4.92959439E-01 9.85918879E-01 0.00000000E+00 0.00000000E+00 0.00000000E+00
31  1 0.00000000E+00 0.00000000E+00 0.00000000E+00-3.30751432E-03 0.00000000E+00
31  2 0.00000000E+00 0.00000000E+00 1.19129354E-02 0.00000000E+00 0.00000000E+00
31  3 0.00000000E+00 0.00000000E+00 0.00000000E+00 0.00000000E+00 7.39434861E-02
31  4 0.00000000E+00 0.00000000E+00 0.00000000E+00 0.00000000E+00 0.00000000E+00
31  5-7.07708239E-03 0.00000000E+00 0.00000000E+00 0.00000000E+00-1.07678474E-01
31  6 0.00000000E+00 0.00000000E+00 0.00000000E+00 0.00000000E+00 2.32477298E-02
31  7 0.00000000E+00 0.00000000E+00 0.00000000E+00 0.00000000E+00-2.37645554E-01
31  8 0.00000000E+00 0.00000000E+00 2.30190224E-01 0.00000000E+00 0.00000000E+00
31  9 0.00000000E+00 0.00000000E+00 0.00000000E+00 0.00000000E+00 9.91870357E-01
32  1 0.00000000E+00 0.00000000E+00-3.30751430E-03 0.00000000E+00 0.00000000E+00
32  2 0.00000000E+00 1.19129353E-02 0.00000000E+00 0.00000000E+00 0.00000000E+00
32  3 0.00000000E+00 0.00000000E+00 0.00000000E+00 7.39434861E-02 0.00000000E+00
32  4 0.00000000E+00 0.00000000E+00 0.00000000E+00 0.00000000E+00-7.07708241E-03
32  5 0.00000000E+00 0.00000000E+00 0.00000000E+00-1.07678474E-01 0.00000000E+00
32  6 0.00000000E+00 0.00000000E+00 0.00000000E+00 2.32477299E-02 0.00000000E+00
32  7 0.00000000E+00 0.00000000E+00 0.00000000E+00-2.37645555E-01 0.00000000E+00
32  8 0.00000000E+00 2.30190224E-01 0.00000000E+00 0.00000000E+00 0.00000000E+00
32  9 0.00000000E+00 0.00000000E+00 0.00000000E+00 9.91870357E-01 0.00000000E+00
33  1 0.00000000E+00 0.00000000E+00 0.00000000E+00 0.00000000E+00 0.00000000E+00
33  2 0.00000000E+00 0.00000000E+00 0.00000000E+00 0.00000000E+00 0.00000000E+00
33  3 0.00000000E+00 0.00000000E+00-1.11742203E-02 0.00000000E+00 0.00000000E+00
33  4 0.00000000E+00 0.00000000E+00 0.00000000E+00 1.77342381E-03 0.00000000E+00
33  5 0.00000000E+00 0.00000000E+00 0.00000000E+00 0.00000000E+00 0.00000000E+00
33  6 0.00000000E+00 0.00000000E+00 0.00000000E+00 0.00000000E+00 0.00000000E+00
33  7 0.00000000E+00 0.00000000E+00 0.00000000E+00 0.00000000E+00 0.00000000E+00
33  8 0.00000000E+00 0.00000000E+00 0.00000000E+00 0.00000000E+00 0.00000000E+00
33  9 0.00000000E+00 0.00000000E+00 9.99933442E-01 0.00000000E+00 0.00000000E+00
34  1 0.00000000E+00 0.00000000E+00 0.00000000E+00 0.00000000E+00 0.00000000E+00
34  2-2.26145870E-10 0.00000000E+00 0.00000000E+00-1.94483697E-10 9.67715828E-03
34  3-9.67715884E-03 5.58221518E-10 0.00000000E+00 0.00000000E+00 0.00000000E+00
34  4-1.53582982E-03 1.53582932E-03 4.95682433E-10 0.00000000E+00 0.00000000E+00
34  5 0.00000000E+00 1.19736729E-09 1.83352000E-10 0.00000000E+00 0.00000000E+00
34  6 4.51886758E-10 0.00000000E+00 0.00000000E+00 0.00000000E+00 0.00000000E+00
34  7 1.19851309E-10-7.64911075E-10 1.02321891E-09 0.00000000E+00 0.00000000E+00
34  8 2.31279404E-10 0.00000000E+00 0.00000000E+00-8.80238425E-10-8.65967762E-01
34  9 8.65967763E-01-7.89103351E-10 0.00000000E+00 0.00000000E+00 0.00000000E+00
35  1 0.00000000E+00 0.00000000E+00 0.00000000E+00-4.42392805E-03 0.00000000E+00
35  2 0.00000000E+00 0.00000000E+00 1.41010121E-02 0.00000000E+00 0.00000000E+00
35  3 0.00000000E+00 0.00000000E+00 0.00000000E+00 0.00000000E+00 5.30901245E-02
35  4 0.00000000E+00 0.00000000E+00 0.00000000E+00 0.00000000E+00 0.00000000E+00
35  5 2.51365742E-03 0.00000000E+00 0.00000000E+00 0.00000000E+00-3.93157932E-01
35  6 0.00000000E+00 0.00000000E+00 0.00000000E+00 0.00000000E+00-2.26238676E-01
35  7 0.00000000E+00 0.00000000E+00 0.00000000E+00 0.00000000E+00 2.23732394E+00
35  8 0.00000000E+00 0.00000000E+00-2.06776206E+00 0.00000000E+00 0.00000000E+00
35  9 0.00000000E+00 0.00000000E+00 0.00000000E+00 0.00000000E+00 1.46421614E-01
36  1 0.00000000E+00 0.00000000E+00-4.42392806E-03 0.00000000E+00 0.00000000E+00
36  2 0.00000000E+00 1.41010121E-02 0.00000000E+00 0.00000000E+00 0.00000000E+00
36  3 0.00000000E+00 0.00000000E+00 0.00000000E+00 5.30901246E-02 0.00000000E+00
36  4 0.00000000E+00 0.00000000E+00 0.00000000E+00 0.00000000E+00 2.51365741E-03
36  5 0.00000000E+00 0.00000000E+00 0.00000000E+00-3.93157932E-01 0.00000000E+00
36  6 0.00000000E+00 0.00000000E+00 0.00000000E+00-2.26238676E-01 0.00000000E+00
36  7 0.00000000E+00 0.00000000E+00 0.00000000E+00 2.23732394E+00 0.00000000E+00
36  8 0.00000000E+00-2.06776206E+00 0.00000000E+00 0.00000000E+00 0.00000000E+00
36  9 0.00000000E+00 0.00000000E+00 0.00000000E+00 1.46421614E-01 0.00000000E+00
37  1-8.35505715E-03-5.53876076E-03 0.00000000E+00 0.00000000E+00-2.03183398E-02
37  2-2.03010580E-01 0.00000000E+00 0.00000000E+00 7.07727817E-02-3.08565227E-04
37  3-3.08571880E-04 6.17137108E-04 0.00000000E+00 0.00000000E+00 0.00000000E+00
37  4 1.29883906E-02 1.29883835E-02-2.59767741E-02 0.00000000E+00 0.00000000E+00
37  5 0.00000000E+00-1.32533569E+00 2.88160301E-01 0.00000000E+00 0.00000000E+00
37  6 8.44797299E-01-4.17095897E-02-7.89413586E-02 0.00000000E+00 0.00000000E+00
37  7-3.69370977E-01 9.74091852E-01-1.79290360E+00 0.00000000E+00 0.00000000E+00
37  8 2.85679667E+00 0.00000000E+00 0.00000000E+00-2.15970546E+00-1.08424463E-01
37  9-1.08424463E-01 2.16848925E-01 0.00000000E+00 0.00000000E+00 0.00000000E+00
38  1 0.00000000E+00 0.00000000E+00 0.00000000E+00 0.00000000E+00 0.00000000E+00
38  2-1.24255490E-10 0.00000000E+00 0.00000000E+00 0.00000000E+00 7.41391515E-01
38  3-7.41391516E-01 3.60126705E-10 0.00000000E+00 0.00000000E+00 0.00000000E+00
38  4-7.88691079E-01 7.88691079E-01-2.66060908E-10 0.00000000E+00 0.00000000E+00
38  5 0.00000000E+00-5.64597036E-10 2.37060794E-10 0.00000000E+00 0.00000000E+00
38  6 5.84363414E-10 0.00000000E+00 0.00000000E+00 0.00000000E+00 0.00000000E+00
38  7-1.70771241E-10 5.37258000E-10-9.73070747E-10 0.00000000E+00 0.00000000E+00
38  8 1.31529523E-09 0.00000000E+00 0.00000000E+00-9.76185906E-10 1.10337539E-02
38  9-1.10337541E-02 1.75984466E-10 0.00000000E+00 0.00000000E+00 0.00000000E+00
39  1 0.00000000E+00 0.00000000E+00 0.00000000E+00 0.00000000E+00 0.00000000E+00
39  2 0.00000000E+00 0.00000000E+00 0.00000000E+00 0.00000000E+00 0.00000000E+00
39  3 0.00000000E+00 0.00000000E+00-8.56085182E-01 0.00000000E+00 0.00000000E+00
39  4 0.00000000E+00 0.00000000E+00 0.00000000E+00 9.10702014E-01 0.00000000E+00