!   Spin-orbit coupling in the lowest energy configuration of O2.
!   The 6 levels are from the 3 terms 3-Sigma-g-minus, 1-Delta-g, and
!   1-Sigma-g-plus, from the ...(Pi-g)2 electronic configuration.
!   There are 132 AOs and 114 MOs (7 alpha, 5 beta electrons after MCP)
!   The method used is SO-CASCI.  Toby's spinor code is used, and
!   properties are evaluated for these.  This test from Toby Zeng, 2010.
!
!   CI ENERGY LEVELS IN CM-1 AND CI ABSOLUTE LEVELS IN A.U.
!          N OMEGA      E(CI)         E(CI)
!          1  0.0       0.0000    -31.4326135446
!          2  1.0       7.4283    -31.4325796992
!          3  1.0       7.4283    -31.4325796992
!          4  2.0    4733.5923    -31.4110460790
!          5  2.0    4733.5923    -31.4110460785
!          6  0.0    8425.6998    -31.3942238854
!
!   expected results supplied by Toby for Mayer bond order
!          istno(1) Jz  Bond order
!             1      0       1.321   <--- only value found in this run.
!             2     -1       1.647
!             3      1       1.647
!             4     -2       1.548
!             5      2       1.548
!             6      0       1.230
!   In this run, we obtain just the lowest level's results.
!
!   This run takes 8 seconds on 2.66 GHz Cloverton (22 Apr 2015)
!   results haven't changed since 2010
!
 $contrl scftyp=none cityp=guga mult=3 runtyp=transitn pp=mcp ispher=1 $end
 $system mwords=8 $end
 $basis  gbasis=ZFK3-dk3 $end
 $transt operat=hso1 numci=3 numvec=1 nfzc=2 nocc=8
         iroots(1)=2,1,1
         nstate(1)=2,1,1 prtprm=.t.
         parmp=1  nosym=0 istno(1)=1 $end
 $drt1   fors=.t. group=d2h nprt=3 nfzc=2 ndoc=4  nval=2 istsym=1 $end
 $drt2   fors=.t. group=d2h nprt=3 nfzc=2 ndoc=4  nval=2 istsym=2 $end
 $drt3   fors=.t. group=d2h nprt=3 nfzc=2 ndoc=3  nalp=2 nval=1 istsym=2 $end
 $data
molecular oxygen
Dnh 2

O       8  .0000000000    .0000000000    0.6672176853
 $end

--- OPTIMIZED ROHF     MO-S --- GENERATED AT Mon Apr 12 22:33:48 2010
E=      -31.4786432201, E(NUC)=   16.5482891899
 $VEC1  
 1  1-2.24096769E-01-1.18324651E-01-2.56370891E-01-1.81513154E-01-5.37648710E-02
 1  2 2.68827115E-02 0.00000000E+00 0.00000000E+00-5.98572143E-02 0.00000000E+00
 1  3 0.00000000E+00-6.89054793E-02 0.00000000E+00 0.00000000E+00-8.56543069E-02
 1  4 0.00000000E+00 0.00000000E+00-4.46425534E-02 0.00000000E+00 0.00000000E+00
 1  5-1.34669486E-02 0.00000000E+00 0.00000000E+00 1.00972038E-02-1.80085092E-02
 1  6 0.00000000E+00 0.00000000E+00-7.31219371E-03 6.44578276E-03 6.44578276E-03
 1  7-1.28915655E-02 0.00000000E+00 0.00000000E+00 0.00000000E+00 1.24943878E-02
 1  8 1.24943878E-02-2.49887756E-02 0.00000000E+00 0.00000000E+00 0.00000000E+00
 1  9 3.55222681E-04 3.55222681E-04-7.10445361E-04 0.00000000E+00 0.00000000E+00
 1 10 0.00000000E+00 0.00000000E+00 0.00000000E+00-6.68640941E-03 0.00000000E+00
 1 11 4.48537979E-03 0.00000000E+00 4.48537979E-03 0.00000000E+00 0.00000000E+00
 1 12 0.00000000E+00 0.00000000E+00 0.00000000E+00-4.06704649E-03 0.00000000E+00
 1 13 2.72825773E-03 0.00000000E+00 2.72825773E-03 0.00000000E+00 0.00000000E+00
 1 14 0.00000000E+00-2.24096769E-01-1.18324651E-01-2.56370891E-01-1.81513154E-01
 1 15-5.37648710E-02 2.68827115E-02 0.00000000E+00 0.00000000E+00 5.98572143E-02
 1 16 0.00000000E+00 0.00000000E+00 6.89054793E-02 0.00000000E+00 0.00000000E+00
 1 17 8.56543069E-02 0.00000000E+00 0.00000000E+00 4.46425534E-02 0.00000000E+00
 1 18 0.00000000E+00 1.34669486E-02 0.00000000E+00 0.00000000E+00-1.00972038E-02
 1 19-1.80085092E-02 0.00000000E+00 0.00000000E+00 7.31219371E-03 6.44578276E-03
 1 20 6.44578276E-03-1.28915655E-02 0.00000000E+00 0.00000000E+00 0.00000000E+00
 1 21 1.24943878E-02 1.24943878E-02-2.49887756E-02 0.00000000E+00 0.00000000E+00
 1 22 0.00000000E+00 3.55222681E-04 3.55222681E-04-7.10445361E-04 0.00000000E+00
 1 23 0.00000000E+00 0.00000000E+00 0.00000000E+00 0.00000000E+00 6.68640941E-03
 1 24 0.00000000E+00-4.48537979E-03 0.00000000E+00-4.48537979E-03 0.00000000E+00
 1 25 0.00000000E+00 0.00000000E+00 0.00000000E+00 0.00000000E+00 4.06704649E-03
 1 26 0.00000000E+00-2.72825773E-03 0.00000000E+00-2.72825773E-03 0.00000000E+00
 1 27 0.00000000E+00 0.00000000E+00
 2  1 2.42651728E-01 1.36282951E-01 2.92283257E-01 2.85824001E-01 1.09994167E-01
 2  2-5.02683707E-02 0.00000000E+00 0.00000000E+00-5.21143108E-02 0.00000000E+00
 2  3 0.00000000E+00-5.45857131E-02 0.00000000E+00 0.00000000E+00-6.66594665E-02
 2  4 0.00000000E+00 0.00000000E+00-5.71278181E-02 0.00000000E+00 0.00000000E+00
 2  5-3.07844158E-02 0.00000000E+00 0.00000000E+00-5.74785493E-03 5.75286175E-02
 2  6 0.00000000E+00 0.00000000E+00 4.49038751E-03 2.20921648E-03 2.20921648E-03
 2  7-4.41843297E-03 0.00000000E+00 0.00000000E+00 0.00000000E+00 5.15667406E-03
 2  8 5.15667406E-03-1.03133481E-02 0.00000000E+00 0.00000000E+00 0.00000000E+00
 2  9 3.41307642E-03 3.41307642E-03-6.82615283E-03 0.00000000E+00 0.00000000E+00
 2 10 0.00000000E+00 0.00000000E+00 0.00000000E+00-9.15115790E-04 0.00000000E+00
 2 11 6.13878334E-04 0.00000000E+00 6.13878334E-04 0.00000000E+00 0.00000000E+00
 2 12 0.00000000E+00 0.00000000E+00 0.00000000E+00-1.13236640E-03 0.00000000E+00
 2 13 7.59614475E-04 0.00000000E+00 7.59614475E-04 0.00000000E+00 0.00000000E+00
 2 14 0.00000000E+00-2.42651728E-01-1.36282951E-01-2.92283257E-01-2.85824001E-01
 2 15-1.09994167E-01 5.02683707E-02 0.00000000E+00 0.00000000E+00-5.21143108E-02
 2 16 0.00000000E+00 0.00000000E+00-5.45857131E-02 0.00000000E+00 0.00000000E+00
 2 17-6.66594665E-02 0.00000000E+00 0.00000000E+00-5.71278181E-02 0.00000000E+00
 2 18 0.00000000E+00-3.07844158E-02 0.00000000E+00 0.00000000E+00-5.74785493E-03
 2 19-5.75286175E-02 0.00000000E+00 0.00000000E+00 4.49038751E-03-2.20921648E-03
 2 20-2.20921648E-03 4.41843297E-03 0.00000000E+00 0.00000000E+00 0.00000000E+00
 2 21-5.15667406E-03-5.15667406E-03 1.03133481E-02 0.00000000E+00 0.00000000E+00
 2 22 0.00000000E+00-3.41307642E-03-3.41307642E-03 6.82615283E-03 0.00000000E+00
 2 23 0.00000000E+00 0.00000000E+00 0.00000000E+00 0.00000000E+00-9.15115790E-04
 2 24 0.00000000E+00 6.13878334E-04 0.00000000E+00 6.13878334E-04 0.00000000E+00
 2 25 0.00000000E+00 0.00000000E+00 0.00000000E+00 0.00000000E+00-1.13236640E-03
 2 26 0.00000000E+00 7.59614475E-04 0.00000000E+00 7.59614475E-04 0.00000000E+00
 2 27 0.00000000E+00 0.00000000E+00
 3  1 9.54671707E-02 5.82643376E-02 1.05048096E-01 1.63282866E-01 9.05598017E-02
 3  2 4.84087173E-02 0.00000000E+00 0.00000000E+00-1.43055757E-01 0.00000000E+00
 3  3 0.00000000E+00-1.58300421E-01 0.00000000E+00 0.00000000E+00-1.95802856E-01
 3  4 0.00000000E+00 0.00000000E+00-1.53574416E-01 0.00000000E+00 0.00000000E+00
 3  5-7.39917861E-02 0.00000000E+00 0.00000000E+00 2.33158947E-03-1.51099910E-02
 3  6 0.00000000E+00 0.00000000E+00-7.70351121E-03 6.73051704E-03 6.73051704E-03
 3  7-1.34610341E-02 0.00000000E+00 0.00000000E+00 0.00000000E+00 1.31900759E-02
 3  8 1.31900759E-02-2.63801518E-02 0.00000000E+00 0.00000000E+00 0.00000000E+00
 3  9 2.71425095E-03 2.71425095E-03-5.42850190E-03 0.00000000E+00 0.00000000E+00
 3 10 0.00000000E+00 0.00000000E+00 0.00000000E+00-6.11159943E-03 0.00000000E+00
 3 11 4.09978553E-03 0.00000000E+00 4.09978553E-03 0.00000000E+00 0.00000000E+00
 3 12 0.00000000E+00 0.00000000E+00 0.00000000E+00-2.72740972E-03 0.00000000E+00
 3 13 1.82960206E-03 0.00000000E+00 1.82960206E-03 0.00000000E+00 0.00000000E+00
 3 14 0.00000000E+00 9.54671707E-02 5.82643376E-02 1.05048096E-01 1.63282866E-01
 3 15 9.05598017E-02 4.84087173E-02 0.00000000E+00 0.00000000E+00 1.43055757E-01
 3 16 0.00000000E+00 0.00000000E+00 1.58300421E-01 0.00000000E+00 0.00000000E+00
 3 17 1.95802856E-01 0.00000000E+00 0.00000000E+00 1.53574416E-01 0.00000000E+00
 3 18 0.00000000E+00 7.39917861E-02 0.00000000E+00 0.00000000E+00-2.33158947E-03
 3 19-1.51099910E-02 0.00000000E+00 0.00000000E+00 7.70351121E-03 6.73051704E-03
 3 20 6.73051704E-03-1.34610341E-02 0.00000000E+00 0.00000000E+00 0.00000000E+00
 3 21 1.31900759E-02 1.31900759E-02-2.63801518E-02 0.00000000E+00 0.00000000E+00
 3 22 0.00000000E+00 2.71425095E-03 2.71425095E-03-5.42850190E-03 0.00000000E+00
 3 23 0.00000000E+00 0.00000000E+00 0.00000000E+00 0.00000000E+00 6.11159943E-03
 3 24 0.00000000E+00-4.09978553E-03 0.00000000E+00-4.09978553E-03 0.00000000E+00
 3 25 0.00000000E+00 0.00000000E+00 0.00000000E+00 0.00000000E+00 2.72740972E-03
 3 26 0.00000000E+00-1.82960206E-03 0.00000000E+00-1.82960206E-03 0.00000000E+00
 3 27 0.00000000E+00 0.00000000E+00
 4  1 0.00000000E+00 0.00000000E+00 0.00000000E+00 0.00000000E+00 0.00000000E+00
 4  2 0.00000000E+00 1.42773589E-01 0.00000000E+00 0.00000000E+00 1.53961480E-01
 4  3 0.00000000E+00 0.00000000E+00 2.04836690E-01 0.00000000E+00 0.00000000E+00
 4  4 1.67709647E-01 0.00000000E+00 0.00000000E+00 8.81998787E-02 0.00000000E+00
 4  5 0.00000000E+00 8.56804931E-03 0.00000000E+00 0.00000000E+00 0.00000000E+00
 4  6 2.47380336E-03 0.00000000E+00 0.00000000E+00 0.00000000E+00 0.00000000E+00
 4  7 0.00000000E+00 0.00000000E+00 1.15789721E-02 0.00000000E+00 0.00000000E+00
 4  8 0.00000000E+00 0.00000000E+00 0.00000000E+00 2.91928653E-02 0.00000000E+00
 4  9 0.00000000E+00 0.00000000E+00 0.00000000E+00 0.00000000E+00 4.65182378E-03
 4 10 0.00000000E+00-4.37801161E-03 0.00000000E+00 0.00000000E+00 0.00000000E+00
 4 11 0.00000000E+00-1.95790632E-03 0.00000000E+00 7.83162526E-03 0.00000000E+00
 4 12 0.00000000E+00-1.32590217E-03 0.00000000E+00 0.00000000E+00 0.00000000E+00
 4 13 0.00000000E+00-5.92961473E-04 0.00000000E+00 2.37184590E-03 0.00000000E+00
 4 14 0.00000000E+00 0.00000000E+00 0.00000000E+00 0.00000000E+00 0.00000000E+00
 4 15 0.00000000E+00 0.00000000E+00 1.42773589E-01 0.00000000E+00 0.00000000E+00
 4 16 1.53961480E-01 0.00000000E+00 0.00000000E+00 2.04836690E-01 0.00000000E+00
 4 17 0.00000000E+00 1.67709647E-01 0.00000000E+00 0.00000000E+00 8.81998787E-02
 4 18 0.00000000E+00 0.00000000E+00 8.56804931E-03 0.00000000E+00 0.00000000E+00
 4 19 0.00000000E+00 2.47380336E-03 0.00000000E+00 0.00000000E+00 0.00000000E+00
 4 20 0.00000000E+00 0.00000000E+00 0.00000000E+00-1.15789721E-02 0.00000000E+00
 4 21 0.00000000E+00 0.00000000E+00 0.00000000E+00 0.00000000E+00-2.91928653E-02
 4 22 0.00000000E+00 0.00000000E+00 0.00000000E+00 0.00000000E+00 0.00000000E+00
 4 23-4.65182378E-03 0.00000000E+00-4.37801161E-03 0.00000000E+00 0.00000000E+00
 4 24 0.00000000E+00 0.00000000E+00-1.95790632E-03 0.00000000E+00 7.83162526E-03
 4 25 0.00000000E+00 0.00000000E+00-1.32590217E-03 0.00000000E+00 0.00000000E+00
 4 26 0.00000000E+00 0.00000000E+00-5.92961473E-04 0.00000000E+00 2.37184590E-03
 4 27 0.00000000E+00 0.00000000E+00
 5  1 0.00000000E+00 0.00000000E+00 0.00000000E+00 0.00000000E+00 0.00000000E+00
 5  2 0.00000000E+00 0.00000000E+00 1.42773589E-01 0.00000000E+00 0.00000000E+00
 5  3 1.53961480E-01 0.00000000E+00 0.00000000E+00 2.04836690E-01 0.00000000E+00
 5  4 0.00000000E+00 1.67709647E-01 0.00000000E+00 0.00000000E+00 8.81998787E-02
 5  5 0.00000000E+00 0.00000000E+00 8.56804931E-03 0.00000000E+00 0.00000000E+00
 5  6 0.00000000E+00 2.47380336E-03 0.00000000E+00 0.00000000E+00 0.00000000E+00
 5  7 0.00000000E+00 0.00000000E+00 0.00000000E+00 1.15789721E-02 0.00000000E+00
 5  8 0.00000000E+00 0.00000000E+00 0.00000000E+00 0.00000000E+00 2.91928653E-02
 5  9 0.00000000E+00 0.00000000E+00 0.00000000E+00 0.00000000E+00 0.00000000E+00
 5 10 4.65182378E-03 0.00000000E+00-4.37801162E-03 0.00000000E+00-1.95790632E-03
 5 11 0.00000000E+00 0.00000000E+00 0.00000000E+00 0.00000000E+00 7.83162526E-03
 5 12 0.00000000E+00 0.00000000E+00-1.32590217E-03 0.00000000E+00-5.92961477E-04
 5 13 0.00000000E+00 0.00000000E+00 0.00000000E+00 0.00000000E+00 2.37184590E-03
 5 14 0.00000000E+00 0.00000000E+00 0.00000000E+00 0.00000000E+00 0.00000000E+00
 5 15 0.00000000E+00 0.00000000E+00 0.00000000E+00 1.42773589E-01 0.00000000E+00
 5 16 0.00000000E+00 1.53961480E-01 0.00000000E+00 0.00000000E+00 2.04836690E-01
 5 17 0.00000000E+00 0.00000000E+00 1.67709647E-01 0.00000000E+00 0.00000000E+00
 5 18 8.81998787E-02 0.00000000E+00 0.00000000E+00 8.56804931E-03 0.00000000E+00
 5 19 0.00000000E+00 0.00000000E+00 2.47380336E-03 0.00000000E+00 0.00000000E+00
 5 20 0.00000000E+00 0.00000000E+00 0.00000000E+00 0.00000000E+00-1.15789721E-02
 5 21 0.00000000E+00 0.00000000E+00 0.00000000E+00 0.00000000E+00 0.00000000E+00
 5 22-2.91928653E-02 0.00000000E+00 0.00000000E+00 0.00000000E+00 0.00000000E+00
 5 23 0.00000000E+00-4.65182378E-03 0.00000000E+00-4.37801162E-03 0.00000000E+00
 5 24-1.95790632E-03 0.00000000E+00 0.00000000E+00 0.00000000E+00 0.00000000E+00
 5 25 7.83162526E-03 0.00000000E+00 0.00000000E+00-1.32590217E-03 0.00000000E+00
 5 26-5.92961477E-04 0.00000000E+00 0.00000000E+00 0.00000000E+00 0.00000000E+00
 5 27 2.37184590E-03 0.00000000E+00
 6  1 0.00000000E+00 0.00000000E+00 0.00000000E+00 0.00000000E+00 0.00000000E+00
 6  2 0.00000000E+00 1.71487673E-01 0.00000000E+00 0.00000000E+00 1.90447872E-01
 6  3 0.00000000E+00 0.00000000E+00 2.38404022E-01 0.00000000E+00 0.00000000E+00
 6  4 2.32209598E-01 0.00000000E+00 0.00000000E+00 1.62685549E-01 0.00000000E+00
 6  5 0.00000000E+00 4.41145969E-02 0.00000000E+00 0.00000000E+00 0.00000000E+00
 6  6 6.14435133E-03 0.00000000E+00 0.00000000E+00 0.00000000E+00 0.00000000E+00
 6  7 0.00000000E+00 0.00000000E+00-3.29642789E-03 0.00000000E+00 0.00000000E+00
 6  8 0.00000000E+00 0.00000000E+00 0.00000000E+00-9.41633803E-03 0.00000000E+00
 6  9 0.00000000E+00 0.00000000E+00 0.00000000E+00 0.00000000E+00 5.69312811E-05
 6 10 0.00000000E+00 1.61012871E-03 0.00000000E+00 0.00000000E+00 0.00000000E+00
 6 11 0.00000000E+00 7.20071463E-04 0.00000000E+00-2.88028581E-03 0.00000000E+00
 6 12 0.00000000E+00 1.58473337E-03 0.00000000E+00 0.00000000E+00 0.00000000E+00
 6 13 0.00000000E+00 7.08714296E-04 0.00000000E+00-2.83485722E-03 0.00000000E+00
 6 14 0.00000000E+00 0.00000000E+00 0.00000000E+00 0.00000000E+00 0.00000000E+00
 6 15 0.00000000E+00 0.00000000E+00-1.71487673E-01 0.00000000E+00 0.00000000E+00
 6 16-1.90447872E-01 0.00000000E+00 0.00000000E+00-2.38404022E-01 0.00000000E+00
 6 17 0.00000000E+00-2.32209598E-01 0.00000000E+00 0.00000000E+00-1.62685549E-01
 6 18 0.00000000E+00 0.00000000E+00-4.41145969E-02 0.00000000E+00 0.00000000E+00
 6 19 0.00000000E+00-6.14435133E-03 0.00000000E+00 0.00000000E+00 0.00000000E+00
 6 20 0.00000000E+00 0.00000000E+00 0.00000000E+00-3.29642789E-03 0.00000000E+00
 6 21 0.00000000E+00 0.00000000E+00 0.00000000E+00 0.00000000E+00-9.41633803E-03
 6 22 0.00000000E+00 0.00000000E+00 0.00000000E+00 0.00000000E+00 0.00000000E+00
 6 23 5.69312811E-05 0.00000000E+00-1.61012871E-03 0.00000000E+00 0.00000000E+00
 6 24 0.00000000E+00 0.00000000E+00-7.20071463E-04 0.00000000E+00 2.88028581E-03
 6 25 0.00000000E+00 0.00000000E+00-1.58473337E-03 0.00000000E+00 0.00000000E+00
 6 26 0.00000000E+00 0.00000000E+00-7.08714296E-04 0.00000000E+00 2.83485722E-03
 6 27 0.00000000E+00 0.00000000E+00
 7  1 0.00000000E+00 0.00000000E+00 0.00000000E+00 0.00000000E+00 0.00000000E+00
 7  2 0.00000000E+00 0.00000000E+00 1.71487673E-01 0.00000000E+00 0.00000000E+00
 7  3 1.90447872E-01 0.00000000E+00 0.00000000E+00 2.38404022E-01 0.00000000E+00
 7  4 0.00000000E+00 2.32209598E-01 0.00000000E+00 0.00000000E+00 1.62685549E-01
 7  5 0.00000000E+00 0.00000000E+00 4.41145968E-02 0.00000000E+00 0.00000000E+00
 7  6 0.00000000E+00 6.14435135E-03 0.00000000E+00 0.00000000E+00 0.00000000E+00
 7  7 0.00000000E+00 0.00000000E+00 0.00000000E+00-3.29642789E-03 0.00000000E+00
 7  8 0.00000000E+00 0.00000000E+00 0.00000000E+00 0.00000000E+00-9.41633803E-03
 7  9 0.00000000E+00 0.00000000E+00 0.00000000E+00 0.00000000E+00 0.00000000E+00
 7 10 5.69313192E-05 0.00000000E+00 1.61012872E-03 0.00000000E+00 7.20071449E-04
 7 11 0.00000000E+00 0.00000000E+00 0.00000000E+00 0.00000000E+00-2.88028581E-03
 7 12 0.00000000E+00 0.00000000E+00 1.58473336E-03 0.00000000E+00 7.08714304E-04
 7 13 0.00000000E+00 0.00000000E+00 0.00000000E+00 0.00000000E+00-2.83485722E-03
 7 14 0.00000000E+00 0.00000000E+00 0.00000000E+00 0.00000000E+00 0.00000000E+00
 7 15 0.00000000E+00 0.00000000E+00 0.00000000E+00-1.71487673E-01 0.00000000E+00
 7 16 0.00000000E+00-1.90447872E-01 0.00000000E+00 0.00000000E+00-2.38404022E-01
 7 17 0.00000000E+00 0.00000000E+00-2.32209598E-01 0.00000000E+00 0.00000000E+00
 7 18-1.62685549E-01 0.00000000E+00 0.00000000E+00-4.41145968E-02 0.00000000E+00
 7 19 0.00000000E+00 0.00000000E+00-6.14435135E-03 0.00000000E+00 0.00000000E+00
 7 20 0.00000000E+00 0.00000000E+00 0.00000000E+00 0.00000000E+00-3.29642789E-03
 7 21 0.00000000E+00 0.00000000E+00 0.00000000E+00 0.00000000E+00 0.00000000E+00
 7 22-9.41633803E-03 0.00000000E+00 0.00000000E+00 0.00000000E+00 0.00000000E+00
 7 23 0.00000000E+00 5.69313192E-05 0.00000000E+00-1.61012872E-03 0.00000000E+00
 7 24-7.20071449E-04 0.00000000E+00 0.00000000E+00 0.00000000E+00 0.00000000E+00
 7 25 2.88028581E-03 0.00000000E+00 0.00000000E+00-1.58473336E-03 0.00000000E+00
 7 26-7.08714304E-04 0.00000000E+00 0.00000000E+00 0.00000000E+00 0.00000000E+00
 7 27 2.83485722E-03 0.00000000E+00
 8  1 3.70695048E-02 5.59839091E-02-1.05056114E-01 6.17416493E-01-1.60347915E+00
 8  2 9.69281270E+00 0.00000000E+00 0.00000000E+00-1.57102910E-02 0.00000000E+00
 8  3 0.00000000E+00-3.96809845E-02 0.00000000E+00 0.00000000E+00 5.41006904E-02
 8  4 0.00000000E+00 0.00000000E+00-2.14193545E-01 0.00000000E+00 0.00000000E+00
 8  5 4.42508794E-01 0.00000000E+00 0.00000000E+00-1.55614168E+00-8.95854722E+00
 8  6 0.00000000E+00 0.00000000E+00 1.58624458E+00 1.49664170E-04 1.49664170E-04
 8  7-2.99328340E-04 0.00000000E+00 0.00000000E+00 0.00000000E+00 2.82508168E-03
 8  8 2.82508168E-03-5.65016337E-03 0.00000000E+00 0.00000000E+00 0.00000000E+00
 8  9-2.89145019E-03-2.89145019E-03 5.78290039E-03 0.00000000E+00 0.00000000E+00
 8 10 0.00000000E+00 0.00000000E+00 0.00000000E+00 7.06755101E-05 0.00000000E+00
 8 11-4.74105735E-05 0.00000000E+00-4.74105735E-05 0.00000000E+00 0.00000000E+00
 8 12 0.00000000E+00 0.00000000E+00 0.00000000E+00-6.99528320E-03 0.00000000E+00
 8 13 4.69257863E-03 0.00000000E+00 4.69257863E-03 0.00000000E+00 0.00000000E+00
 8 14 0.00000000E+00 3.70695048E-02 5.59839091E-02-1.05056114E-01 6.17416493E-01
 8 15-1.60347915E+00 9.69281270E+00 0.00000000E+00 0.00000000E+00 1.57102910E-02
 8 16 0.00000000E+00 0.00000000E+00 3.96809845E-02 0.00000000E+00 0.00000000E+00
 8 17-5.41006904E-02 0.00000000E+00 0.00000000E+00 2.14193545E-01 0.00000000E+00
 8 18 0.00000000E+00-4.42508794E-01 0.00000000E+00 0.00000000E+00 1.55614168E+00
 8 19-8.95854722E+00 0.00000000E+00 0.00000000E+00-1.58624458E+00 1.49664170E-04
 8 20 1.49664170E-04-2.99328340E-04 0.00000000E+00 0.00000000E+00 0.00000000E+00
 8 21 2.82508168E-03 2.82508168E-03-5.65016337E-03 0.00000000E+00 0.00000000E+00
 8 22 0.00000000E+00-2.89145019E-03-2.89145019E-03 5.78290039E-03 0.00000000E+00
 8 23 0.00000000E+00 0.00000000E+00 0.00000000E+00 0.00000000E+00-7.06755101E-05
 8 24 0.00000000E+00 4.74105735E-05 0.00000000E+00 4.74105735E-05 0.00000000E+00
 8 25 0.00000000E+00 0.00000000E+00 0.00000000E+00 0.00000000E+00 6.99528320E-03
 8 26 0.00000000E+00-4.69257863E-03 0.00000000E+00-4.69257863E-03 0.00000000E+00
 8 27 0.00000000E+00 0.00000000E+00
 9  1-2.88860030E-02 9.27986716E-03-2.91817717E-01 1.05179002E+00-3.09409051E+00
 9  2 4.09655594E+01 0.00000000E+00 0.00000000E+00-1.26297342E-03 0.00000000E+00
 9  3 0.00000000E+00-1.68408072E-02 0.00000000E+00 0.00000000E+00 4.21116225E-02
 9  4 0.00000000E+00 0.00000000E+00 3.70114098E-01 0.00000000E+00 0.00000000E+00
 9  5-7.35439910E-01 0.00000000E+00 0.00000000E+00 4.83432318E+00-4.70015234E+01
 9  6 0.00000000E+00 0.00000000E+00-6.70198787E+00 3.66382338E-04 3.66382338E-04
 9  7-7.32764675E-04 0.00000000E+00 0.00000000E+00 0.00000000E+00-5.18518679E-02
 9  8-5.18518679E-02 1.03703736E-01 0.00000000E+00 0.00000000E+00 0.00000000E+00
 9  9-2.41185464E-02-2.41185464E-02 4.82370928E-02 0.00000000E+00 0.00000000E+00
 9 10 0.00000000E+00 0.00000000E+00 0.00000000E+00 6.34677160E-03 0.00000000E+00
 9 11-4.25754382E-03 0.00000000E+00-4.25754382E-03 0.00000000E+00 0.00000000E+00
 9 12 0.00000000E+00 0.00000000E+00 0.00000000E+00 3.26487349E-02 0.00000000E+00
 9 13-2.19014372E-02 0.00000000E+00-2.19014372E-02 0.00000000E+00 0.00000000E+00
 9 14 0.00000000E+00 2.88860030E-02-9.27986716E-03 2.91817717E-01-1.05179002E+00
 9 15 3.09409051E+00-4.09655594E+01 0.00000000E+00 0.00000000E+00-1.26297342E-03
 9 16 0.00000000E+00 0.00000000E+00-1.68408072E-02 0.00000000E+00 0.00000000E+00
 9 17 4.21116225E-02 0.00000000E+00 0.00000000E+00 3.70114098E-01 0.00000000E+00
 9 18 0.00000000E+00-7.35439910E-01 0.00000000E+00 0.00000000E+00 4.83432318E+00
 9 19 4.70015234E+01 0.00000000E+00 0.00000000E+00-6.70198787E+00-3.66382338E-04
 9 20-3.66382338E-04 7.32764675E-04 0.00000000E+00 0.00000000E+00 0.00000000E+00
 9 21 5.18518679E-02 5.18518679E-02-1.03703736E-01 0.00000000E+00 0.00000000E+00
 9 22 0.00000000E+00 2.41185464E-02 2.41185464E-02-4.82370928E-02 0.00000000E+00
 9 23 0.00000000E+00 0.00000000E+00 0.00000000E+00 0.00000000E+00 6.34677160E-03
 9 24 0.00000000E+00-4.25754382E-03 0.00000000E+00-4.25754382E-03 0.00000000E+00
 9 25 0.00000000E+00 0.00000000E+00 0.00000000E+00 0.00000000E+00 3.26487349E-02
 9 26 0.00000000E+00-2.19014372E-02 0.00000000E+00-2.19014372E-02 0.00000000E+00
 9 27 0.00000000E+00 0.00000000E+00
10  1 0.00000000E+00 0.00000000E+00 0.00000000E+00 0.00000000E+00 0.00000000E+00
10  2 0.00000000E+00 2.00941856E-02 0.00000000E+00 0.00000000E+00 5.31844044E-02
10  3 0.00000000E+00 0.00000000E+00-6.84385379E-02 0.00000000E+00 0.00000000E+00
10  4 3.10508605E-01 0.00000000E+00 0.00000000E+00-6.68663260E-01 0.00000000E+00
10  5 0.00000000E+00 2.00225032E+00 0.00000000E+00 0.00000000E+00 0.00000000E+00
10  6-1.97864293E+00 0.00000000E+00 0.00000000E+00 0.00000000E+00 0.00000000E+00
10  7 0.00000000E+00 0.00000000E+00 1.97277987E-03 0.00000000E+00 0.00000000E+00
10  8 0.00000000E+00 0.00000000E+00 0.00000000E+00 3.95972234E-03 0.00000000E+00
10  9 0.00000000E+00 0.00000000E+00 0.00000000E+00 0.00000000E+00 4.91930417E-03
10 10 0.00000000E+00-1.16988725E-03 0.00000000E+00 0.00000000E+00 0.00000000E+00
10 11 0.00000000E+00-5.23189468E-04 0.00000000E+00 2.09275792E-03 0.00000000E+00
10 12 0.00000000E+00 2.55581895E-03 0.00000000E+00 0.00000000E+00 0.00000000E+00
10 13 0.00000000E+00 1.14299697E-03 0.00000000E+00-4.57198792E-03 0.00000000E+00
10 14 0.00000000E+00 0.00000000E+00 0.00000000E+00 0.00000000E+00 0.00000000E+00
10 15 0.00000000E+00 0.00000000E+00 2.00941856E-02 0.00000000E+00 0.00000000E+00
10 16 5.31844044E-02 0.00000000E+00 0.00000000E+00-6.84385379E-02 0.00000000E+00
10 17 0.00000000E+00 3.10508605E-01 0.00000000E+00 0.00000000E+00-6.68663260E-01
10 18 0.00000000E+00 0.00000000E+00 2.00225032E+00 0.00000000E+00 0.00000000E+00
10 19 0.00000000E+00-1.97864293E+00 0.00000000E+00 0.00000000E+00 0.00000000E+00
10 20 0.00000000E+00 0.00000000E+00 0.00000000E+00-1.97277987E-03 0.00000000E+00
10 21 0.00000000E+00 0.00000000E+00 0.00000000E+00 0.00000000E+00-3.95972234E-03
10 22 0.00000000E+00 0.00000000E+00 0.00000000E+00 0.00000000E+00 0.00000000E+00
10 23-4.91930417E-03 0.00000000E+00-1.16988725E-03 0.00000000E+00 0.00000000E+00
10 24 0.00000000E+00 0.00000000E+00-5.23189468E-04 0.00000000E+00 2.09275792E-03
10 25 0.00000000E+00 0.00000000E+00 2.55581895E-03 0.00000000E+00 0.00000000E+00
10 26 0.00000000E+00 0.00000000E+00 1.14299697E-03 0.00000000E+00-4.57198792E-03
10 27 0.00000000E+00 0.00000000E+00
11  1 0.00000000E+00 0.00000000E+00 0.00000000E+00 0.00000000E+00 0.00000000E+00
11  2 0.00000000E+00 0.00000000E+00 2.00941856E-02 0.00000000E+00 0.00000000E+00
11  3 5.31844044E-02 0.00000000E+00 0.00000000E+00-6.84385379E-02 0.00000000E+00
11  4 0.00000000E+00 3.10508605E-01 0.00000000E+00 0.00000000E+00-6.68663260E-01
11  5 0.00000000E+00 0.00000000E+00 2.00225032E+00 0.00000000E+00 0.00000000E+00
11  6 0.00000000E+00-1.97864293E+00 0.00000000E+00 0.00000000E+00 0.00000000E+00
11  7 0.00000000E+00 0.00000000E+00 0.00000000E+00 1.97277987E-03 0.00000000E+00
11  8 0.00000000E+00 0.00000000E+00 0.00000000E+00 0.00000000E+00 3.95972234E-03
11  9 0.00000000E+00 0.00000000E+00 0.00000000E+00 0.00000000E+00 0.00000000E+00
11 10 4.91930417E-03 0.00000000E+00-1.16988724E-03 0.00000000E+00-5.23189480E-04
11 11 0.00000000E+00 0.00000000E+00 0.00000000E+00 0.00000000E+00 2.09275792E-03
11 12 0.00000000E+00 0.00000000E+00 2.55581895E-03 0.00000000E+00 1.14299698E-03
11 13 0.00000000E+00 0.00000000E+00 0.00000000E+00 0.00000000E+00-4.57198792E-03
11 14 0.00000000E+00 0.00000000E+00 0.00000000E+00 0.00000000E+00 0.00000000E+00
11 15 0.00000000E+00 0.00000000E+00 0.00000000E+00 2.00941856E-02 0.00000000E+00
11 16 0.00000000E+00 5.31844044E-02 0.00000000E+00 0.00000000E+00-6.84385379E-02
11 17 0.00000000E+00 0.00000000E+00 3.10508605E-01 0.00000000E+00 0.00000000E+00
11 18-6.68663260E-01 0.00000000E+00 0.00000000E+00 2.00225032E+00 0.00000000E+00
11 19 0.00000000E+00 0.00000000E+00-1.97864293E+00 0.00000000E+00 0.00000000E+00
11 20 0.00000000E+00 0.00000000E+00 0.00000000E+00 0.00000000E+00-1.97277987E-03
11 21 0.00000000E+00 0.00000000E+00 0.00000000E+00 0.00000000E+00 0.00000000E+00
11 22-3.95972234E-03 0.00000000E+00 0.00000000E+00 0.00000000E+00 0.00000000E+00
11 23 0.00000000E+00-4.91930417E-03 0.00000000E+00-1.16988724E-03 0.00000000E+00
11 24-5.23189480E-04 0.00000000E+00 0.00000000E+00 0.00000000E+00 0.00000000E+00
11 25 2.09275792E-03 0.00000000E+00 0.00000000E+00 2.55581895E-03 0.00000000E+00
11 26 1.14299698E-03 0.00000000E+00 0.00000000E+00 0.00000000E+00 0.00000000E+00
11 27-4.57198792E-03 0.00000000E+00
12  1 0.00000000E+00 0.00000000E+00 0.00000000E+00 0.00000000E+00 0.00000000E+00
12  2 0.00000000E+00 1.56421577E-02 0.00000000E+00 0.00000000E+00 5.20061948E-02
12  3 0.00000000E+00 0.00000000E+00-9.22735208E-02 0.00000000E+00 0.00000000E+00
12  4 4.09150462E-01 0.00000000E+00 0.00000000E+00-1.03319438E+00 0.00000000E+00
12  5 0.00000000E+00 4.70673111E+00 0.00000000E+00 0.00000000E+00 0.00000000E+00
12  6-6.04439316E+00 0.00000000E+00 0.00000000E+00 0.00000000E+00 0.00000000E+00
12  7 0.00000000E+00 0.00000000E+00-5.90308350E-04 0.00000000E+00 0.00000000E+00
12  8 0.00000000E+00 0.00000000E+00 0.00000000E+00 1.68638312E-02 0.00000000E+00
12  9 0.00000000E+00 0.00000000E+00 0.00000000E+00 0.00000000E+00 3.23832149E-02
12 10 0.00000000E+00 3.96710337E-04 0.00000000E+00 0.00000000E+00 0.00000000E+00
12 11 0.00000000E+00 1.77414255E-04 0.00000000E+00-7.09657024E-04 0.00000000E+00
12 12 0.00000000E+00-8.53412107E-03 0.00000000E+00 0.00000000E+00 0.00000000E+00
12 13 0.00000000E+00-3.81657497E-03 0.00000000E+00 1.52662999E-02 0.00000000E+00
12 14 0.00000000E+00 0.00000000E+00 0.00000000E+00 0.00000000E+00 0.00000000E+00
12 15 0.00000000E+00 0.00000000E+00-1.56421577E-02 0.00000000E+00 0.00000000E+00
12 16-5.20061948E-02 0.00000000E+00 0.00000000E+00 9.22735208E-02 0.00000000E+00
12 17 0.00000000E+00-4.09150462E-01 0.00000000E+00 0.00000000E+00 1.03319438E+00
12 18 0.00000000E+00 0.00000000E+00-4.70673111E+00 0.00000000E+00 0.00000000E+00
12 19 0.00000000E+00 6.04439316E+00 0.00000000E+00 0.00000000E+00 0.00000000E+00
12 20 0.00000000E+00 0.00000000E+00 0.00000000E+00-5.90308350E-04 0.00000000E+00
12 21 0.00000000E+00 0.00000000E+00 0.00000000E+00 0.00000000E+00 1.68638312E-02
12 22 0.00000000E+00 0.00000000E+00 0.00000000E+00 0.00000000E+00 0.00000000E+00
12 23 3.23832149E-02 0.00000000E+00-3.96710337E-04 0.00000000E+00 0.00000000E+00
12 24 0.00000000E+00 0.00000000E+00-1.77414255E-04 0.00000000E+00 7.09657024E-04
12 25 0.00000000E+00 0.00000000E+00 8.53412107E-03 0.00000000E+00 0.00000000E+00
12 26 0.00000000E+00 0.00000000E+00 3.81657497E-03 0.00000000E+00-1.52662999E-02
12 27 0.00000000E+00 0.00000000E+00
13  1 0.00000000E+00 0.00000000E+00 0.00000000E+00 0.00000000E+00 0.00000000E+00
13  2 0.00000000E+00 0.00000000E+00 1.56421577E-02 0.00000000E+00 0.00000000E+00
13  3 5.20061948E-02 0.00000000E+00 0.00000000E+00-9.22735208E-02 0.00000000E+00
13  4 0.00000000E+00 4.09150462E-01 0.00000000E+00 0.00000000E+00-1.03319438E+00
13  5 0.00000000E+00 0.00000000E+00 4.70673111E+00 0.00000000E+00 0.00000000E+00
13  6 0.00000000E+00-6.04439316E+00 0.00000000E+00 0.00000000E+00 0.00000000E+00
13  7 0.00000000E+00 0.00000000E+00 0.00000000E+00-5.90308350E-04 0.00000000E+00
13  8 0.00000000E+00 0.00000000E+00 0.00000000E+00 0.00000000E+00 1.68638312E-02
13  9 0.00000000E+00 0.00000000E+00 0.00000000E+00 0.00000000E+00 0.00000000E+00
13 10 3.23832149E-02 0.00000000E+00 3.96710332E-04 0.00000000E+00 1.77414262E-04
13 11 0.00000000E+00 0.00000000E+00 0.00000000E+00 0.00000000E+00-7.09657024E-04
13 12 0.00000000E+00 0.00000000E+00-8.53412106E-03 0.00000000E+00-3.81657498E-03
13 13 0.00000000E+00 0.00000000E+00 0.00000000E+00 0.00000000E+00 1.52662999E-02
13 14 0.00000000E+00 0.00000000E+00 0.00000000E+00 0.00000000E+00 0.00000000E+00
13 15 0.00000000E+00 0.00000000E+00 0.00000000E+00-1.56421577E-02 0.00000000E+00
13 16 0.00000000E+00-5.20061948E-02 0.00000000E+00 0.00000000E+00 9.22735208E-02
13 17 0.00000000E+00 0.00000000E+00-4.09150462E-01 0.00000000E+00 0.00000000E+00
13 18 1.03319438E+00 0.00000000E+00 0.00000000E+00-4.70673111E+00 0.00000000E+00
13 19 0.00000000E+00 0.00000000E+00 6.04439316E+00 0.00000000E+00 0.00000000E+00
13 20 0.00000000E+00 0.00000000E+00 0.00000000E+00 0.00000000E+00-5.90308350E-04
13 21 0.00000000E+00 0.00000000E+00 0.00000000E+00 0.00000000E+00 0.00000000E+00
13 22 1.68638312E-02 0.00000000E+00 0.00000000E+00 0.00000000E+00 0.00000000E+00
13 23 0.00000000E+00 3.23832149E-02 0.00000000E+00-3.96710332E-04 0.00000000E+00
13 24-1.77414262E-04 0.00000000E+00 0.00000000E+00 0.00000000E+00 0.00000000E+00
13 25 7.09657024E-04 0.00000000E+00 0.00000000E+00 8.53412106E-03 0.00000000E+00
13 26 3.81657498E-03 0.00000000E+00 0.00000000E+00 0.00000000E+00 0.00000000E+00
13 27-1.52662999E-02 0.00000000E+00
14  1-1.99897631E-02-4.71070477E-02 1.49972077E-01-5.14477494E-01 1.38440674E+00