!  Coupling between the 1-A-1 and 3-B-1 states of PbH2...test collected 2003
!
!  Effect of 1st order Douglas/Kroll correction upon the 1e- part
!  of the full Breit-Pauli spin-orbit operator, for various levels
!  of scalar relativity corrections.
!
!       RELATIVE E= -57.710, 22807.538(2), 22865.248  cm-1
!
!  This run takes 13 seconds on a 2.66 GHz Cloverton (7 Jan 2015)
!
!  -------------------------------------------------------------------
!  The orbitals below are from RESC scalar relativity: one may be sure
!  that the numbers would change more if the orbitals were redone with
!  the different scalar relativity treatments.  But using the same
!  orbitals seems good for this test case, to emphasize the near
!  constance of the 1st order SOC correction.
!
!  prior to the spin-orbit coupling,
!       RESC: 1-A-1 E= -20440.942407267, 3-B-1 E= -20440.838578712  dE=0.1038
!       DKH2: 1-A-1 E= -20441.030552748, 3-B-1 E= -20440.926624879  dE=0.1039
!       DKH3: 1-A-1 E= -20440.471189360, 3-B-1 E= -20440.367268630  dE=0.1039
!       IOTC: 1-A-1 E= -20440.262901449, 3-B-1 E= -20440.158984427  dE=0.1039
!  spin-orbit splitting of these four levels is to
!       R.LATIVE E(RESC)= -60.619, 22788.122(2), 22848.741
!       R.LATIVE E(DKH2)= -57.704, 22809.919(2), 22867.623
!       R.LATIVE E(DKH3)= -57.709, 22808.352(2), 22866.061
!       R.LATIVE E(IOTC)= -57.710, 22807.538(2), 22865.248  <--- default run.
!  due to a spin-orbit coupling of 
!       1176.89 (1e- = 1244.17)  according to RESC
!       1148.72 (1e- = 1215.95)  according to DKH2
!       1148.73 (1e- = 1215.97)  according to DKH3
!       1148.72 (1e- = 1215.96)  according to IOTC
!
 $CONTRL scftyp=none CITYP=GUGA runtyp=transitn $end

!    the most advanced scalar relativity is the infinite order transformation
 $contrl relwfn=iotc $end
x$contrl relwfn=resc $end
x$contrl relwfn=dk $end
x$relwfn norder=2 $end

 $SYSTEM mwords=3 $end
 $relwfn modeqr=0 nesoc=1 $end
 $TRANST operat=hso2 NFZC=39 NOCC=45 NUMVEC=1 NUMCI=2 IROOTS(1)=1,1 $end
!   because there is a non-standard orientation in $DATA,
!   instead of keeping x perpendicular to a planar C2v molecule,
!   the 3-B-1 state has to be requested as 3-B-2
 $DRT1   GROUP=C2v stsym=A1 IEXCIT=6 NFZC=39 NDOC=3 NVAL=3        $end
 $DRT2   GROUP=C2v stsym=B2 IEXCIT=6 NFZC=39 NDOC=2 NALP=2 NVAL=2 $end
 $DATA
PbH2...1-A-1 state...RHF/fuzi(d,p)
Cnv      2

PB 82.0       .0000000000       .0000000000      -.0116302944
   MIDI
   D 1 ; 1 0.164 1.0

H   1.0      1.4439937753       .0000000000      1.2000243499
   MIDI
   P 1 ; 1 1.0 1.0

 $end

--- OPTIMIZED MCSCF MO-S --- GENERATED AT  1:52:31 CST 28-OCT-1998
E(MCSCF)=   -20440.9424072575, 12 ITERS, E(NUC)=   46.2230582454
 $VEC1
 1  1 1.03302954E+00-2.14777811E-01 0.00000000E+00 0.00000000E+00 2.27933820E-06
 1  2-8.87056299E-01 0.00000000E+00 0.00000000E+00 6.83681421E-07 4.25343194E-01
 1  3 4.25365771E-01 4.25349693E-01 0.00000000E+00 0.00000000E+00 0.00000000E+00
 1  4 2.37652243E-01 0.00000000E+00 0.00000000E+00-6.96735789E-05-4.23032823E-02
 1  5-4.23690333E-02-4.23222140E-02 0.00000000E+00 0.00000000E+00 0.00000000E+00
 1  6 0.00000000E+00 0.00000000E+00 5.31253392E-05 0.00000000E+00 2.41253894E-05
 1  7 0.00000000E+00 2.36458800E-05 0.00000000E+00 0.00000000E+00 0.00000000E+00
 1  8-1.78091996E-01 0.00000000E+00 0.00000000E+00-1.96432210E-05 9.09628972E-02
 1  9 9.11275374E-02 9.10101285E-02 0.00000000E+00 0.00000000E+00 0.00000000E+00
 1 10-1.21199858E-01-9.71401363E-03 0.00000000E+00 0.00000000E+00 1.39033226E-04
 1 11 0.00000000E+00 0.00000000E+00 5.39922191E-04 2.96588861E-02 2.92416461E-02
 1 12 2.95406703E-02 0.00000000E+00 0.00000000E+00 0.00000000E+00 1.49770576E-04
 1 13-9.64108793E-04 6.44681698E-04 0.00000000E+00-5.53556119E-04 1.49770576E-04
 1 14-9.64108793E-04-6.44681698E-04 0.00000000E+00-5.53556119E-04
 2  1-4.00014000E-01 1.63683526E+00 0.00000000E+00 0.00000000E+00 2.87884489E-05
 2  2 2.04404434E+00 0.00000000E+00 0.00000000E+00 2.87869545E-06-1.04954461E+00
 2  3-1.04956348E+00-1.04954461E+00 0.00000000E+00 0.00000000E+00 0.00000000E+00
 2  4-1.01769494E+00 0.00000000E+00 0.00000000E+00 8.17593782E-05 3.55894998E-01
 2  5 3.55956767E-01 3.55912979E-01 0.00000000E+00 0.00000000E+00 0.00000000E+00
 2  6 0.00000000E+00 0.00000000E+00-6.41789350E-05 0.00000000E+00-2.91422807E-05
 2  7 0.00000000E+00-2.85609632E-05 0.00000000E+00 0.00000000E+00 0.00000000E+00
 2  8 5.02176563E-02 0.00000000E+00 0.00000000E+00 2.88679677E-05-4.49894625E-02
 2  9-4.51469075E-02-4.50347330E-02 0.00000000E+00 0.00000000E+00 0.00000000E+00
 2 10 7.70978043E-02 8.62243835E-03 0.00000000E+00 0.00000000E+00-1.39096424E-04
 2 11 0.00000000E+00 0.00000000E+00-4.80872452E-04-2.15155662E-02-2.11094023E-02
 2 12-2.14001026E-02 0.00000000E+00 0.00000000E+00 0.00000000E+00-6.54173119E-05
 2 13 8.42238029E-04-5.86204524E-04 0.00000000E+00 5.03144122E-04-6.54173119E-05
 2 14 8.42238029E-04 5.86204524E-04 0.00000000E+00 5.03144122E-04
 3  1 0.00000000E+00 0.00000000E+00 9.88475131E-01 0.00000000E+00 0.00000000E+00
 3  2 0.00000000E+00 3.82389497E-02 0.00000000E+00 0.00000000E+00 0.00000000E+00
 3  3 0.00000000E+00 0.00000000E+00 0.00000000E+00-5.10451051E-05 0.00000000E+00
 3  4 0.00000000E+00-1.24447349E-01 0.00000000E+00 0.00000000E+00 0.00000000E+00
 3  5 0.00000000E+00 0.00000000E+00 0.00000000E+00 1.60648637E-04 0.00000000E+00
 3  6 8.67322207E-02 0.00000000E+00 0.00000000E+00 0.00000000E+00 0.00000000E+00
 3  7 3.87868673E-02 0.00000000E+00 3.87891028E-02 0.00000000E+00 0.00000000E+00
 3  8 0.00000000E+00-1.95673497E-02 0.00000000E+00 0.00000000E+00 0.00000000E+00
 3  9 0.00000000E+00 0.00000000E+00 0.00000000E+00-4.68791326E-04 0.00000000E+00
 3 10 0.00000000E+00 0.00000000E+00 8.78973608E-03 0.00000000E+00 0.00000000E+00
 3 11-2.22776187E-03 0.00000000E+00 0.00000000E+00 0.00000000E+00 0.00000000E+00
 3 12 0.00000000E+00 0.00000000E+00 2.62697110E-03 0.00000000E+00 6.01971594E-04
 3 13 2.62586693E-03 5.85218722E-04 0.00000000E+00-7.37171933E-04-6.01971594E-04
 3 14-2.62586693E-03 5.85218722E-04 0.00000000E+00 7.37171933E-04
 4  1 1.39710488E-05-6.12125086E-05 0.00000000E+00 0.00000000E+00 9.88451346E-01
 4  2-1.15279171E-04 0.00000000E+00 0.00000000E+00 3.82359119E-02 3.67266058E-05
 4  3 7.66358716E-05 4.97969823E-05 0.00000000E+00 0.00000000E+00 0.00000000E+00
 4  4-4.66267262E-05 0.00000000E+00 0.00000000E+00-1.23658062E-01 9.01080944E-05
 4  5-2.85626533E-05 6.58964836E-05 0.00000000E+00 0.00000000E+00 0.00000000E+00
 4  6 0.00000000E+00 0.00000000E+00 8.61103762E-02 0.00000000E+00 3.85115279E-02
 4  7 0.00000000E+00 3.85094500E-02 0.00000000E+00 0.00000000E+00 0.00000000E+00
 4  8-2.15578945E-04 0.00000000E+00 0.00000000E+00-1.92074070E-02 4.32914001E-05
 4  9 3.86385880E-04 1.10925686E-04 0.00000000E+00 0.00000000E+00 0.00000000E+00
 4 10-5.52793452E-04 1.06751118E-03 0.00000000E+00 0.00000000E+00 7.87445080E-03
 4 11 0.00000000E+00 0.00000000E+00-2.43911983E-03 1.57786748E-03-3.87679291E-04
 4 12 1.11674146E-03 0.00000000E+00 0.00000000E+00 0.00000000E+00-2.51574784E-04
 4 13-2.17939916E-03-6.20408137E-04 0.00000000E+00 2.30850725E-04-2.51574784E-04
 4 14-2.17939916E-03 6.20408137E-04 0.00000000E+00 2.30850725E-04
 5  1 0.00000000E+00 0.00000000E+00 0.00000000E+00 9.88414372E-01 0.00000000E+00
 5  2 0.00000000E+00 0.00000000E+00 3.82329102E-02 0.00000000E+00 0.00000000E+00
 5  3 0.00000000E+00 0.00000000E+00 0.00000000E+00 0.00000000E+00 1.13402144E-06
 5  4 0.00000000E+00 0.00000000E+00-1.22453998E-01 0.00000000E+00 0.00000000E+00
 5  5 0.00000000E+00 0.00000000E+00 0.00000000E+00 0.00000000E+00 5.10136556E-06
 5  6 0.00000000E+00 8.51631814E-02 0.00000000E+00 3.80859057E-02 0.00000000E+00
 5  7 0.00000000E+00 0.00000000E+00 0.00000000E+00 3.80859057E-02 0.00000000E+00
 5  8 0.00000000E+00 0.00000000E+00-1.86564669E-02 0.00000000E+00 0.00000000E+00
 5  9 0.00000000E+00 0.00000000E+00 0.00000000E+00 0.00000000E+00-1.61718694E-05
 5 10 0.00000000E+00 0.00000000E+00 0.00000000E+00 6.32167730E-03 0.00000000E+00
 5 11 0.00000000E+00-3.02756368E-03 0.00000000E+00 0.00000000E+00 0.00000000E+00
 5 12 0.00000000E+00 0.00000000E+00 0.00000000E+00 5.74931752E-05 0.00000000E+00
 5 13 0.00000000E+00 0.00000000E+00-2.39402052E-04 0.00000000E+00 0.00000000E+00
 5 14 0.00000000E+00 0.00000000E+00-2.39402052E-04 0.00000000E+00
 6  1-2.01897894E-01 1.05251080E+00 0.00000000E+00 0.00000000E+00 8.70063885E-05
 6  2 7.83523665E-01 0.00000000E+00 0.00000000E+00-1.91256070E-04-9.86884938E-01
 6  3-9.86913489E-01-9.86884938E-01 0.00000000E+00 0.00000000E+00 0.00000000E+00
 6  4-1.03965087E+00 0.00000000E+00 0.00000000E+00-4.84747053E-05 4.38558757E-01
 6  5 4.38508333E-01 4.38550155E-01 0.00000000E+00 0.00000000E+00 0.00000000E+00
 6  6 0.00000000E+00 0.00000000E+00 2.31052166E-05 0.00000000E+00 1.41793670E-05
 6  7 0.00000000E+00 8.93623268E-06 0.00000000E+00 0.00000000E+00 0.00000000E+00
 6  8-2.61178539E-01 0.00000000E+00 0.00000000E+00 3.03015656E-06 1.05933047E-01
 6  9 1.06022706E-01 1.05957570E-01 0.00000000E+00 0.00000000E+00 0.00000000E+00
 6 10-1.17168116E-01-5.79166992E-03 0.00000000E+00 0.00000000E+00 5.74743321E-05
 6 11 0.00000000E+00 0.00000000E+00 3.24613407E-04 2.49104828E-02 2.47098018E-02
 6 12 2.48542437E-02 0.00000000E+00 0.00000000E+00 0.00000000E+00 1.73445095E-04
 6 13-5.92700170E-04 3.82684894E-04 0.00000000E+00-3.28385406E-04 1.73445095E-04
 6 14-5.92700170E-04-3.82684894E-04 0.00000000E+00-3.28385406E-04
 7  1 0.00000000E+00 0.00000000E+00 0.00000000E+00-4.78227057E-01 0.00000000E+00
 7  2 0.00000000E+00 0.00000000E+00 1.08566657E+00 0.00000000E+00 0.00000000E+00
 7  3 0.00000000E+00 0.00000000E+00 0.00000000E+00 0.00000000E+00 1.14936165E-04
 7  4 0.00000000E+00 0.00000000E+00 1.59828849E-01 0.00000000E+00 0.00000000E+00
 7  5 0.00000000E+00 0.00000000E+00 0.00000000E+00 0.00000000E+00 8.09449450E-06
 7  6 0.00000000E+00-1.11367266E-01 0.00000000E+00-4.98157864E-02 0.00000000E+00
 7  7 0.00000000E+00 0.00000000E+00 0.00000000E+00-4.98173642E-02 0.00000000E+00
 7  8 0.00000000E+00 0.00000000E+00 3.25438601E-02 0.00000000E+00 0.00000000E+00
 7  9 0.00000000E+00 0.00000000E+00 0.00000000E+00 0.00000000E+00 2.70846247E-05
 7 10 0.00000000E+00 0.00000000E+00 0.00000000E+00-1.14001801E-02 0.00000000E+00
 7 11 0.00000000E+00 5.48912641E-03 0.00000000E+00 0.00000000E+00 0.00000000E+00
 7 12 0.00000000E+00 0.00000000E+00 0.00000000E+00-1.02859617E-04 0.00000000E+00
 7 13 0.00000000E+00 0.00000000E+00 4.28557158E-04 0.00000000E+00 0.00000000E+00
 7 14 0.00000000E+00 0.00000000E+00 4.28557158E-04 0.00000000E+00
 8  1 0.00000000E+00 0.00000000E+00-4.78324824E-01 0.00000000E+00 0.00000000E+00
 8  2 0.00000000E+00 1.08567988E+00 0.00000000E+00 0.00000000E+00 0.00000000E+00
 8  3 0.00000000E+00 0.00000000E+00 0.00000000E+00 1.79815334E-04 0.00000000E+00
 8  4 0.00000000E+00 1.63025610E-01 0.00000000E+00 0.00000000E+00 0.00000000E+00
 8  5 0.00000000E+00 0.00000000E+00 0.00000000E+00-2.82802408E-04 0.00000000E+00
 8  6-1.13953846E-01 0.00000000E+00 0.00000000E+00 0.00000000E+00 0.00000000E+00
 8  7-5.09489123E-02 0.00000000E+00-5.09654659E-02 0.00000000E+00 0.00000000E+00
 8  8 0.00000000E+00 3.41469885E-02 0.00000000E+00 0.00000000E+00 0.00000000E+00
 8  9 0.00000000E+00 0.00000000E+00 0.00000000E+00 8.51657366E-04 0.00000000E+00
 8 10 0.00000000E+00 0.00000000E+00-1.58842030E-02 0.00000000E+00 0.00000000E+00
 8 11 4.01532754E-03 0.00000000E+00 0.00000000E+00 0.00000000E+00 0.00000000E+00
 8 12 0.00000000E+00 0.00000000E+00-4.78880713E-03 0.00000000E+00-1.08088138E-03
 8 13-4.80492280E-03-1.07436882E-03 0.00000000E+00 1.34217558E-03 1.08088138E-03
 8 14 4.80492280E-03-1.07436882E-03 0.00000000E+00-1.34217558E-03
 9  1-3.97807891E-05 2.12117142E-04 0.00000000E+00 0.00000000E+00-4.78286583E-01
 9  2 2.33966360E-04 0.00000000E+00 0.00000000E+00 1.08567889E+00-2.69541689E-04
 9  3-3.19309864E-04-8.56386097E-05 0.00000000E+00 0.00000000E+00 0.00000000E+00
 9  4-1.07401535E-04 0.00000000E+00 0.00000000E+00 1.61748768E-01-7.65908386E-05
 9  5 1.46313709E-04-6.98984367E-07 0.00000000E+00 0.00000000E+00 0.00000000E+00
 9  6 0.00000000E+00 0.00000000E+00-1.12933572E-01 0.00000000E+00-5.05067865E-02
 9  7 0.00000000E+00-5.04921225E-02 0.00000000E+00 0.00000000E+00 0.00000000E+00
 9  8 2.55894630E-04 0.00000000E+00 0.00000000E+00 3.35139703E-02-1.18144253E-05
 9  9-6.37938592E-04-1.39764391E-04 0.00000000E+00 0.00000000E+00 0.00000000E+00
 9 10 9.20548868E-04-1.96407793E-03 0.00000000E+00 0.00000000E+00-1.42266479E-02
 9 11 0.00000000E+00 0.00000000E+00 4.40506010E-03-2.86347072E-03 7.28868357E-04
 9 12-2.01597541E-03 0.00000000E+00 0.00000000E+00 0.00000000E+00 4.47171983E-04
 9 13 3.99349584E-03 1.13262308E-03 0.00000000E+00-4.31856981E-04 4.47171983E-04
 9 14 3.99349584E-03-1.13262308E-03 0.00000000E+00-4.31856981E-04
10  1-7.76788630E-06 5.18632534E-05 0.00000000E+00 0.00000000E+00-3.72760851E-05
10  2 2.24689344E-04 0.00000000E+00 0.00000000E+00 5.24273974E-05-5.32839950E-01
10  3 9.70988732E-01-4.38427555E-01 0.00000000E+00 0.00000000E+00 0.00000000E+00
10  4 1.02610759E-03 0.00000000E+00 0.00000000E+00 5.49330406E-04-3.54625236E-02
10  5 6.30557968E-02-2.92559276E-02 0.00000000E+00 0.00000000E+00 0.00000000E+00
10  6 0.00000000E+00 0.00000000E+00-4.55366343E-04 0.00000000E+00-2.02392486E-04
10  7 0.00000000E+00-1.76428310E-04 0.00000000E+00 0.00000000E+00 0.00000000E+00
10  8 1.08026872E-03 0.00000000E+00 0.00000000E+00 2.73995244E-04 5.48203868E-03
10  9-1.16468745E-02 4.35102933E-03 0.00000000E+00 0.00000000E+00 0.00000000E+00
10 10 1.11268406E-03-7.50912553E-04 0.00000000E+00 0.00000000E+00-8.17629599E-04
10 11 0.00000000E+00 0.00000000E+00-4.71757908E-04-2.95438442E-03 3.44979597E-03
10 12-2.28537948E-03 0.00000000E+00 0.00000000E+00 0.00000000E+00 6.76594009E-05
10 13 1.40170669E-03 2.14967819E-05 0.00000000E+00-1.73187722E-05 6.76594009E-05
10 14 1.40170669E-03-2.14967819E-05 0.00000000E+00-1.73187722E-05
11  1 0.00000000E+00 0.00000000E+00 0.00000000E+00 0.00000000E+00 0.00000000E+00
11  2 0.00000000E+00 0.00000000E+00 0.00000000E+00 0.00000000E+00 0.00000000E+00
11  3 0.00000000E+00 0.00000000E+00 9.72626513E-01 0.00000000E+00 0.00000000E+00
11  4 0.00000000E+00 0.00000000E+00 0.00000000E+00 0.00000000E+00 0.00000000E+00
11  5 0.00000000E+00 0.00000000E+00 6.36655599E-02 0.00000000E+00 0.00000000E+00
11  6 0.00000000E+00 0.00000000E+00 0.00000000E+00 0.00000000E+00 0.00000000E+00
11  7 0.00000000E+00 0.00000000E+00 0.00000000E+00 0.00000000E+00 1.59567943E-05
11  8 0.00000000E+00 0.00000000E+00 0.00000000E+00 0.00000000E+00 0.00000000E+00
11  9 0.00000000E+00 0.00000000E+00-1.09443323E-02 0.00000000E+00 0.00000000E+00
11 10 0.00000000E+00 0.00000000E+00 0.00000000E+00 0.00000000E+00 0.00000000E+00
11 11 0.00000000E+00 0.00000000E+00 0.00000000E+00 0.00000000E+00 0.00000000E+00
11 12 0.00000000E+00 3.47191989E-03 0.00000000E+00 0.00000000E+00 0.00000000E+00
11 13 0.00000000E+00 0.00000000E+00 2.48711677E-04 0.00000000E+00 0.00000000E+00
11 14 0.00000000E+00 0.00000000E+00-2.48711677E-04 0.00000000E+00
12  1 0.00000000E+00 0.00000000E+00 0.00000000E+00 5.76726101E-05 0.00000000E+00
12  2 0.00000000E+00 0.00000000E+00-1.36414075E-04 0.00000000E+00 0.00000000E+00
12  3 0.00000000E+00 0.00000000E+00 0.00000000E+00 0.00000000E+00 9.72627935E-01
12  4 0.00000000E+00 0.00000000E+00-5.96925212E-05 0.00000000E+00 0.00000000E+00
12  5 0.00000000E+00 0.00000000E+00 0.00000000E+00 0.00000000E+00 6.36619014E-02
12  6 0.00000000E+00 4.12879432E-05 0.00000000E+00 1.54526034E-05 0.00000000E+00
12  7 0.00000000E+00 0.00000000E+00 0.00000000E+00 4.97164919E-05 0.00000000E+00
12  8 0.00000000E+00 0.00000000E+00-2.78626653E-05 0.00000000E+00 0.00000000E+00
12  9 0.00000000E+00 0.00000000E+00 0.00000000E+00 0.00000000E+00-1.09378917E-02
12 10 0.00000000E+00 0.00000000E+00 0.00000000E+00 3.72404062E-05 0.00000000E+00
12 11 0.00000000E+00-1.38013451E-07 0.00000000E+00 0.00000000E+00 0.00000000E+00
12 12 0.00000000E+00 0.00000000E+00 0.00000000E+00 3.45077091E-03 0.00000000E+00
12 13 0.00000000E+00 0.00000000E+00-2.09072696E-04 0.00000000E+00 0.00000000E+00
12 14 0.00000000E+00 0.00000000E+00-2.09072696E-04 0.00000000E+00
13  1 0.00000000E+00 0.00000000E+00 7.46035387E-05 0.00000000E+00 0.00000000E+00
13  2 0.00000000E+00-9.73025292E-05 0.00000000E+00 0.00000000E+00 0.00000000E+00
13  3 0.00000000E+00 0.00000000E+00 0.00000000E+00 9.72580596E-01 0.00000000E+00
13  4 0.00000000E+00-1.21552280E-03 0.00000000E+00 0.00000000E+00 0.00000000E+00
13  5 0.00000000E+00 0.00000000E+00 0.00000000E+00 6.37980868E-02 0.00000000E+00
13  6 9.66356963E-04 0.00000000E+00 0.00000000E+00 0.00000000E+00 0.00000000E+00
13  7 4.34311630E-04 0.00000000E+00 4.61337226E-04 0.00000000E+00 0.00000000E+00
13  8 0.00000000E+00-6.08775709E-04 0.00000000E+00 0.00000000E+00 0.00000000E+00
13  9 0.00000000E+00 0.00000000E+00 0.00000000E+00-1.13265267E-02 0.00000000E+00
13 10 0.00000000E+00 0.00000000E+00 1.72542999E-03 0.00000000E+00 0.00000000E+00
13 11 8.47694712E-04 0.00000000E+00 0.00000000E+00 0.00000000E+00 0.00000000E+00
13 12 0.00000000E+00 0.00000000E+00 5.36558112E-03 0.00000000E+00 3.63535410E-04
13 13 2.19819967E-03 1.50855413E-04 0.00000000E+00-9.37536911E-05-3.63535410E-04
13 14-2.19819967E-03 1.50855413E-04 0.00000000E+00 9.37536911E-05
14  1 1.80233343E-06-5.69370634E-06 0.00000000E+00 0.00000000E+00 5.73688276E-05
14  2 2.96033347E-05 0.00000000E+00 0.00000000E+00-1.43576626E-04-8.13740747E-01
14  3-5.45231476E-02 8.68250968E-01 0.00000000E+00 0.00000000E+00 0.00000000E+00
14  4 2.70420461E-04 0.00000000E+00 0.00000000E+00 5.28810450E-05-5.34164699E-02
14  5-3.70088763E-03 5.66823250E-02 0.00000000E+00 0.00000000E+00 0.00000000E+00
14  6 0.00000000E+00 0.00000000E+00-1.61644693E-05 0.00000000E+00-3.58302313E-05
14  7 0.00000000E+00-2.31057480E-05 0.00000000E+00 0.00000000E+00 0.00000000E+00
14  8 2.64177993E-04 0.00000000E+00 0.00000000E+00 2.84539681E-05 9.04471807E-03
14  9 4.35619223E-04-9.91809786E-03 0.00000000E+00 0.00000000E+00 0.00000000E+00
14 10 2.66507447E-04-1.62793172E-04 0.00000000E+00 0.00000000E+00-1.36356935E-04
14 11 0.00000000E+00 0.00000000E+00-1.04393698E-04-3.19653582E-03-1.83304239E-04
14 12 2.96638892E-03 0.00000000E+00 0.00000000E+00 0.00000000E+00 2.23127009E-05
14 13 3.06431566E-04-2.07385567E-04 0.00000000E+00-2.50378144E-04 2.23127009E-05
14 14 3.06431566E-04 2.07385567E-04 0.00000000E+00-2.50378144E-04
15  1 1.00317114E-01-5.55534956E-01 0.00000000E+00 0.00000000E+00-2.38608289E-04
15  2-4.41103326E-01 0.00000000E+00 0.00000000E+00 8.57800831E-04 6.03266919E-01
15  3 6.03357396E-01 6.03204711E-01 0.00000000E+00 0.00000000E+00 0.00000000E+00
15  4-3.33787881E-01 0.00000000E+00 0.00000000E+00-1.02666036E-03-4.18752885E-01
15  5-4.18876783E-01-4.18609421E-01 0.00000000E+00 0.00000000E+00 0.00000000E+00
15  6 0.00000000E+00 0.00000000E+00-2.49217044E-04 0.00000000E+00-6.65378240E-05
15  7 0.00000000E+00-1.28798294E-04 0.00000000E+00 0.00000000E+00 0.00000000E+00
15  8 8.01345376E-01 0.00000000E+00 0.00000000E+00 1.24630024E-04-3.74048329E-01
15  9-3.74653296E-01-3.74209799E-01 0.00000000E+00 0.00000000E+00 0.00000000E+00
15 10 4.69575833E-01 3.34444948E-02 0.00000000E+00 0.00000000E+00-5.62561561E-04
15 11 0.00000000E+00 0.00000000E+00-1.85729999E-03-1.10731883E-01-1.09232409E-01
15 12-1.10306345E-01 0.00000000E+00 0.00000000E+00 0.00000000E+00-5.29322669E-04
15 13 3.39717229E-03-2.14621046E-03 0.00000000E+00 1.84425687E-03-5.29322669E-04
15 14 3.39717229E-03 2.14621046E-03 0.00000000E+00 1.84425687E-03
16  1 0.00000000E+00 0.00000000E+00 0.00000000E+00 2.14507689E-01 0.00000000E+00
16  2 0.00000000E+00 0.00000000E+00-8.02515160E-01 0.00000000E+00 0.00000000E+00
16  3 0.00000000E+00 0.00000000E+00 0.00000000E+00 0.00000000E+00-3.84591741E-04
16  4 0.00000000E+00 0.00000000E+00 1.18533095E+00 0.00000000E+00 0.00000000E+00
16  5 0.00000000E+00 0.00000000E+00 0.00000000E+00 0.00000000E+00 8.21619399E-04
16  6 0.00000000E+00 6.62430148E-02 0.00000000E+00 2.94310456E-02 0.00000000E+00
16  7 0.00000000E+00 0.00000000E+00 0.00000000E+00 2.93936082E-02 0.00000000E+00
16  8 0.00000000E+00 0.00000000E+00-8.46721743E-02 0.00000000E+00 0.00000000E+00
16  9 0.00000000E+00 0.00000000E+00 0.00000000E+00 0.00000000E+00-4.75965870E-05
16 10 0.00000000E+00 0.00000000E+00 0.00000000E+00 2.41105176E-02 0.00000000E+00
16 11 0.00000000E+00-1.14595820E-02 0.00000000E+00 0.00000000E+00 0.00000000E+00
16 12 0.00000000E+00 0.00000000E+00 0.00000000E+00 2.11317649E-04 0.00000000E+00
16 13 0.00000000E+00 0.00000000E+00-8.35927553E-04 0.00000000E+00 0.00000000E+00
16 14 0.00000000E+00 0.00000000E+00-8.35927553E-04 0.00000000E+00
17  1 0.00000000E+00 0.00000000E+00 2.14656724E-01 0.00000000E+00 0.00000000E+00
17  2 0.00000000E+00-8.02659402E-01 0.00000000E+00 0.00000000E+00 0.00000000E+00
17  3 0.00000000E+00 0.00000000E+00 0.00000000E+00-5.58311450E-04 0.00000000E+00
17  4 0.00000000E+00 1.18170327E+00 0.00000000E+00 0.00000000E+00 0.00000000E+00
17  5 0.00000000E+00 0.00000000E+00 0.00000000E+00 1.33390670E-03 0.00000000E+00
17  6 6.92164096E-02 0.00000000E+00 0.00000000E+00 0.00000000E+00 0.00000000E+00
17  7 3.11473641E-02 0.00000000E+00 3.09171322E-02 0.00000000E+00 0.00000000E+00
17  8 0.00000000E+00-8.75675259E-02 0.00000000E+00 0.00000000E+00 0.00000000E+00
17  9 0.00000000E+00 0.00000000E+00 0.00000000E+00-1.73115720E-03 0.00000000E+00
17 10 0.00000000E+00 0.00000000E+00 3.28866943E-02 0.00000000E+00 0.00000000E+00
17 11-8.38189276E-03 0.00000000E+00 0.00000000E+00 0.00000000E+00 0.00000000E+00
17 12 0.00000000E+00 0.00000000E+00 9.53109156E-03 0.00000000E+00 2.14349940E-03
17 13 9.64641926E-03 2.00551810E-03 0.00000000E+00-2.53201903E-03-2.14349940E-03
17 14-9.64641926E-03 2.00551810E-03 0.00000000E+00 2.53201903E-03
18  1 1.15515525E-04-6.44810835E-04 0.00000000E+00 0.00000000E+00 2.14596526E-01
18  2-6.73901291E-04 0.00000000E+00 0.00000000E+00-8.02625463E-01 9.13352118E-04
18  3 1.04609520E-03 2.90615729E-04 0.00000000E+00 0.00000000E+00 0.00000000E+00
18  4-9.07486357E-04 0.00000000E+00 0.00000000E+00 1.18339027E+00-4.84761414E-04
18  5-8.79096894E-04 8.14948311E-04 0.00000000E+00 0.00000000E+00 0.00000000E+00
18  6 0.00000000E+00 0.00000000E+00 6.77386289E-02 0.00000000E+00 3.03317894E-02
18  7 0.00000000E+00 3.05245755E-02 0.00000000E+00 0.00000000E+00 0.00000000E+00
18  8 5.82754710E-04 0.00000000E+00 0.00000000E+00-8.64565175E-02-4.97537450E-04
18  9 7.96446711E-04-2.17318541E-04 0.00000000E+00 0.00000000E+00 0.00000000E+00
18 10-1.27099805E-03 4.07240841E-03 0.00000000E+00 0.00000000E+00 2.96871741E-02
18 11 0.00000000E+00 0.00000000E+00-9.19605544E-03 5.60115264E-03-1.60822390E-03
18 12 3.90267244E-03 0.00000000E+00 0.00000000E+00 0.00000000E+00-9.01022515E-04
18 13-8.06868163E-03-2.14310510E-03 0.00000000E+00 7.96426298E-04-9.01022515E-04
18 14-8.06868163E-03 2.14310510E-03 0.00000000E+00 7.96426298E-04
19  1 3.73357035E-05-2.06588372E-04 0.00000000E+00 0.00000000E+00 5.76947022E-05
19  2-1.86900977E-04 0.00000000E+00 0.00000000E+00-2.55509341E-04 2.84687584E-01
19  3-5.03355162E-01 2.19390212E-01 0.00000000E+00 0.00000000E+00 0.00000000E+00
19  4-2.45255153E-05 0.00000000E+00 0.00000000E+00 7.04198860E-04-6.18577066E-01
19  5 1.09447840E+00-4.76629945E-01 0.00000000E+00 0.00000000E+00 0.00000000E+00
19  6 0.00000000E+00 0.00000000E+00-5.90436329E-04 0.00000000E+00-2.16890826E-04
19  7 0.00000000E+00 4.54289438E-04 0.00000000E+00 0.00000000E+00 0.00000000E+00
19  8 1.60390298E-03 0.00000000E+00 0.00000000E+00 2.29021409E-04 2.55792994E-03
19  9-6.79689034E-03 1.72849544E-03 0.00000000E+00 0.00000000E+00 0.00000000E+00
19 10 1.45663392E-03-8.30239750E-04 0.00000000E+00 0.00000000E+00-1.04170705E-03
19 11 0.00000000E+00 0.00000000E+00-5.41543427E-04-3.31465750E-03 3.41288070E-03
19 12-2.44063099E-03 0.00000000E+00 0.00000000E+00 0.00000000E+00 1.71964279E-04
19 13 1.67606082E-03 1.55405701E-04 0.00000000E+00-1.43055133E-04 1.71964279E-04
19 14 1.67606082E-03-1.55405701E-04 0.00000000E+00-1.43055133E-04
20  1 0.00000000E+00 0.00000000E+00 0.00000000E+00 0.00000000E+00 0.00000000E+00
20  2 0.00000000E+00 0.00000000E+00 0.00000000E+00 0.00000000E+00 0.00000000E+00
20  3 0.00000000E+00 0.00000000E+00-5.04987117E-01 0.00000000E+00 0.00000000E+00
20  4 0.00000000E+00 0.00000000E+00 0.00000000E+00 0.00000000E+00 0.00000000E+00
20  5 0.00000000E+00 0.00000000E+00 1.09774131E+00 0.00000000E+00 0.00000000E+00
20  6 0.00000000E+00 0.00000000E+00 0.00000000E+00 0.00000000E+00 0.00000000E+00
20  7 0.00000000E+00 0.00000000E+00 0.00000000E+00 0.00000000E+00 4.32107775E-04
20  8 0.00000000E+00 0.00000000E+00 0.00000000E+00 0.00000000E+00 0.00000000E+00
20  9 0.00000000E+00 0.00000000E+00-5.85242643E-03 0.00000000E+00 0.00000000E+00
20 10 0.00000000E+00 0.00000000E+00 0.00000000E+00 0.00000000E+00 0.00000000E+00
20 11 0.00000000E+00 0.00000000E+00 0.00000000E+00 0.00000000E+00 0.00000000E+00
20 12 0.00000000E+00 3.46039074E-03 0.00000000E+00 0.00000000E+00 0.00000000E+00
20 13 0.00000000E+00 0.00000000E+00 3.04368876E-04 0.00000000E+00 0.00000000E+00
20 14 0.00000000E+00 0.00000000E+00-3.04368876E-04 0.00000000E+00
21  1 0.00000000E+00 0.00000000E+00 0.00000000E+00-1.59738584E-04 0.00000000E+00
21  2 0.00000000E+00 0.00000000E+00 6.39058388E-04 0.00000000E+00 0.00000000E+00
21  3 0.00000000E+00 0.00000000E+00 0.00000000E+00 0.00000000E+00-5.04987392E-01
21  4 0.00000000E+00 0.00000000E+00-1.23158626E-03 0.00000000E+00 0.00000000E+00
21  5 0.00000000E+00 0.00000000E+00 0.00000000E+00 0.00000000E+00 1.09774542E+00
21  6 0.00000000E+00-2.12425800E-04 0.00000000E+00-1.75038099E-04 0.00000000E+00
21  7 0.00000000E+00 0.00000000E+00 0.00000000E+00 7.49536845E-04 0.00000000E+00
21  8 0.00000000E+00 0.00000000E+00 1.79214604E-04 0.00000000E+00 0.00000000E+00
21  9 0.00000000E+00 0.00000000E+00 0.00000000E+00 0.00000000E+00-5.86193792E-03
21 10 0.00000000E+00 0.00000000E+00 0.00000000E+00 1.39825601E-05 0.00000000E+00
21 11 0.00000000E+00 1.66677658E-05 0.00000000E+00 0.00000000E+00 0.00000000E+00
21 12 0.00000000E+00 0.00000000E+00 0.00000000E+00 3.43380263E-03 0.00000000E+00
21 13 0.00000000E+00 0.00000000E+00-2.54834824E-04 0.00000000E+00 0.00000000E+00
21 14 0.00000000E+00 0.00000000E+00-2.54834824E-04 0.00000000E+00
22  1 0.00000000E+00 0.00000000E+00-1.11961980E-04 0.00000000E+00 0.00000000E+00
22  2 0.00000000E+00 5.13357525E-04 0.00000000E+00 0.00000000E+00 0.00000000E+00
22  3 0.00000000E+00 0.00000000E+00 0.00000000E+00-5.05051091E-01 0.00000000E+00
22  4 0.00000000E+00-1.54456861E-03 0.00000000E+00 0.00000000E+00 0.00000000E+00
22  5 0.00000000E+00 0.00000000E+00 0.00000000E+00 1.09793042E+00 0.00000000E+00
22  6 2.25622393E-04 0.00000000E+00 0.00000000E+00 0.00000000E+00 0.00000000E+00
22  7 1.83560346E-04 0.00000000E+00 8.60494090E-04 0.00000000E+00 0.00000000E+00
22  8 0.00000000E+00-5.27979496E-04 0.00000000E+00 0.00000000E+00 0.00000000E+00
22  9 0.00000000E+00 0.00000000E+00 0.00000000E+00-6.38372768E-03 0.00000000E+00
22 10 0.00000000E+00 0.00000000E+00 2.23734713E-03 0.00000000E+00 0.00000000E+00
22 11 1.00053972E-03 0.00000000E+00 0.00000000E+00 0.00000000E+00 0.00000000E+00
22 12 0.00000000E+00 0.00000000E+00 5.92019468E-03 0.00000000E+00 5.82568096E-04
22 13 2.70464888E-03 4.16486975E-04 0.00000000E+00-3.04427933E-04-5.82568096E-04
22 14-2.70464888E-03 4.16486975E-04 0.00000000E+00 3.04427933E-04
23  1-8.43357316E-06 4.70525935E-05 0.00000000E+00 0.00000000E+00-1.69315179E-04
23  2 5.54166363E-05 0.00000000E+00 0.00000000E+00 6.71077303E-04 4.17215957E-01
23  3 3.76333099E-02-4.55018464E-01 0.00000000E+00 0.00000000E+00 0.00000000E+00
23  4 1.61724029E-04 0.00000000E+00 0.00000000E+00-1.23896785E-03-9.07115096E-01
23  5-8.19585273E-02 9.88987123E-01 0.00000000E+00 0.00000000E+00 0.00000000E+00
23  6 0.00000000E+00 0.00000000E+00 6.28998345E-04 0.00000000E+00-4.86278008E-04
23  7 0.00000000E+00-1.63127540E-04 0.00000000E+00 0.00000000E+00 0.00000000E+00
23  8-1.03652743E-04 0.00000000E+00 0.00000000E+00 2.54992376E-04 4.94896036E-03
23  9 4.31200097E-04-5.31655003E-03 0.00000000E+00 0.00000000E+00 0.00000000E+00
23 10 4.38961772E-05-1.89545699E-04 0.00000000E+00 0.00000000E+00-2.05537696E-04
23 11 0.00000000E+00 0.00000000E+00-9.19310198E-05-3.15278813E-03-1.83167646E-04
23 12 3.01035269E-03 0.00000000E+00 0.00000000E+00 0.00000000E+00 4.69339934E-05
23 13 3.46063901E-04-2.18409889E-04 0.00000000E+00-3.33811236E-04 4.69339934E-05
23 14 3.46063901E-04 2.18409889E-04 0.00000000E+00-3.33811236E-04
24  1 0.00000000E+00 0.00000000E+00 0.00000000E+00-8.26123464E-05 0.00000000E+00
24  2 0.00000000E+00 0.00000000E+00 3.79665022E-04 0.00000000E+00 0.00000000E+00
24  3 0.00000000E+00 0.00000000E+00 0.00000000E+00 0.00000000E+00-1.41362171E-04
24  4 0.00000000E+00 0.00000000E+00-1.08954737E-03 0.00000000E+00 0.00000000E+00
24  5 0.00000000E+00 0.00000000E+00 0.00000000E+00 0.00000000E+00 3.41426511E-04
24  6 0.00000000E+00 9.86354787E-01 0.00000000E+00-8.05191206E-01 0.00000000E+00
24  7 0.00000000E+00 0.00000000E+00 0.00000000E+00-5.17618519E-01 0.00000000E+00
24  8 0.00000000E+00 0.00000000E+00 7.63770715E-04 0.00000000E+00 0.00000000E+00
24  9 0.00000000E+00 0.00000000E+00 0.00000000E+00 0.00000000E+00-1.68651901E-04
24 10 0.00000000E+00 0.00000000E+00 0.00000000E+00-5.53556215E-05 0.00000000E+00
24 11 0.00000000E+00 3.32917766E-05 0.00000000E+00 0.00000000E+00 0.00000000E+00
24 12 0.00000000E+00 0.00000000E+00 0.00000000E+00 7.43646602E-05 0.00000000E+00
24 13 0.00000000E+00 0.00000000E+00-4.51833431E-05 0.00000000E+00 0.00000000E+00
24 14 0.00000000E+00 0.00000000E+00-4.51833431E-05 0.00000000E+00
25  1 0.00000000E+00 0.00000000E+00-4.93923318E-05 0.00000000E+00 0.00000000E+00
25  2 0.00000000E+00 2.61942743E-04 0.00000000E+00 0.00000000E+00 0.00000000E+00
25  3 0.00000000E+00 0.00000000E+00 0.00000000E+00-5.95483894E-05 0.00000000E+00
25  4 0.00000000E+00-1.01157566E-03 0.00000000E+00 0.00000000E+00 0.00000000E+00
25  5 0.00000000E+00 0.00000000E+00 0.00000000E+00 1.55391016E-04 0.00000000E+00