!   Uracil plus 150 EFP1 waters...QM/EFP energy analysis for MCSCF
!   test from Albert, August 2011.
!
 $contrl scftyp=mcscf mplevl=2 ispher=1 $end
 $system mwords=10 memddi=5 $end
 $basis  gbasis=n31 ngauss=6 $end
 $GUESS  GUESS=MOREAD NORB=80 $end
 $trans  dirtrf=.t. $end
 $det    ncore=22 nact=10 nels=14 nstate=5
         wstate(1)=1,1 fstate(1)=1 iroot=0
 $end

 $DATA
../../md/production/uracil_1.trj 0.00 fs
C1
N      7.0     -1.1384975075    0.6700691176    0.1165341379 
H      1.0     -1.1848562310    1.4007436882   -0.6008212242 
C      6.0     -0.9188440563   -0.6927729975   -0.1438987924 
H      1.0     -0.9613638638   -0.9871683130   -1.2049307767 
C      6.0     -0.6747183217   -1.6207349358    0.7886910196 
H      1.0     -0.5733966616   -2.6495954508    0.5545772170 
C      6.0     -0.5398565163   -1.1748793123    2.1282863725 
O      8.0     -0.3599389441   -1.9324955263    3.0400691954 
N      7.0     -0.8078814157    0.2068351143    2.3708960473 
H      1.0     -0.6993173788    0.6437819692    3.2697444495 
C      6.0     -1.0141408936    1.1465348307    1.3914631491 
O      8.0     -1.0703328640    2.3723806825    1.5694272134 
 $END
 $EFRAG
COORD=CART
FRAGNAME=H2ODFT
O1    -6.3211185187    3.1630586034    8.2743475171
H2    -6.0274990148    2.7162881511    9.0522049616
H3    -5.5491198184    3.4942399300    7.8439809412
FRAGNAME=H2ODFT
O1     4.6122876890    2.3501851168    4.1688323254
H2     4.5279095675    1.4321487766    4.3712380190
H3     3.7970333969    2.7580009496    4.4136284442
FRAGNAME=H2ODFT
O1     4.1828815808   -5.6531153400    0.2089722872
H2     3.3786713986   -5.2003179024    0.4067067490
H3     4.2682498363   -6.3449014033    0.8453862701
FRAGNAME=H2ODFT
O1     0.9044329318   -2.6111906760   -9.9325813528
H2     1.6904821465   -2.6577708322   -9.4121628912
H3     0.5888814707   -1.7239434247   -9.8685653821
FRAGNAME=H2ODFT
O1    -0.0494105320    8.7848989007    1.2591828733
H2    -0.7232252188    9.1134567344    1.8326826308
H3     0.7770880891    8.9902165845    1.6661510932
FRAGNAME=H2ODFT
O1    -0.6396157117   -3.9760160571   -3.8072239573
H2    -1.0292715427   -4.7938193901   -4.0722607395
H3    -0.4409492352   -4.0555032508   -2.8879351718
FRAGNAME=H2ODFT
O1     0.3346387725   -2.7529994760   -5.7474510296
H2     1.2771555269   -2.7026363293   -5.7494943526
H3     0.0795919293   -3.0289328611   -4.8816044330
FRAGNAME=H2ODFT
O1     2.2304543189   -3.6942265751    1.0765815626
H2     1.4495445365   -4.1489957464    1.3490579225
H3     2.5155095353   -3.1787841200    1.8141051576
FRAGNAME=H2ODFT
O1     1.7153630020   -2.7436081375   -1.3556490612
H2     2.0316464529   -1.9233983054   -1.6993045051
H3     1.9345959671   -2.7557103774   -0.4376790743
FRAGNAME=H2ODFT
O1    -1.5447211343    4.2471018326    7.0125798624
H2    -2.4331246657    3.9960234048    7.2089907649
H3    -1.4898163113    4.3390510174    6.0748116278
FRAGNAME=H2ODFT
O1    -2.2286239013   -7.7158792716   -0.8814263220
H2    -2.3980218720   -8.1225684075   -1.7161638426
H3    -1.3745251826   -7.3186628432   -0.9415340730
FRAGNAME=H2ODFT
O1    -5.6722259255   -3.0207328131   -4.6168866995
H2    -5.2116166907   -3.6632412049   -4.1012312395
H3    -5.0995624428   -2.7827350529   -5.3284287262
FRAGNAME=H2ODFT
O1    -4.0981073500    0.0688113328   -9.4646879580
H2    -3.6956104968   -0.7845999513   -9.4884349026
H3    -4.4287318441    0.1885382701   -8.5887705199
FRAGNAME=H2ODFT
O1     4.2319232497    7.2509500315    4.5921352154
H2     5.0154111453    7.5140224548    5.0480058897
H3     3.6336176169    6.9264055689    5.2460310142
FRAGNAME=H2ODFT
O1    -6.4668520226   -5.8546126878   -1.0789597657
H2    -6.4024456385   -6.1620577625   -0.1888992072
H3    -7.3195186674   -6.1098584495   -1.3931056683
FRAGNAME=H2ODFT
O1    -4.2890367541   -5.1876052249   -2.6757181494
H2    -5.0783419100   -5.4196373662   -2.2130769166
H3    -3.9093884402   -5.9941351288   -2.9859682515
FRAGNAME=H2ODFT
O1    -0.3542990055   -4.2893709565   -1.2852483168
H2    -1.2437621704   -4.2531556669   -0.9715252141
H3     0.0520787299   -3.4724716053   -1.0435645559
FRAGNAME=H2ODFT
O1     3.8780017790   -7.3991647646    2.3220310955
H2     4.4203958649   -8.0657258530    2.7123942920
H3     3.6601925666   -6.7898445091    3.0091747685
FRAGNAME=H2ODFT
O1    -2.1830578178   -6.1413569448   -4.6874738819
H2    -2.0123030646   -7.0688020650   -4.6478908382
H3    -1.9637775821   -5.8622279785   -5.5620490087
FRAGNAME=H2ODFT
O1     3.0766049573   -2.2599460121    3.0889371588
H2     2.4563643126   -1.6109578954    3.3804751857
H3     3.3947998351   -2.6977559271    3.8622113354
FRAGNAME=H2ODFT
O1     2.6238559467    0.0343635899   -7.5173861885
H2     2.9933866451   -0.7964830210   -7.7704067927
H3     1.9018216352    0.1995697887   -8.1024091103
FRAGNAME=H2ODFT
O1     3.2570900274    3.6154150056   -8.5508739206
H2     4.0044409849    3.8006153591   -8.0049381831
H3     3.3768728301    2.7417947025   -8.8875014601
FRAGNAME=H2ODFT
O1     4.9665271155   -5.2805748538   -2.2074718968
H2     5.0085152368   -5.4181414774   -1.2746316769
H3     5.3147342805   -6.0588188265   -2.6123997216
FRAGNAME=H2ODFT
O1    -0.7093840591   -4.9418964269   -6.8094037679
H2    -0.3031636263   -4.1064082940   -6.6426015082
H3    -0.8936358623   -4.9740797864   -7.7345491394
FRAGNAME=H2ODFT
O1    -0.8686840199   -4.5251268898   -9.5073831628
H2    -0.2218526574   -3.9423184335   -9.8718306155
H3    -1.3782326447   -4.8518260703  -10.2316112336
FRAGNAME=H2ODFT
O1    -2.4016039790   -2.4149547934   -8.4597993925
H2    -1.8963737380   -1.6871826236   -8.1342713192
H3    -1.7831965475   -3.0653952950   -8.7519942874
FRAGNAME=H2ODFT
O1    -3.1056129541   -5.6071050054    6.6976057677
H2    -3.8696256905   -6.1492047388    6.5823197247
H3    -2.3906834771   -6.0515900209    6.2707716454
FRAGNAME=H2ODFT
O1    -3.9811323017   -2.2152785974   -6.3507744815
H2    -3.4737652445   -2.5622012681   -7.0670857154
H3    -4.1658675180   -1.3138045463   -6.5607646934
FRAGNAME=H2ODFT
O1    -5.9392617887   -6.8608481157    1.2737434785
H2    -5.0780403399   -7.2382092536    1.1914352658
H3    -6.0524823953   -6.6392992777    2.1842244836
FRAGNAME=H2ODFT
O1    -8.1218090517    0.7669712727    0.7627649782
H2    -8.3577224110    0.0841325775    0.1553485993
H3    -7.5781363190    1.3757616199    0.2887684309
FRAGNAME=H2ODFT
O1    -2.0424042339    1.6388877446   -6.1890678833
H2    -1.4677833203    1.7335679979   -5.4462860113
H3    -1.8871903088    2.3829275840   -6.7487033083
FRAGNAME=H2ODFT
O1    -2.7671383737   -4.0970070643   -0.7257995790
H2    -3.2602045490   -4.4410687353   -1.4533885890
H3    -3.1086439880   -3.2347958846   -0.5501742647
FRAGNAME=H2ODFT
O1     1.7021077835    0.1119301668    1.1775377561
H2     1.5733485732    0.7328334615    0.4784107158
H3     2.4836256822   -0.3741452427    0.9681602874
FRAGNAME=H2ODFT
O1     1.2958956026   -7.8133367498    1.3382667688
H2     1.2166211068   -7.5975129592    0.4228356683
H3     2.2194815991   -7.8493777891    1.5294954398
FRAGNAME=H2ODFT
O1     1.6059599402   -0.7690825688   -2.9059566093
H2     2.2537225734   -0.7127000376   -3.5901371668
H3     0.8069471759   -0.4112774033   -3.2587065492
FRAGNAME=H2ODFT
O1    -1.2161812065    2.1473240917   -9.4952155948
H2    -1.4346428763    2.8625163388   -8.9193223733
H3    -2.0000689136    1.9383010747   -9.9776136619
FRAGNAME=H2ODFT
O1     2.6990113099   -4.2364301982   -3.4050751156
H2     3.4186662985   -4.6698397889   -2.9748062715
H3     2.2703222230   -3.7080485404   -2.7509215064
FRAGNAME=H2ODFT
O1     3.9658819279   -0.6664102155   -4.2797238338
H2     4.0214875850   -0.0387152463   -4.9824225535
H3     4.7421698280   -0.5551116660   -3.7544922818
FRAGNAME=H2ODFT
O1     0.3770929774    0.1587799991   -8.7391999981
H2    -0.0565467450    0.9612284186   -8.9819170749
H3    -0.2186954474   -0.3129424467   -8.1793852599
FRAGNAME=H2ODFT
O1     3.1780805081   -2.6060400791   -8.1428210615
H2     3.2548802379   -2.7723158382   -7.2168984797
H3     3.8982237823   -3.0520399493   -8.5591817639
FRAGNAME=H2ODFT
O1     6.8793519565    1.2525651639   -4.5592068007
H2     6.6673024805    2.1538851100   -4.3760788988
H3     6.2776237992    0.9623889778   -5.2259897187
FRAGNAME=H2ODFT
O1     1.0999718188    3.5074663316   -6.8996594152
H2     1.2005548092    2.6699806837   -6.4761274735
H3     1.7270765249    3.5319928099   -7.6046534532
FRAGNAME=H2ODFT
O1    -4.1595355866   -1.9585444440   -0.0955567057
H2    -4.1946641967   -1.4785580827    0.7163900461
H3    -4.1387112505   -1.3181246441   -0.7885987542
FRAGNAME=H2ODFT
O1    -6.5767918652   -1.0512784267   -3.0555281214
H2    -7.4146125812   -1.0988576760   -2.6234735913
H3    -6.4414083319   -1.8846824378   -3.4774137780
FRAGNAME=H2ODFT
O1    -0.5054492791   -0.9028176887    7.3492789078
H2    -0.8673859352   -0.2237428101    6.8027099549
H3     0.0538510264   -1.4258893270    6.7975020656
FRAGNAME=H2ODFT
O1    -4.4293456830   -8.1031480964    3.8499322767
H2    -4.1040116628   -8.7542608595    4.4508385915
H3    -4.0851924818   -8.3232123565    2.9990452398
FRAGNAME=H2ODFT
O1    -5.6013808929    0.1413820790    5.1116396425
H2    -6.1364868152   -0.0987269211    4.3721210328
H3    -5.4546015379   -0.6479285092    5.6079490927
FRAGNAME=H2ODFT
O1    -1.3880695796    3.9914098297   -7.5805130440
H2    -1.5837356014    4.8724429430   -7.8568713536
H3    -0.4607604981    3.9611089628   -7.4071400966
FRAGNAME=H2ODFT
O1     0.4092266164   -6.8972564240   -1.0291839065
H2     0.3923612728   -5.9536458413   -1.0430793174
H3     0.8918593430   -7.1712263762   -1.7926526816
FRAGNAME=H2ODFT
O1    -8.5012313432   -5.2090421981    3.6878223382
H2    -7.7183994139   -5.5392529887    4.0989348025
H3    -9.1118237299   -5.0174012009    4.3816012075
FRAGNAME=H2ODFT
O1    -4.0748338452    1.3500550143    0.4268233366
H2    -3.5753684040    1.2973130387   -0.3723205873
H3    -3.7902138891    0.6343283542    0.9723554462
FRAGNAME=H2ODFT
O1    -4.0637576251   -0.6484673500   -2.4843014948
H2    -3.5963367708   -1.1619394868   -3.1236312718
H3    -4.9656589911   -0.6254794242   -2.7616531404
FRAGNAME=H2ODFT
O1     1.1245701134   -8.0584939262   -3.5084471280
H2     1.5528225307   -7.5320926920   -4.1644807108
H3     1.5780152735   -8.8860009793   -3.4861308121
FRAGNAME=H2ODFT
O1     1.0148226791   -2.0130862297    5.5331086056
H2     0.7701812238   -1.4340889719    4.8289841934
H3     0.8107532795   -2.8891704023    5.2472578461
FRAGNAME=H2ODFT
O1     1.6572284623   -6.0153034421   -5.0564622628
H2     1.8351339222   -5.3084443611   -4.4568137483
H3     0.9928717127   -5.7057994201   -5.6512023940
FRAGNAME=H2ODFT
O1     0.3366029233   -5.3264551531    1.8467809645
H2     0.7486571405   -6.1730274190    1.9131524548
H3    -0.5706219526   -5.4819519979    1.6378737847
FRAGNAME=H2ODFT
O1    -2.6377900879    1.4987873806   -2.1227588886
H2    -2.8756282018    2.3253168613   -2.5115525397
H3    -3.0909845616    0.8293921370   -2.6099993128
FRAGNAME=H2ODFT
O1    -0.9814560327   -0.7891288632   -6.9221405555
H2    -0.4709431366   -1.1050872599   -6.1938375083
H3    -1.4545303837   -0.0327500141   -6.6139682836
FRAGNAME=H2ODFT
O1     6.4500345784   -2.4176617889    3.9853768772
H2     6.3305949078   -1.4820631949    4.0209843199
H3     6.6795871577   -2.6281237430    3.0943719203
FRAGNAME=H2ODFT
O1     4.3353035148    1.2597407762   -6.2890382143
H2     4.3556019618    2.1999465989   -6.2085432577
H3     3.5423875869    1.0442894606   -6.7535202010
FRAGNAME=H2ODFT
O1     1.8986236032    1.3588869112   -1.1945799436
H2     1.9625800601    0.5546162322   -1.6844132833
H3     2.7821982874    1.6437169814   -1.0241508890
FRAGNAME=H2ODFT
O1     2.9618583500   -2.7821889691   -5.5857916947
H2     2.9576206415   -3.4350344175   -4.9041368580
H3     3.2779655209   -1.9835162171   -5.1945417161
FRAGNAME=H2ODFT
O1     2.5356810188    3.1008075422   -4.2288548158
H2     2.2594417374    2.2028978829   -4.3201157453
H3     2.4441388508    3.3213232764   -3.3156892796
FRAGNAME=H2ODFT
O1     6.3701575525    4.0368530130   -4.0668230185
H2     5.9186424105    4.1572922044   -3.2467578188
H3     7.1876107264    4.5035937695   -3.9975277894
FRAGNAME=H2ODFT
O1    -8.4628292753   -1.5452807261   -0.7390314689
H2    -9.2351890508   -2.0481773773   -0.5354785532
H3    -7.7255201105   -2.0371394952   -0.4144877880
FRAGNAME=H2ODFT
O1    -7.5230292054    2.7337594022    3.1025123863
H2    -7.6576270386    2.7187050142    4.0366083357
H3    -8.2189532029    2.2236880995    2.7198957243
FRAGNAME=H2ODFT
O1    -4.4514963389    0.3449817476   -6.7684467993
H2    -3.6539746916    0.7917531747   -6.5334298466
H3    -5.1313214961    0.6939845139   -6.2144492552
FRAGNAME=H2ODFT
O1     1.5218784282   -7.1246692184    5.8745879536
H2     0.5941489660   -7.0491915929    5.7180643861
H3     1.6680147246   -6.8641250733    6.7699311199
FRAGNAME=H2ODFT
O1     3.7343232408    6.3517110821   -4.0205397487
H2     4.6329985119    6.3744341004   -4.3081938390
H3     3.5531647009    7.1916817099   -3.6300152527
FRAGNAME=H2ODFT
O1    -3.3948839217   -7.8691040808    1.3947063096
H2    -3.2967301893   -8.1715898843    0.5060294068
H3    -2.9798122741   -7.0226460514    1.4405624524
FRAGNAME=H2ODFT
O1    -2.4633620097   -5.3189811630    1.4994239910
H2    -2.6807547944   -4.7426750186    2.2146093230
H3    -2.7002848695   -4.8671721853    0.7053114925
FRAGNAME=H2ODFT
O1    -5.0425818035    3.2034115619    1.9842260586
H2    -4.8593865627    2.4621364931    1.4294024558
H3    -5.9314151509    3.1035356379    2.2856867268
FRAGNAME=H2ODFT
O1    -0.7070192472    0.1746253995   -4.0561592511
H2    -1.4137109313   -0.4474515438   -4.1231338312
H3    -1.0317089046    0.9003134616   -3.5474039888
FRAGNAME=H2ODFT
O1    -2.6402569019   -9.6723040892    5.0425471942
H2    -1.9426515385   -9.3344953912    4.5039281315
H3    -2.2765069283  -10.3863844634    5.5411990066
FRAGNAME=H2ODFT
O1    -6.1448282263    3.2149416486   -3.1793065313
H2    -6.4759612618    2.6661815106   -3.8721930139
H3    -5.2109677030    3.2741166178   -3.3029240870
FRAGNAME=H2ODFT
O1     1.4413643537    1.0419473855   -5.5630847296
H2     0.6907976512    0.6738138229   -5.1249001119
H3     1.8294011305    0.3452963774   -6.0680434278
FRAGNAME=H2ODFT
O1    -1.8967960385    6.5648793906   -7.9344109437
H2    -1.1692074239    7.0917650187   -7.6447822212
H3    -2.4314310609    7.1178895848   -8.4814242634
FRAGNAME=H2ODFT
O1    -2.6871050625    4.2235963378    2.5161841888
H2    -3.5362040407    3.8475337011    2.3474054209
H3    -2.1282515644    3.9634438966    1.8014241388
FRAGNAME=H2ODFT
O1    -3.5022079504    3.7875062504   -3.0511647392
H2    -3.5869259275    4.5005317120   -2.4385506604
H3    -3.2865424698    4.1713398444   -3.8860531309
FRAGNAME=H2ODFT
O1     4.3216368680   -3.6328068939    4.7982640174
H2     5.2043490258   -3.3538792600    4.6141524328
H3     4.1529400041   -3.4202188574    5.7022696307
FRAGNAME=H2ODFT
O1    -3.6735007968    6.5960994153    2.5578851036
H2    -3.1314687009    5.8699780437    2.2936363293
H3    -4.3477956566    6.6836174817    1.9032512486
FRAGNAME=H2ODFT
O1     4.7896514968    1.7949715314   -0.9986162575
H2     4.8700015497    2.6609079913   -1.3654627792
H3     5.0300996870    1.8625718479   -0.0884001738
FRAGNAME=H2ODFT
O1    -9.3395357445   -5.0287572765    0.9502914305
H2   -10.0510603503   -5.4854665004    0.5307346712
H3    -9.2133947765   -5.4375371058    1.7916391359
FRAGNAME=H2ODFT
O1     4.0985350759   -0.9556311550    0.8337127295
H2     4.6235424686   -1.2051546969    0.0900839957
H3     4.0126460243   -1.7239331118    1.3752047683
FRAGNAME=H2ODFT
O1    -2.4424024769   -1.7045449421   -4.3144079807
H2    -2.9301566178   -2.0081301148   -5.0632807303
H3    -1.7411989733   -2.3216843710   -4.1790158618
FRAGNAME=H2ODFT
O1     4.4281301684    4.0172934723   -5.8002790832
H2     5.1321348818    4.1053341162   -5.1777803582
H3     3.6290271454    3.9659012437   -5.3006075395
FRAGNAME=H2ODFT
O1    -6.6052826064   -3.2240554500   -0.1681271038
H2    -6.5183537769   -4.0699065949   -0.5778314768
H3    -5.7361766912   -2.8606987489   -0.1089217828
FRAGNAME=H2ODFT
O1     0.7819540143    6.1056450139   -2.8170926395
H2    -0.1189038325    6.2546335097   -2.5780612148
H3     0.7799159835    5.8158981011   -3.7153804703
FRAGNAME=H2ODFT
O1    -6.0709935592   -6.0758228449    3.9199385533
H2    -5.6131585707   -5.2523163821    3.8642368201
H3    -5.4143129030   -6.7441171315    4.0340950963
FRAGNAME=H2ODFT
O1    -6.7255382568   -0.6395954991    2.7558136045
H2    -7.3078798937   -0.1629361328    2.1861184926
H3    -6.9713597607   -1.5489034215    2.6957357844
FRAGNAME=H2ODFT
O1     3.6597076953   -1.6335138351    6.2800067292
H2     3.6605266181   -0.9974580391    6.9773666132
H3     2.7623413478   -1.7333934703    6.0049864557
FRAGNAME=H2ODFT
O1    -4.1977333586    3.9367777346    6.5320236917
H2    -4.0381691889    3.2289079450    5.9284194416
H3    -4.1786798029    4.7337225038    6.0266580310
FRAGNAME=H2ODFT
O1    -4.3294380144    6.2142663589    5.3038258148
H2    -5.1060272784    6.6885361880    5.5545362020
H3    -4.3187931471    6.1905698258    4.3603197919
FRAGNAME=H2ODFT
O1    -0.9960900611   -8.2157850587    2.9474935281
H2    -0.2322542938   -8.3225314069    2.4033992424
H3    -1.7388018727   -8.4762845584    2.4265351520
FRAGNAME=H2ODFT
O1     0.8294956423    0.8429822023    8.9955863655
H2     0.3609474304    0.1795097570    8.5148105950
H3     0.6844955075    0.6675366074    9.9115952400
FRAGNAME=H2ODFT
O1    -2.5448093384   -4.1022105505    4.0575350625
H2    -3.4179390464   -3.7648859026    3.9361470524
H3    -2.5840156112   -4.7004103241    4.7865743982
FRAGNAME=H2ODFT
O1    -5.0938507350   -3.7117004114    4.0072409663
H2    -5.6495270539   -3.4097394396    3.3065828084
H3    -5.2403840591   -3.1329631472    4.7383152567
FRAGNAME=H2ODFT
O1    -0.3526238025    9.1506585127   -1.5623360647
H2    -0.2462754744    9.3590878677   -0.6479369772
H3    -0.7150920485    9.9181738217   -1.9751501573
FRAGNAME=H2ODFT
O1    -7.4135180091    4.7230905603   -1.3992404893
H2    -7.5252084846    3.9169434235   -0.9211918667
H3    -6.9336206950    4.5092392878   -2.1833607959
FRAGNAME=H2ODFT
O1    -1.7928688803    7.0176215572   -2.3664382321
H2    -1.4718414265    7.7894027657   -1.9280621445
H3    -2.5118947002    6.6912415185   -1.8493730576
FRAGNAME=H2ODFT
O1     2.7771092167   -5.5034860895    3.8705032064
H2     3.4338388854   -4.9296628536    4.2314900348
H3     2.3344266325   -5.9032487319    4.6020087863
FRAGNAME=H2ODFT
O1    -4.1713858054   -0.4777127106    2.2215760610
H2    -5.0736837628   -0.3965292742    2.4864271510
H3    -3.6700238614   -0.6241891206    3.0077435473
FRAGNAME=H2ODFT
O1     0.0920475822   -4.3189488052    4.3045314627
H2     0.6006782125   -4.5340241182    3.5390799974
H3    -0.6353020358   -3.7952545792    4.0085832494
FRAGNAME=H2ODFT
O1    -7.2519320318    2.1354167038    5.7935300804
H2    -7.3615798498    2.3002171998    6.7164041816
H3    -6.6163361462    1.4420231325    5.7154168316
FRAGNAME=H2ODFT
O1    -2.0301526066    5.2697014740   -4.8139440919
H2    -2.1597876529    5.4755325661   -5.7259236807
H3    -1.9010797983    6.0905544613   -4.3662622435
FRAGNAME=H2ODFT
O1    -0.9866698322    4.5868471401    4.5898239258
H2    -1.5471694100    4.3532066921    3.8672377245
H3    -0.5529738701    5.3895970383    4.3482067340
FRAGNAME=H2ODFT
O1     2.9018344828    7.2598061724    0.0340197767
H2     2.8646573724    7.4865619276   -0.8814463035
H3     3.6473553232    6.6912234307    0.1426052102
FRAGNAME=H2ODFT
O1     2.3378761671    8.0330243550   -2.5137197606
H2     1.7382503364    7.3417827205   -2.7450470611
H3     1.8621562928    8.8439742059   -2.5969627457
FRAGNAME=H2ODFT
O1    -0.2727346678    2.8372052301   -1.3703400008
H2    -0.5377560586    2.9067467141   -2.2735598514
H3     0.6077747362    2.4972338322   -1.3713850860
FRAGNAME=H2ODFT
O1     0.2031872034    7.5708027878   -6.8825779289
H2     0.7808410407    6.8544125909   -6.6728648293
H3     0.7496220921    8.3270560608   -7.0252956698
FRAGNAME=H2ODFT
O1    -0.9760310664   -6.6069196347    5.1492281170
H2    -1.3086046385   -7.2407052746    4.5339322241
H3    -0.6918991959   -5.8618088453    4.6442950068
FRAGNAME=H2ODFT
O1     5.9974386046   -0.0776107341   -2.4229252185
H2     5.5596547743    0.6393582470   -1.9926006292
H3     6.6163325493    0.3042798516   -3.0245964907
FRAGNAME=H2ODFT
O1     0.9267616629    4.2910251066    2.1978727284
H2     0.1012846140    3.8380775363    2.2634821354
H3     0.7406127032    5.1434185205    1.8377998374
FRAGNAME=H2ODFT
O1    -3.4100913775    5.4909963974   -1.0588827905
H2    -4.1945059228    5.6331428205   -0.5535446170
H3    -2.7675647287    5.1328522447   -0.4674686162
FRAGNAME=H2ODFT
O1    -2.0328669316    8.8536238661    3.1232988677
H2    -2.6316526030    8.2447375885    2.7213141979
H3    -2.1287618501    8.7521710467    4.0567815639
FRAGNAME=H2ODFT
O1     4.4692207521    1.6893007330    1.5568347012
H2     4.3481078159    0.7548702536    1.6120596042
H3     4.8174541522    1.9673587957    2.3888777691
FRAGNAME=H2ODFT
O1     1.2930448222    5.6713117581   -5.3894311987
H2     2.2116732733    5.6755032271   -5.1726763731
H3     1.1493561271    4.9236421521   -5.9473040993
FRAGNAME=H2ODFT
O1    -4.4398733617   -2.0736154324    5.9966199782
H2    -4.0485700352   -2.3558340402    6.8078615071
H3    -3.7335470614   -1.7869482454    5.4400200002
FRAGNAME=H2ODFT
O1    -3.6839962159    2.0045793135    4.6707135644
H2    -3.9781202205    2.4524782259    3.8936961333
H3    -4.2692850080    1.2757706726    4.8016847401
FRAGNAME=H2ODFT
O1    -2.9119879154   -2.4308680782    8.2184269798
H2    -2.7614255658   -3.3419688506    8.4136315278
H3    -2.0714982139   -2.0557472668    8.0092861358
FRAGNAME=H2ODFT
O1     3.1358807431    0.6927339873    7.6544521720
H2     3.5866391437    1.5216343541    7.6295624100
H3     2.5105540432    0.7450539094    8.3595107499
FRAGNAME=H2ODFT
O1     0.4256832119    3.6244912293    8.4808746391
H2    -0.2919357908    3.5719789432    7.8700195983
H3     0.7533001432    2.7461464194    8.5906744356
FRAGNAME=H2ODFT
O1    -0.1520748182    6.9333491346    4.4294657462
H2    -0.8472373955    7.2910372238    4.9583198622
H3    -0.1112619192    7.4566544176    3.6450141275
FRAGNAME=H2ODFT
O1    -6.4263923722    0.9532984477   -4.8070982541
H2    -7.2995903714    0.9183645211   -5.1637259717
H3    -6.3726802510    0.2739153608   -4.1540805795
FRAGNAME=H2ODFT
O1     2.5641148745    4.1211809751    4.4833141844
H2     2.3498949143    4.8742569737    5.0104430141
H3     2.0582382315    4.1927828811    3.6896893088
FRAGNAME=H2ODFT
O1    -6.4024199620    2.3032159361   -0.4222768517
H2    -6.3818552599    2.3673724242   -1.3637329007
H3    -5.6562632335    1.7834129462   -0.1694262195
FRAGNAME=H2ODFT
O1    -1.3006975543    4.6185150233    0.2558084640
H2    -0.9941611464    3.8688650991   -0.2288964729
H3    -0.6105361069    5.2616763462    0.2258227465
FRAGNAME=H2ODFT
O1     2.7505513922    3.3616926639    0.6234767892
H2     3.2639038295    2.6302605751    0.9273761619
H3     2.0614891499    3.4907323495    1.2554739726
FRAGNAME=H2ODFT
O1     4.8586859808   -0.1801213317    4.4536738777
H2     4.4711368271   -0.5596930066    3.6812688990
H3     4.6186911575   -0.7351964067    5.1783618105
FRAGNAME=H2ODFT
O1     4.4467810092    3.1359743040    7.3285672169
H2     4.0347673458    3.9397992089    7.6024078959
H3     5.0363474877    3.3589610601    6.6260241733
FRAGNAME=H2ODFT
O1     4.9117606367    4.3276884615   -1.8952091841
H2     4.0302928833    4.4969119769   -2.1871962654
H3     5.0492063912    4.8574174280   -1.1262005101
FRAGNAME=H2ODFT
O1    -5.3489287164    5.5042535091    0.6466418499
H2    -6.1826545440    5.5578621523    0.2074314084
H3    -5.2578771981    4.6145013800    0.9481865794
FRAGNAME=H2ODFT
O1     5.4617732133   -2.3450111215   -1.2677421829
H2     5.3402172308   -3.1398896685   -1.7619796690
H3     5.7125377061   -1.6770344164   -1.8856440721
FRAGNAME=H2ODFT
O1    -7.3453629271   -3.1897990019    2.4328113054
H2    -7.8925911244   -3.8462916174    2.8333574325
H3    -7.4059346406   -3.3185749405    1.4997377396
FRAGNAME=H2ODFT
O1    -0.3376838172    3.2297123798   -4.0541391536
H2    -0.8094255274    3.9460421383   -4.4481060177
H3     0.5773468861    3.3763148314   -4.2333178000
FRAGNAME=H2ODFT
O1     2.4560373175    4.2402993175   -1.8357628592
H2     1.8350396764    4.9479166055   -1.7685456170
H3     2.4252950102    3.7735929392   -1.0159345107
FRAGNAME=H2ODFT
O1    -2.1190572461    7.5661370209    5.9848015814
H2    -2.8670351968    6.9908765200    6.0067741859
H3    -1.6569250074    7.4414312552    6.7982883483
FRAGNAME=H2ODFT
O1     6.0136948604   -3.2516677383    1.3364066479
H2     6.1336298950   -2.8028089359    0.5148107515
H3     5.7362918048   -4.1294473412    1.1280104686
FRAGNAME=H2ODFT
O1    -0.9049196099    1.2026113099    4.8388850212
H2    -0.1406577666    1.6684228061    5.1385547377
H3    -1.6020088740    1.8360144867    4.7776851225
FRAGNAME=H2ODFT
O1     1.9135451633    6.4146750841    5.6802280835
H2     1.0719577572    6.7958561689    5.4870699293
H3     1.8679977321    6.0910913609    6.5657208614
FRAGNAME=H2ODFT
O1    -2.4913655585   -1.3208143397    4.2965012363
H2    -2.0301528732   -0.4978551306    4.2665103534
H3    -1.8449193065   -1.9985074921    4.1793787001
FRAGNAME=H2ODFT
O1    -0.7823303638    6.5559599865    8.0494127767
H2    -1.0146885419    6.5104528865    8.9630961108
H3    -0.8051317028    5.6719837834    7.7193451695
FRAGNAME=H2ODFT
O1    -1.4844851948   -8.5418364558   -3.6110603663
H2    -1.8212817265   -9.3374923932   -3.9910316541
H3    -0.5859120807   -8.4671271665   -3.8901003900
FRAGNAME=H2ODFT
O1     5.5860625239    4.9023410102    3.2069559803
H2     5.4135319972    4.0784225874    3.6338870098
H3     5.1406096851    5.5663067527    3.7085531446
FRAGNAME=H2ODFT
O1     0.4829321824    6.3562900311    0.7866049883
H2     0.0035757763    7.1584514760    0.9193939423
H3     1.3138658158    6.5962076327    0.4086270850
FRAGNAME=H2ODFT
O1     1.7009508034    1.7998842188    5.5450310095
H2     2.2334615123    1.4765123050    6.2540736065
H3     1.9510693608    2.6993670089    5.4062871030
FRAGNAME=H2ODFT
O1     4.6317157221    5.3293067467    0.6950502597
H2     3.8476820846    4.8046570225    0.7252558245
H3     5.0721831009    5.2066578567    1.5207767229
FRAGNAME=H2ODFT
O1     2.2873104054    5.3079312744    7.8241181652
H2     1.6282245694    4.6961998536    8.1109438678
H3     2.2795892726    6.0234283235    8.4396527385
FRAGNAME=H2ODFT
O1     1.4635079762    0.0408548047    3.7252897490
H2     1.6691508659    0.2318078261    2.8241091902
H3     1.6626587288    0.8196904269    4.2198931310
FRAGNAME=H2ODFT
O1     2.3057383865    8.1604850267    2.4481000330
H2     2.8749019625    7.8882727963    3.1501198186
H3     2.7477089983    7.9464497561    1.6420421347
 $END

--- OPTIMIZED MCSCF MO-S --- GENERATED AT Fri Apr 18 10:47:01 2014
../../md/production/uracil_1.trj 0.00 fs                                        
E(MCSCF)=     -415.7570626907, E(NUC)=      352.4882268593
 $VEC   
 1  1-2.26604327E-04-6.47752372E-05 9.40454909E-05 9.52538735E-04 2.05129422E-03
 1  2 1.74508069E-03 3.09775799E-04-1.53897593E-03 2.29000197E-03-2.48631363E-04
 1  3 2.95078815E-04 1.11507775E-04-6.97673709E-04 1.07797794E-04-7.94323187E-04
 1  4-5.25486136E-04-1.15347849E-03 1.75923315E-05-8.20731734E-05-5.00517327E-04
 1  5 3.68222103E-04 4.32192058E-04-6.30533275E-05-1.77562907E-04 6.48050980E-05
 1  6-1.14609912E-04 3.00512956E-04 1.66953255E-03-1.29192477E-04 1.06390298E-03
 1  7 5.35883256E-04-2.44216130E-05 3.05753492E-04 6.77963585E-05-4.56243621E-04
 1  8 2.01073969E-04-1.08912911E-03-1.94740515E-04-1.51589275E-03 2.29000788E-04
 1  9-1.06861482E-05 4.75828971E-04-1.02209974E-03-8.50687275E-05-1.01870486E-04
 1 10 7.52413494E-04 5.49928880E-05 1.55032488E-04-1.47910486E-04 6.39205229E-04
 1 11 1.97066990E-05-1.35685737E-04-3.26588943E-04-3.75723583E-04 1.74723147E-03
 1 12-1.70864854E-03 1.84979506E-03-3.68908052E-04-5.48558024E-04-3.03757487E-03
 1 13-3.35463382E-04 4.25041694E-04-8.96307527E-04 5.50925935E-03 4.60147733E-05
 1 14 4.10604377E-04 1.52811272E-04 6.95215673E-03-4.48378200E-04 9.33518639E-03
 1 15 1.35679368E-03 9.97513732E-01 1.96523420E-02 3.76404641E-04-7.02662048E-03
 1 16-8.70129018E-04-2.15364014E-02-7.33697600E-05 2.25004815E-03 3.32468490E-04
 2  1 1.41160715E-05-9.63706188E-05-6.73172369E-05 2.17004278E-04 4.76921192E-05
 2  2 1.88317407E-05-2.24779383E-05 4.96042189E-04 3.74789122E-04-3.41104504E-05
 2  3 5.77753275E-06 1.08935900E-04-6.01630182E-04-1.38291000E-04 3.27370727E-04
 2  4-6.93729943E-04-2.03811078E-03-1.84316980E-04 1.16925013E-03-1.32594399E-04
 2  5 3.85066253E-04 7.35470724E-04-3.36248027E-04 4.89052164E-04 1.59585271E-04
 2  6 4.38688313E-04 1.93000197E-03 2.41837630E-03-5.06027431E-04 3.80957135E-03
 2  7-6.09520217E-04-4.54607539E-05 8.40585423E-04-5.22032691E-04 3.80468331E-03
 2  8-2.40835587E-04-2.37249216E-04-6.41288846E-04 7.07856370E-03 1.53860919E-03
 2  9-7.37292523E-03 6.55086008E-03 9.96583682E-01 2.20981349E-02-8.88913409E-04
 2 10 3.38613674E-03-3.22646406E-03-1.94697309E-02 4.41353164E-04-1.95359157E-03
 2 11 3.19094583E-03-1.18845239E-04-2.36585118E-04 8.34814991E-05-1.00735987E-03
 2 12-8.82471189E-05 1.83104557E-03 1.67665730E-04-1.61654086E-03-2.06095048E-03
 2 13 6.50036292E-05 4.70549166E-04 2.60203642E-05-4.88260717E-04-1.26422563E-04
 2 14 4.75537100E-04-4.25251950E-04-2.91405435E-04 1.53232449E-04-2.46545204E-04
 2 15 6.74614001E-04 1.02825022E-03-7.35515155E-05 7.56859535E-05-2.62017891E-04
 2 16 2.32985271E-04 1.56357841E-04-1.66776887E-06-2.39734580E-04 8.53294735E-05
 3  1 9.96096995E-01 2.50432817E-02 4.67312839E-04-2.61056910E-04 8.13938345E-04
 3  2-2.06822043E-02-1.20506292E-03 2.63531331E-03-4.28168534E-03-1.40860470E-04