!  bicyclobutane...TCSCF hessian...72 basis functions
!  K.A.Nguyen, M.S.Gordon, J.A.Boatz  J.Am.Chem.Soc.  116,9241-9(1994)
!  Note that correlation of all ten CC bonding electrons gives a
!  transition state in the higher symmetry D2h.
!
!  FINAL E=-154.8245217247 after 28 iters
!  the transition vector has imaginary FREQuency=448.21i
!
!  This run takes 12 seconds on a 2.66 GHz Cloverton (10 Sep 2013)
!
 $contrl scftyp=gvb runtyp=hessian $end
 $system mwords=2 $end
 $scf    nco=14 nseto=0 npair=1 $end
 $basis  gbasis=n31 ngauss=6 ndfunc=1 $end
 $guess  guess=moread norb=16 $end
 $data
bicyclobutane inversion...GVB-PP(1)/6-31G(d) structure 6
Cs

Carbon      6.0   1.0452922610  -0.1224622344   0.0000000000
Carbon      6.0  -1.0279901158   0.0316593850   0.0000000000
Carbon      6.0   0.0030438188  -0.0317127507   1.1098257302
Hydrogen    1.0   2.0511433839   0.2574197471   0.0000000000
Hydrogen    1.0  -2.1001208726   0.0104090678   0.0000000000
Hydrogen    1.0   0.0629927231   0.8556354777   1.7376300383
Hydrogen    1.0  -0.0501988701  -0.8992062785   1.7642532220
 $end
       
--- ROHF ORBITALS --- GENERATED AT 13:59:09 CST 24-FEB-1995
triplet state orbitals at the GVB-PP(1)/6-31G(d) structure 6
E(ROHF)=     -154.8275635189, E(NUC)=  111.3305401992,   11 ITERS
 $VEC
 1  1 0.00000000E+00 0.00000000E+00 0.00000000E+00 0.00000000E+00-8.80521987E-05
 1  2 0.00000000E+00 0.00000000E+00 0.00000000E+00-1.97217718E-03 0.00000000E+00
 1  3 0.00000000E+00 0.00000000E+00 0.00000000E+00-2.86092707E-04 1.97281563E-05
 1  4 0.00000000E+00 0.00000000E+00 0.00000000E+00 0.00000000E+00-6.97885390E-05
 1  5 0.00000000E+00 0.00000000E+00 0.00000000E+00-2.01047064E-03 0.00000000E+00
 1  6 0.00000000E+00 0.00000000E+00 0.00000000E+00 2.96195994E-04-1.67442817E-05
 1  7 7.04164226E-01 2.01570268E-02-8.15009391E-06 1.99263118E-06 1.88023197E-04
 1  8-1.14055628E-02 5.38566551E-06-1.93305280E-05-8.67078807E-04-1.25559910E-03
 1  9-1.11640380E-03-1.16484494E-03 1.52460605E-05-6.29565558E-06 2.32915290E-06
 1 10-7.04164226E-01-2.01570268E-02 8.15009391E-06-1.99263118E-06 1.88023197E-04
 1 11 1.14055628E-02-5.38566551E-06 1.93305280E-05-8.67078807E-04 1.25559910E-03
 1 12 1.11640380E-03 1.16484494E-03-1.52460605E-05-6.29565558E-06 2.32915290E-06
 1 13 0.00000000E+00 0.00000000E+00 0.00000000E+00 0.00000000E+00 9.36006730E-05
 1 14 1.83395854E-03-9.36006730E-05-1.83395854E-03 9.17162496E-05 1.80711631E-03
 1 15-9.17162496E-05-1.80711631E-03
 2  1 1.88557621E-02 6.85917937E-04-1.28022930E-05-1.99897933E-05 0.00000000E+00
 2  2 6.22658661E-03-1.63332731E-03 2.96689971E-04 0.00000000E+00-6.65627805E-04
 2  3-2.92798128E-04-4.88138740E-04 6.83295295E-05 0.00000000E+00 0.00000000E+00
 2  4 1.76466016E-02 6.77352597E-04-1.92719321E-07 1.35962717E-06 0.00000000E+00
 2  5 6.18989490E-03 1.65429221E-03-9.31704089E-05 0.00000000E+00-6.78464095E-04
 2  6-2.84807030E-04-4.88450399E-04 3.63909387E-05 0.00000000E+00 0.00000000E+00
 2  7 7.03907926E-01 1.99536812E-02-7.42415353E-06 7.38063929E-06 2.05538899E-04
 2  8-1.21272536E-02-2.64347749E-05-6.65028286E-05-1.46668075E-03-1.31836323E-03
 2  9-1.14321560E-03-1.01362101E-03 1.20435089E-05-8.48744078E-06 7.38451857E-06
 2 10 7.03907926E-01 1.99536812E-02-7.42415353E-06 7.38063929E-06-2.05538899E-04
 2 11-1.21272536E-02-2.64347749E-05-6.65028286E-05 1.46668075E-03-1.31836323E-03
 2 12-1.14321560E-03-1.01362101E-03 1.20435089E-05 8.48744078E-06-7.38451857E-06
 2 13-2.03878335E-04-2.23310279E-04-1.34801245E-04-2.02673092E-04 8.63800875E-05
 2 14 1.76330334E-03 8.63800875E-05 1.76330334E-03 6.77993283E-05 1.71425836E-03
 2 15 6.77993283E-05 1.71425836E-03
 3  1 9.95895139E-01 2.67944766E-02-4.22905117E-04 5.03356484E-04 0.00000000E+00
 3  2-1.39012219E-02 2.31056696E-03-7.87149255E-04 0.00000000E+00-1.59008180E-03
 3  3-2.04662239E-03-1.99518434E-03 1.61567281E-04 0.00000000E+00 0.00000000E+00
 3  4 2.83135627E-04 1.83852036E-04 1.11129172E-04-1.99025677E-05 0.00000000E+00
 3  5-2.18031763E-03-1.09150752E-03-7.46044821E-05 0.00000000E+00 9.47322656E-05
 3  6 9.24259240E-05 2.17487560E-07-1.06978765E-05 0.00000000E+00 0.00000000E+00
 3  7-1.36200409E-02-4.43993521E-04-2.43721391E-04 3.38075788E-06-2.60271192E-04
 3  8 4.83808288E-03 8.57494268E-04 2.67688515E-04 1.97475417E-03-3.34075758E-04
 3  9-8.26361008E-05-4.35115380E-04 4.88930377E-05-2.57107456E-04 4.76407806E-05
 3 10-1.36200409E-02-4.43993521E-04-2.43721391E-04 3.38075788E-06 2.60271192E-04
 3 11 4.83808288E-03 8.57494268E-04 2.67688515E-04-1.97475417E-03-3.34075758E-04
 3 12-8.26361008E-05-4.35115380E-04 4.88930377E-05 2.57107456E-04-4.76407806E-05
 3 13-5.01599458E-04 1.73451207E-03-4.68067197E-05-2.22094654E-04-2.13335405E-04
 3 14 1.19230368E-04-2.13335405E-04 1.19230368E-04-1.46533565E-04 4.28974784E-04
 3 15-1.46533565E-04 4.28974784E-04
 4  1-5.84811303E-04 1.68507141E-04-9.10156429E-05 1.35205212E-05 0.00000000E+00
 4  2-2.27686044E-03 8.73031380E-04-6.27487584E-05 0.00000000E+00 9.12992614E-05
 4  3 9.42269411E-05 5.16301781E-06-2.69881195E-07 0.00000000E+00 0.00000000E+00
 4  4 9.95900248E-01 2.68452436E-02 4.17365673E-04-1.24373653E-04 0.00000000E+00
 4  5-1.37225265E-02-3.02194807E-03 2.36100932E-04 0.00000000E+00-1.53782803E-03
 4  6-2.14577422E-03-2.06423084E-03 5.69915330E-06 0.00000000E+00 0.00000000E+00
 4  7-1.27508341E-02-4.53259695E-04 2.57825937E-04-1.26935521E-05-3.01806745E-04
 4  8 4.96466072E-03-7.93362198E-04-6.66053151E-06 2.12673006E-03-3.36947913E-04
 4  9-7.83673913E-05-4.40350524E-04 2.20398427E-05 2.57279640E-04-2.28163287E-05
 4 10-1.27508341E-02-4.53259695E-04 2.57825937E-04-1.26935521E-05 3.01806745E-04
 4 11 4.96466072E-03-7.93362198E-04-6.66053151E-06-2.12673006E-03-3.36947913E-04
 4 12-7.83673913E-05-4.40350524E-04 2.20398427E-05-2.57279640E-04 2.28163287E-05
 4 13-1.02939645E-05-8.33227372E-05-6.85464219E-04 1.08326251E-03-1.77508215E-04
 4 14 3.56494996E-04-1.77508215E-04 3.56494996E-04-1.78312530E-04 2.93815676E-04
 4 15-1.78312530E-04 2.93815676E-04
 5  1-9.52445515E-02 1.81731528E-01-1.01332321E-01 1.68077204E-02 0.00000000E+00
 5  2 1.15487491E-01-1.92141910E-02 7.75321396E-03 0.00000000E+00 1.51973687E-02
 5  3-8.37879311E-03 6.73114383E-03-8.02097441E-04 0.00000000E+00 0.00000000E+00
 5  4-9.45258231E-02 1.80177837E-01 1.01689969E-01-8.31362640E-03 0.00000000E+00
 5  5 1.12759198E-01 2.02201145E-02-2.92280254E-03 0.00000000E+00 1.52374365E-02
 5  6-8.86952827E-03 6.97349847E-03-1.52720528E-03 0.00000000E+00 0.00000000E+00
 5  7-1.14821819E-01 2.14045896E-01 1.29720574E-03 3.87877190E-04 7.11673084E-02
 5  8 1.67595360E-01 7.16162005E-04 3.92288533E-04 3.82295609E-03 8.12645203E-04
 5  9 4.01108049E-04 1.35486519E-02 1.75062104E-04 1.75689476E-04 5.14697839E-05
 5 10-1.14821819E-01 2.14045896E-01 1.29720574E-03 3.87877190E-04-7.11673084E-02
 5 11 1.67595360E-01 7.16162005E-04 3.92288533E-04-3.82295609E-03 8.12645203E-04
 5 12 4.01108049E-04 1.35486519E-02 1.75062104E-04-1.75689476E-04-5.14697839E-05
 5 13 2.74940726E-02-2.39117535E-04 2.32972520E-02 6.18214796E-04 5.67629230E-02
 5 14 6.47365783E-03 5.67629230E-02 6.47365783E-03 5.61687527E-02 7.14438195E-03
 5 15 5.61687527E-02 7.14438195E-03
 6  1 0.00000000E+00 0.00000000E+00 0.00000000E+00 0.00000000E+00-1.32566864E-01
 6  2 0.00000000E+00 0.00000000E+00 0.00000000E+00-2.34597510E-02 0.00000000E+00
 6  3 0.00000000E+00 0.00000000E+00 0.00000000E+00 1.77103772E-02-2.43061405E-03
 6  4 0.00000000E+00 0.00000000E+00 0.00000000E+00 0.00000000E+00-1.35052365E-01
 6  5 0.00000000E+00 0.00000000E+00 0.00000000E+00-2.40041305E-02 0.00000000E+00
 6  6 0.00000000E+00 0.00000000E+00 0.00000000E+00-1.76268882E-02 1.32468732E-03
 6  7-1.38773397E-01 2.61868728E-01-3.17789180E-04 5.78695206E-04-3.68923517E-02
 6  8 2.77966689E-01 2.67481761E-04 1.20176113E-03-9.36832926E-03-2.05401697E-03
 6  9 1.11165281E-02 5.39229313E-03 1.07686974E-03-8.32212836E-05 9.36628475E-05
 6 10 1.38773397E-01-2.61868728E-01 3.17789180E-04-5.78695206E-04-3.68923517E-02
 6 11-2.77966689E-01-2.67481761E-04-1.20176113E-03-9.36832926E-03 2.05401697E-03
 6 12-1.11165281E-02-5.39229313E-03-1.07686974E-03-8.32212836E-05 9.36628475E-05
 6 13 0.00000000E+00 0.00000000E+00 0.00000000E+00 0.00000000E+00 1.09015337E-01
 6 14 3.42659585E-02-1.09015337E-01-3.42659585E-02 1.09002571E-01 3.46651435E-02
 6 15-1.09002571E-01-3.46651435E-02
 7  1-1.34953216E-01 2.64597004E-01 6.62985548E-02 5.52932333E-02 0.00000000E+00
 7  2 2.71811834E-01 2.13068449E-02 3.09182619E-02 0.00000000E+00 1.31874845E-02
 7  3-5.69468977E-03 1.78714673E-03 8.40759103E-03 0.00000000E+00 0.00000000E+00
 7  4 1.34549487E-01-2.64515888E-01 7.22405927E-02 9.76973892E-03 0.00000000E+00
 7  5-2.66336035E-01 2.67103535E-02 5.03412384E-03 0.00000000E+00-1.56138767E-02
 7  6 8.59712766E-03-2.84745084E-03 2.03076029E-04 0.00000000E+00 0.00000000E+00
 7  7 2.50983726E-03-4.64117977E-03 1.36108433E-01 7.51923372E-03 4.89892590E-03
 7  8-8.10548816E-03 3.63549994E-02-7.29084297E-05 9.44035659E-04 3.80001298E-04
 7  9-4.80695737E-04 2.54550228E-04 3.42937586E-04 1.72329948E-02-9.76175833E-04
 7 10 2.50983726E-03-4.64117977E-03 1.36108433E-01 7.51923372E-03-4.89892590E-03
 7 11-8.10548816E-03 3.63549994E-02-7.29084297E-05-9.44035659E-04 3.80001298E-04
 7 12-4.80695737E-04 2.54550228E-04 3.42937586E-04-1.72329948E-02 9.76175833E-04
 7 13 1.53592548E-01 6.80063473E-02-1.49080961E-01-6.49158176E-02 3.16569791E-03
 7 14 2.04223065E-03 3.16569791E-03 2.04223065E-03-9.60479971E-03-5.31972026E-03
 7 15-9.60479971E-03-5.31972026E-03
 8  1-7.79897875E-02 1.54020480E-01 1.09309965E-02 3.54183968E-02 0.00000000E+00
 8  2 1.58655446E-01 1.53807897E-02 2.01943577E-02 0.00000000E+00 1.72218075E-02
 8  3-4.14214284E-03-9.43995935E-03 3.93627841E-03 0.00000000E+00 0.00000000E+00
 8  4-8.54734533E-02 1.69340775E-01-1.84365648E-02-5.09047808E-03 0.00000000E+00
 8  5 1.70753661E-01-2.20135071E-02-2.75929804E-03 0.00000000E+00 2.00555884E-02
 8  6-6.39129682E-03-9.13498807E-03-2.05079263E-04 0.00000000E+00 0.00000000E+00
 8  7 6.41967230E-02-1.22127788E-01-2.82450078E-03 6.64454592E-03 2.30135498E-01
 8  8-1.54250778E-01-7.18853311E-04 3.32893719E-04 9.49323035E-02 1.29832177E-02
 8  9-2.13461994E-02 1.81316722E-03-2.12031621E-03-2.95166833E-04-4.27347878E-04
 8 10 6.41967230E-02-1.22127788E-01-2.82450078E-03 6.64454592E-03-2.30135498E-01
 8 11-1.54250778E-01-7.18853311E-04 3.32893719E-04-9.49323035E-02 1.29832177E-02
 8 12-2.13461994E-02 1.81316722E-03-2.12031621E-03 2.95166833E-04 4.27347878E-04
 8 13 8.63635135E-02 4.09596317E-02 9.24771959E-02 4.42602436E-02-1.25981267E-01
 8 14-7.13992537E-02-1.25981267E-01-7.13992537E-02-1.34141706E-01-7.64500073E-02
 8 15-1.34141706E-01-7.64500073E-02
 9  1 3.92962901E-02-7.37391619E-02-2.73431284E-01-6.53482672E-02 0.00000000E+00
 9  2-1.06438651E-01-1.01376593E-01-3.33897943E-02 0.00000000E+00-5.84875949E-03
 9  3-3.04294777E-03 4.47310551E-03-1.24652834E-02 0.00000000E+00 0.00000000E+00
 9  4 4.04944447E-02-7.82005611E-02 2.87085886E-01-1.18685567E-02 0.00000000E+00
 9  5-1.04615461E-01 1.20422141E-01 3.40037108E-04 0.00000000E+00-1.06972813E-02
 9  6 1.05014549E-03 4.48014517E-03-3.64315307E-03 0.00000000E+00 0.00000000E+00
 9  7-8.72616057E-03 1.56480925E-02-3.75468425E-03-3.61708220E-02 1.56525744E-01
 9  8 1.29437720E-02-1.11987908E-03-1.38657109E-02 5.58388072E-02-3.48254614E-03
 9  9-9.96090693E-03 9.53026568E-03-1.76595793E-03-1.00125262E-04 1.00026950E-03
 9 10-8.72616057E-03 1.56480925E-02-3.75468425E-03-3.61708220E-02-1.56525744E-01
 9 11 1.29437720E-02-1.11987908E-03-1.38657109E-02-5.58388072E-02-3.48254614E-03
 9 12-9.96090693E-03 9.53026568E-03-1.76595793E-03 1.00125262E-04-1.00026950E-03
 9 13-1.93143497E-01-1.23436065E-01-1.98131226E-01-1.18553520E-01-6.15643502E-02
 9 14-4.93983995E-02-6.15643502E-02-4.93983995E-02-2.97044173E-02-2.60590143E-02
 9 15-2.97044173E-02-2.60590143E-02
10  1 2.39034353E-02-4.84531490E-02-8.33305885E-03 7.22894870E-02 0.00000000E+00
10  2-5.38876123E-02-1.03381661E-02 1.29734546E-03 0.00000000E+00-1.63043954E-03
10  3 2.49021227E-03-1.84929283E-03-1.01092287E-02 0.00000000E+00 0.00000000E+00
10  4-4.58837778E-03 9.60209402E-03 6.62910785E-02 8.06841547E-02 0.00000000E+00
10  5 1.04658042E-02 2.62522799E-02 7.20006487E-03 0.00000000E+00-2.36554116E-03
10  6-1.28749585E-03 3.03544761E-03 8.47018066E-03 0.00000000E+00 0.00000000E+00
10  7-3.01855399E-03 5.60813927E-03-1.18800752E-02 2.97294074E-01 1.57468363E-02
10  8 3.20332730E-03-3.47389881E-03 1.63388942E-01 5.33114025E-03-1.09816615E-03
10  9 2.71603023E-04 4.48217244E-04 4.70942480E-05-4.57815497E-03-1.85993599E-02
10 10-3.01855399E-03 5.60813927E-03-1.18800752E-02 2.97294074E-01-1.57468363E-02
10 11 3.20332730E-03-3.47389881E-03 1.63388942E-01-5.33114025E-03-1.09816615E-03
10 12 2.71603023E-04 4.48217244E-04 4.70942480E-05 4.57815497E-03 1.85993599E-02
10 13-1.76435151E-02-5.69646888E-03-3.66286940E-02-2.94772461E-02 1.52754072E-01
10 14 1.16877062E-01 1.52754072E-01 1.16877062E-01-1.54660951E-01-1.19018301E-01
10 15-1.54660951E-01-1.19018301E-01
11  1 0.00000000E+00 0.00000000E+00 0.00000000E+00 0.00000000E+00-9.02522302E-03
11  2 0.00000000E+00 0.00000000E+00 0.00000000E+00-5.69506615E-03 0.00000000E+00
11  3 0.00000000E+00 0.00000000E+00 0.00000000E+00-4.81900021E-04-1.05709674E-02
11  4 0.00000000E+00 0.00000000E+00 0.00000000E+00 0.00000000E+00 1.52033644E-02
11  5 0.00000000E+00 0.00000000E+00 0.00000000E+00 8.20126212E-03 0.00000000E+00
11  6 0.00000000E+00 0.00000000E+00 0.00000000E+00 1.91992253E-04-1.06387310E-02
11  7 2.39423414E-04-1.14532345E-03 3.40858142E-02 3.10444033E-01 1.37325897E-03
11  8 1.61901218E-04 1.92124583E-02 1.76415974E-01 2.79666864E-03-2.80539514E-04
11  9 9.24546992E-04-6.94413184E-04 1.83003394E-04-7.97534358E-04-2.56109612E-02
11 10-2.39423414E-04 1.14532345E-03-3.40858142E-02-3.10444033E-01 1.37325897E-03
11 11-1.61901218E-04-1.92124583E-02-1.76415974E-01 2.79666864E-03 2.80539514E-04
11 12-9.24546992E-04 6.94413184E-04-1.83003394E-04-7.97534358E-04-2.56109612E-02
11 13 0.00000000E+00 0.00000000E+00 0.00000000E+00 0.00000000E+00 1.71675359E-01
11 14 1.36510013E-01-1.71675359E-01-1.36510013E-01-1.69113287E-01-1.32338138E-01
11 15 1.69113287E-01 1.32338138E-01
12  1 0.00000000E+00 0.00000000E+00 0.00000000E+00 0.00000000E+00-2.91473707E-01
12  2 0.00000000E+00 0.00000000E+00 0.00000000E+00-1.41437475E-01 0.00000000E+00
12  3 0.00000000E+00 0.00000000E+00 0.00000000E+00 1.62682566E-02-3.49140502E-03
12  4 0.00000000E+00 0.00000000E+00 0.00000000E+00 0.00000000E+00 3.15208651E-01
12  5 0.00000000E+00 0.00000000E+00 0.00000000E+00 1.54081688E-01 0.00000000E+00
12  6 0.00000000E+00 0.00000000E+00 0.00000000E+00 1.76736412E-02-1.05267604E-03
12  7 1.19619061E-03-3.17879045E-03 3.04498703E-01-3.36869930E-02-1.60929533E-02
12  8-8.86730707E-04 1.63698196E-01-1.57161660E-02-7.49644231E-03-1.07805600E-03
12  9 8.56486357E-04 2.20895398E-04-7.63425299E-05 1.97071845E-02-3.11606378E-04
12 10-1.19619061E-03 3.17879045E-03-3.04498703E-01 3.36869930E-02-1.60929533E-02
12 11 8.86730707E-04-1.63698196E-01 1.57161660E-02-7.49644231E-03 1.07805600E-03
12 12-8.56486357E-04-2.20895398E-04 7.63425299E-05 1.97071845E-02-3.11606378E-04
12 13 0.00000000E+00 0.00000000E+00 0.00000000E+00 0.00000000E+00-2.05935347E-03
12 14-1.61597417E-03 2.05935347E-03 1.61597417E-03 1.30857129E-02 1.14920489E-02
12 15-1.30857129E-02-1.14920489E-02
13  1 4.02664823E-02-8.31705972E-02 3.12733552E-01 5.16664305E-02 0.00000000E+00
13  2-1.32470862E-01 1.77969312E-01 3.17945424E-02 0.00000000E+00 1.98830433E-02
13  3 4.07436753E-03-2.27151341E-02 1.23122203E-02 0.00000000E+00 0.00000000E+00
13  4-4.14881250E-02 8.38240794E-02 3.02209955E-01-1.35236058E-02 0.00000000E+00
13  5 1.46646867E-01 1.78600062E-01-3.25479647E-03 0.00000000E+00-2.43054924E-02
13  6-6.62986504E-04 2.26168981E-02-1.56947749E-03 0.00000000E+00 0.00000000E+00
13  7 5.10376871E-04-8.96885318E-04-2.46989901E-01-2.08023687E-02-3.42227228E-03
13  8-8.72789942E-03-1.35917292E-01-2.37279404E-02-4.91612615E-03 2.39732495E-04
13  9-9.28325728E-05-1.83802821E-04 1.27114869E-03-2.20787449E-02 5.81276694E-03
13 10 5.10376871E-04-8.96885318E-04-2.46989901E-01-2.08023687E-02 3.42227228E-03
13 11-8.72789942E-03-1.35917292E-01-2.37279404E-02 4.91612615E-03 2.39732495E-04
13 12-9.28325728E-05-1.83802821E-04 1.27114869E-03 2.20787449E-02-5.81276694E-03
13 13 1.84667107E-01 1.73981346E-01-1.76760764E-01-1.64558373E-01-2.25733424E-02
13 14-1.71345541E-02-2.25733424E-02-1.71345541E-02 2.32555674E-02 1.90717348E-02
13 15 2.32555674E-02 1.90717348E-02
14  1 0.00000000E+00 0.00000000E+00 0.00000000E+00 0.00000000E+00-2.74640734E-01
14  2 0.00000000E+00 0.00000000E+00 0.00000000E+00-1.37721461E-01 0.00000000E+00
14  3 0.00000000E+00 0.00000000E+00 0.00000000E+00 2.38202937E-02-4.14048991E-03
14  4 0.00000000E+00 0.00000000E+00 0.00000000E+00 0.00000000E+00-2.47051046E-01
14  5 0.00000000E+00 0.00000000E+00 0.00000000E+00-1.24387941E-01 0.00000000E+00
14  6 0.00000000E+00 0.00000000E+00 0.00000000E+00-2.20398653E-02 1.90678827E-03
14  7-2.77982030E-02 6.07457334E-02 1.41919294E-02-2.93826749E-03 3.30151785E-01
14  8 1.01845359E-01 9.70659891E-03 9.62971008E-05 1.92595916E-01 2.29301335E-02
14  9-1.85364106E-02-5.75080242E-03-3.25262256E-03 8.80590810E-04-6.90145898E-04
14 10 2.77982030E-02-6.07457334E-02-1.41919294E-02 2.93826749E-03 3.30151785E-01
14 11-1.01845359E-01-9.70659891E-03-9.62971008E-05 1.92595916E-01-2.29301335E-02
14 12 1.85364106E-02 5.75080242E-03 3.25262256E-03 8.80590810E-04-6.90145898E-04
14 13 0.00000000E+00 0.00000000E+00 0.00000000E+00 0.00000000E+00-1.09509924E-01
14 14-1.09387789E-01 1.09509924E-01 1.09387789E-01-1.12840155E-01-1.10518952E-01
14 15 1.12840155E-01 1.10518952E-01
15  1 3.81149071E-02-8.18136752E-02-1.08689063E-01 5.34191173E-01 0.00000000E+00
15  2-1.59346691E-01-9.86948844E-02 4.84370795E-01 0.00000000E+00 5.50957882E-03
15  3-6.19990514E-03 7.56865315E-03-2.41978774E-04 0.00000000E+00 0.00000000E+00
15  4 5.28942989E-03-1.10642988E-02-1.64988321E-02 1.91287809E-01 0.00000000E+00
15  5-1.85731205E-02-5.78197288E-04 1.79613918E-01 0.00000000E+00 6.42474804E-03
15  6-1.51399848E-03-4.18297842E-03 4.19654337E-03 0.00000000E+00 0.00000000E+00
15  7-6.92638796E-03 1.84016730E-02 4.22821105E-02-5.96461358E-02 1.59936555E-02
15  8 5.86953409E-03 3.05732524E-02-6.07127012E-02-7.92053165E-03-1.82011468E-03
15  9-1.25042269E-03 3.27339175E-03 7.44625005E-03 4.53630652E-03 2.97049140E-02
15 10-6.92638796E-03 1.84016730E-02 4.22821105E-02-5.96461358E-02-1.59936555E-02
15 11 5.86953409E-03 3.05732524E-02-6.07127012E-02 7.92053165E-03-1.82011468E-03
15 12-1.25042269E-03 3.27339175E-03 7.44625005E-03-4.53630652E-03-2.97049140E-02
15 13 3.32992440E-02 3.86418600E-02 1.34454680E-02 3.28770370E-02-8.36054733E-02
15 14-1.43596862E-01-8.36054733E-02-1.43596862E-01 8.80517587E-02 1.29521932E-01
15 15 8.80517587E-02 1.29521932E-01
16  1-1.86181464E-02 4.06563426E-02 3.93935761E-02-2.20607709E-01 0.00000000E+00
16  2 7.49569243E-02 5.63117673E-02-1.95651772E-01 0.00000000E+00-4.79942379E-03
16  3 3.44247325E-03-2.08287085E-03-5.04829345E-03 0.00000000E+00 0.00000000E+00
16  4-1.14862266E-02 2.40303811E-02 1.30771895E-02 5.68345774E-01 0.00000000E+00
16  5 4.52286382E-02 4.12699404E-03 5.24354215E-01 0.00000000E+00-4.29447779E-03
16  6 2.23968700E-03-2.41223337E-04 8.81329945E-04 0.00000000E+00 0.00000000E+00
16  7 4.50446557E-03-1.29183842E-02-9.56848403E-03-2.51324541E-02-1.06010290E-02
16  8 3.86778312E-03-6.82891443E-03-2.32509825E-02 1.05906739E-02-6.27404498E-05
16  9 1.45081328E-03-1.53343579E-03-1.89275000E-02 6.05425759E-04 1.59095263E-02
16 10 4.50446557E-03-1.29183842E-02-9.56848403E-03-2.51324541E-02 1.06010290E-02
16 11 3.86778312E-03-6.82891443E-03-2.32509825E-02-1.05906739E-02-6.27404498E-05
16 12 1.45081328E-03-1.53343579E-03-1.89275000E-02-6.05425759E-04-1.59095263E-02
16 13-1.91373810E-02-4.07266677E-02-1.40254596E-02-2.56148047E-02-4.65816073E-02
16 14-7.14767222E-02-4.65816073E-02-7.14767222E-02 4.16617982E-02 7.82710673E-02
16 15 4.16617982E-02 7.82710673E-02
 $end

! TRAVIS-CI SMALL

! TRAVIS-CI SKIP
