!  2-pi state of NO
!  FINAL E=-129.2379078412, 9 iters, RMS grad=0.039604585
!
!  This run takes a second on anything ( 8 Nov 2005)
!
 $contrl scftyp=gvb mult=2 runtyp=gradient $end
 $system mwords=1 $end
 $guess  guess=huckel $end
 $basis  gbasis=n31 ngauss=6 ndfunc=1 npfunc=1 $end
 $scf    nco=7 nseto=1 no=2 npair=0 couple=.true.
             f(1)=1.0,0.25
         alpha(1)= 2.0, 0.50, 0.0
          beta(1)=-1.0,-0.25, 0.0  $end
 $data
NO...experimental geometry
Cnv 4

Nitrogen 7.0
Oxygen   8.0  0.0 0.0 1.15077
 $end      

! TRAVIS-CI SMALL

! TRAVIS-CI SKIP
