! BO+...3-pi state...two open shells...restricted open shell SCF by GVB
! This cation's configuration is (1-pi)**3,(5-sigma)**1
! There are 110 AOs and 92 MOs in the ACCT basis set.
!
! Expected answer for this test is
!       FINAL GVB E= -99.1194008840, after 9 iters
! the run takes 4 seconds on 2.66 GHz Cloverton ( 9 Apr 2015)
!
!     Neutral BO's ground state is 2-sigma-plus:
!        F.NAL   GVB E= -99.5540502712, after 10 iters
!        F.NAL  ROHF E= -99.5540502712, after 11 iters
!
!     The cation may have BO's sigma electron ionized away, to 1-sigma-plus,
!        F.NAL   RHF E= -99.0651739974, after 10 iters
!     but at least at SCF level, the pi electron is more easily detached,
!     giving rise to 3-pi and 1-pi terms from configuration (pi)3(sigma)1,
!     with of course the triplet a bit lower:
!        F.NAL   GVB E= -99.1194008840, after 9 iters
!        F.NAL MCSCF E= -99.1194008839, after 9 iters
!        F.NAL   GVB E= -99.1071371558, after 9 iters
!        F.NAL MCSCF E= -99.1071371557, after 9 iters
!     The SA-SCF by GVB is checked by comparing to the similar calculation
!     by the ORMAS MCSCF program, for a perfect match.
!
!     pick your favorite calculation:
!
!           get starting orbitals from the 2-sigma-plus ground state.
!           this is a half-filled case, so ROHF is possible...
x$contrl scftyp=rohf icharg=0 mult=2 ispher=1 $end
x$guess  guess=huckel $end
!           ...but the GVB program can also do high spin ROHF easily!
x$contrl scftyp=gvb icharg=0 mult=2 ispher=1 $end
x$guess  guess=huckel $end
x$scf    nco=6 nseto=1 no(1)=1 $end

!           let O=pi**3 shell, and m=sigma**1 shell
!           The shells in BO are in the order: filled, O, m
!           Only the O-m exchange coupling depends on 1-pi versus 3-pi,
!           meaning next to last BETA is -0.50 for 3-pi and 0.0 for 1-pi.
!           You may change the MULT between 1 and 3, that will feel better,
!           but GVB actually runs off the input coupling parameters.
!           Coupling constants come from Carbo and Riera's book,
!           case B5 on page 167, by following the usual translation
!           to GVB's energy formula:
!             omega/2 --> F
!               alpha --> ALPHA
!               -beta --> BETA
!           the latter two are input as row-wise lower triangles.
 $contrl scftyp=gvb icharg=1 mult=3 ispher=1 $end
 $guess  guess=moread norb=92 $end
 $scf    nco=4 nseto=2 no(1)=2,1  couple=.true.
             f(1)= 1.0, 0.75, 0.50
         alpha(1)= 2.00, 1.50, 1.00, 1.00, 0.75, 0.00
          beta(1)=-1.00,-0.75,-0.50,-0.50,-0.50, 0.00 $end

!     MCSCF gives a completely independent check on the runs above.
!           By asking for Sz=0 determinants, the singlet/triplet
!           runs below both involve four determinants: ask for all roots
!           State-average the two triplet or two singlet roots,
!           which the program will pick out because of the PURES keyword.
!           Therefore all you need to change below is the MULT value.
x$contrl scftyp=mcscf icharg=1 mult=3 ispher=1 $end
x$guess  guess=moread norb=92 $end
x$mcscf  cistep=ormas $end
x$det    group=c1 ncore=4 nact=3 nels=4
x        nstate=4 sz=0.0 pures=.true. wstate(1)=1,1 $end
x$ormas  nspace=2 mstart(1)=5,7 mine(1)=3,1 maxe(1)=3,1 $end

!                this input does the higher energy ion formed by
!                taking away the sigma e-: 1-sigma-plus state of BO+
x$contrl scftyp=rhf icharg=1 mult=1 ispher=1 $end
x$guess  guess=moread norb=92 $end

!                all runs need the input below:
 $system mwords=5 $end
 $basis  gbasis=acct $end
 $data
BO...at experimental distance
Cnv 4

B  5.0  
O  8.0  0 0 1.2045
 $end

--- OPEN SHELL ORBITALS --- GENERATED AT Mon Feb  3 10:35:12 2014
E(ROHF)=      -99.5540502712, E(NUC)=   17.5733416103,   11 ITERS
 $VEC   
 1  1-1.19244351E-04 5.60785371E-05-1.17894666E-04 1.42137922E-03 0.00000000E+00
 1  2 0.00000000E+00 5.06876521E-04 0.00000000E+00 0.00000000E+00 1.47961784E-03
 1  3 0.00000000E+00 0.00000000E+00 9.29414191E-04-3.23433987E-04-3.23433987E-04
 1  4 6.46867973E-04 0.00000000E+00 0.00000000E+00 0.00000000E+00-6.05546826E-04
 1  5-6.05546826E-04 1.21109365E-03 0.00000000E+00 0.00000000E+00 0.00000000E+00
 1  6 0.00000000E+00 0.00000000E+00 2.74028355E-04 0.00000000E+00-1.83823809E-04
 1  7 0.00000000E+00-1.83823809E-04 0.00000000E+00 0.00000000E+00 0.00000000E+00
 1  8 2.92703697E-04 0.00000000E+00 0.00000000E+00 8.04665199E-05-8.21634159E-05
 1  9-8.21634159E-05 1.64326832E-04 0.00000000E+00 0.00000000E+00 0.00000000E+00
 1 10 0.00000000E+00 0.00000000E+00 4.40388192E-04 0.00000000E+00-2.95421380E-04
 1 11 0.00000000E+00-2.95421380E-04 0.00000000E+00 0.00000000E+00 0.00000000E+00
 1 12 9.75328525E-01-1.80447986E-03 4.33756241E-02 1.64285551E-03 0.00000000E+00
 1 13 0.00000000E+00-1.53543425E-03 0.00000000E+00 0.00000000E+00 1.70690734E-03
 1 14 0.00000000E+00 0.00000000E+00-1.15865838E-03-9.73322786E-05-9.73322786E-05
 1 15 1.94664557E-04 0.00000000E+00 0.00000000E+00 0.00000000E+00 1.99869754E-04
 1 16 1.99869754E-04-3.99739507E-04 0.00000000E+00 0.00000000E+00 0.00000000E+00
 1 17 0.00000000E+00 0.00000000E+00 7.55606079E-05 0.00000000E+00-5.06875967E-05
 1 18 0.00000000E+00-5.06875967E-05 0.00000000E+00 0.00000000E+00 0.00000000E+00
 1 19-1.27527305E-03 0.00000000E+00 0.00000000E+00-1.57226924E-04-3.64848365E-04
 1 20-3.64848365E-04 7.29696730E-04 0.00000000E+00 0.00000000E+00 0.00000000E+00
 1 21 0.00000000E+00 0.00000000E+00-6.83772852E-05 0.00000000E+00 4.58688773E-05
 1 22 0.00000000E+00 4.58688773E-05 0.00000000E+00 0.00000000E+00 0.00000000E+00
 2  1 9.77646827E-01-3.37998289E-03 3.72697632E-02 2.02182884E-02 0.00000000E+00
 2  2 0.00000000E+00-3.63100096E-03 0.00000000E+00 0.00000000E+00 4.14575756E-03
 2  3 0.00000000E+00 0.00000000E+00 6.75991318E-03 4.67639556E-05 4.67639556E-05
 2  4-9.35279112E-05 0.00000000E+00 0.00000000E+00 0.00000000E+00-1.44523072E-03
 2  5-1.44523072E-03 2.89046144E-03 0.00000000E+00 0.00000000E+00 0.00000000E+00
 2  6 0.00000000E+00 0.00000000E+00 3.78167382E-04 0.00000000E+00-2.53682392E-04
 2  7 0.00000000E+00-2.53682392E-04 0.00000000E+00 0.00000000E+00 0.00000000E+00
 2  8 6.23910525E-04 0.00000000E+00 0.00000000E+00-1.86073480E-04-4.52444356E-04
 2  9-4.52444356E-04 9.04888712E-04 0.00000000E+00 0.00000000E+00 0.00000000E+00
 2 10 0.00000000E+00 0.00000000E+00 6.66740604E-04 0.00000000E+00-4.47263194E-04
 2 11 0.00000000E+00-4.47263194E-04 0.00000000E+00 0.00000000E+00 0.00000000E+00
 2 12-2.77253800E-04 1.54523449E-03-3.33050654E-04-3.43924572E-03 0.00000000E+00
 2 13 0.00000000E+00-5.64506762E-04 0.00000000E+00 0.00000000E+00-2.28898285E-03
 2 14 0.00000000E+00 0.00000000E+00-5.80779269E-04-1.54446539E-04-1.54446539E-04
 2 15 3.08893078E-04 0.00000000E+00 0.00000000E+00 0.00000000E+00-9.96071911E-04
 2 16-9.96071911E-04 1.99214382E-03 0.00000000E+00 0.00000000E+00 0.00000000E+00
 2 17 0.00000000E+00 0.00000000E+00-8.12925505E-04 0.00000000E+00 5.45327007E-04
 2 18 0.00000000E+00 5.45327007E-04 0.00000000E+00 0.00000000E+00 0.00000000E+00
 2 19-1.43702167E-02 0.00000000E+00 0.00000000E+00 2.84202133E-03-3.64220700E-04
 2 20-3.64220700E-04 7.28441400E-04 0.00000000E+00 0.00000000E+00 0.00000000E+00
 2 21 0.00000000E+00 0.00000000E+00-7.75099680E-04 0.00000000E+00 5.19952672E-04
 2 22 0.00000000E+00 5.19952672E-04 0.00000000E+00 0.00000000E+00 0.00000000E+00
 3  1-2.01212393E-02 2.01928399E-01 4.31004192E-02 6.84933656E-02 0.00000000E+00
 3  2 0.00000000E+00 1.11106123E-01 0.00000000E+00 0.00000000E+00 1.25146942E-01
 3  3 0.00000000E+00 0.00000000E+00 1.19732665E-02-1.40696466E-02-1.40696466E-02
 3  4 2.81392932E-02 0.00000000E+00 0.00000000E+00 0.00000000E+00-1.48654299E-02
 3  5-1.48654299E-02 2.97308598E-02 0.00000000E+00 0.00000000E+00 0.00000000E+00
 3  6 0.00000000E+00 0.00000000E+00 7.63902983E-03 0.00000000E+00-5.12441699E-03
 3  7 0.00000000E+00-5.12441699E-03 0.00000000E+00 0.00000000E+00 0.00000000E+00
 3  8 2.06422434E-03 0.00000000E+00 0.00000000E+00-8.00404989E-04 2.22633402E-03
 3  9 2.22633402E-03-4.45266803E-03 0.00000000E+00 0.00000000E+00 0.00000000E+00
 3 10 0.00000000E+00 0.00000000E+00 3.09223233E-03 0.00000000E+00-2.07433251E-03
 3 11 0.00000000E+00-2.07433251E-03 0.00000000E+00 0.00000000E+00 0.00000000E+00
 3 12-7.32453821E-03 5.13291156E-01 1.34454479E-01 1.74029555E-01 0.00000000E+00
 3 13 0.00000000E+00-6.13739716E-02 0.00000000E+00 0.00000000E+00-7.29344595E-02
 3 14 0.00000000E+00 0.00000000E+00 3.70879897E-02-2.83681939E-03-2.83681939E-03
 3 15 5.67363878E-03 0.00000000E+00 0.00000000E+00 0.00000000E+00-5.83990952E-03
 3 16-5.83990952E-03 1.16798190E-02 0.00000000E+00 0.00000000E+00 0.00000000E+00
 3 17 0.00000000E+00 0.00000000E+00-3.48846181E-03 0.00000000E+00 2.34013133E-03
 3 18 0.00000000E+00 2.34013133E-03 0.00000000E+00 0.00000000E+00 0.00000000E+00
 3 19-4.15787691E-02 0.00000000E+00 0.00000000E+00 1.53124386E-02 6.40807483E-03
 3 20 6.40807483E-03-1.28161497E-02 0.00000000E+00 0.00000000E+00 0.00000000E+00
 3 21 0.00000000E+00 0.00000000E+00 9.23955061E-05 0.00000000E+00-6.19807898E-05
 3 22 0.00000000E+00-6.19807898E-05 0.00000000E+00 0.00000000E+00 0.00000000E+00
 4  1 7.63613891E-03-2.94290444E-01-6.34519740E-02-1.73353260E-01 0.00000000E+00
 4  2 0.00000000E+00-1.34704575E-01 0.00000000E+00 0.00000000E+00-1.69174831E-01
 4  3 0.00000000E+00 0.00000000E+00-4.57650397E-02 1.18132836E-02 1.18132836E-02
 4  4-2.36265672E-02 0.00000000E+00 0.00000000E+00 0.00000000E+00 2.04333810E-02
 4  5 2.04333810E-02-4.08667619E-02 0.00000000E+00 0.00000000E+00 0.00000000E+00
 4  6 0.00000000E+00 0.00000000E+00-7.47312953E-03 0.00000000E+00 5.01312769E-03
 4  7 0.00000000E+00 5.01312769E-03 0.00000000E+00 0.00000000E+00 0.00000000E+00
 4  8-5.57091699E-03 0.00000000E+00 0.00000000E+00 3.46350933E-04-1.15099936E-04
 4  9-1.15099936E-04 2.30199871E-04 0.00000000E+00 0.00000000E+00 0.00000000E+00
 4 10 0.00000000E+00 0.00000000E+00-7.23307398E-03 0.00000000E+00 4.85209353E-03
 4 11 0.00000000E+00 4.85209353E-03 0.00000000E+00 0.00000000E+00 0.00000000E+00
 4 12 2.69038134E-03 1.87937816E-01 5.56330368E-02 3.94243261E-01 0.00000000E+00
 4 13 0.00000000E+00 3.18621723E-01 0.00000000E+00 0.00000000E+00 3.84302619E-01
 4 14 0.00000000E+00 0.00000000E+00 1.63337755E-01 4.70385939E-03 4.70385939E-03
 4 15-9.40771879E-03 0.00000000E+00 0.00000000E+00 0.00000000E+00 8.91849819E-03
 4 16 8.91849819E-03-1.78369964E-02 0.00000000E+00 0.00000000E+00 0.00000000E+00
 4 17 0.00000000E+00 0.00000000E+00 3.92356153E-03 0.00000000E+00-2.63200509E-03
 4 18 0.00000000E+00-2.63200509E-03 0.00000000E+00 0.00000000E+00 0.00000000E+00
 4 19 1.49377597E-01 0.00000000E+00 0.00000000E+00-8.07066827E-03-2.53391847E-03
 4 20-2.53391847E-03 5.06783694E-03 0.00000000E+00 0.00000000E+00 0.00000000E+00
 4 21 0.00000000E+00 0.00000000E+00 1.41308324E-03 0.00000000E+00-9.47925054E-04
 4 22 0.00000000E+00-9.47925054E-04 0.00000000E+00 0.00000000E+00 0.00000000E+00
 5  1 0.00000000E+00 0.00000000E+00 0.00000000E+00 0.00000000E+00 1.51521332E-01
 5  2 0.00000000E+00 0.00000000E+00 1.60541224E-01 0.00000000E+00 0.00000000E+00
 5  3 4.04280198E-02 0.00000000E+00 0.00000000E+00 0.00000000E+00 0.00000000E+00
 5  4 0.00000000E+00 0.00000000E+00 3.28574440E-02 0.00000000E+00 0.00000000E+00
 5  5 0.00000000E+00 0.00000000E+00 0.00000000E+00 1.76357186E-02 0.00000000E+00
 5  6-6.03453488E-03 0.00000000E+00 0.00000000E+00 0.00000000E+00 0.00000000E+00
 5  7-2.69872604E-03 0.00000000E+00 1.07949042E-02 0.00000000E+00 0.00000000E+00
 5  8 0.00000000E+00-2.52958012E-03 0.00000000E+00 0.00000000E+00 0.00000000E+00
 5  9 0.00000000E+00 0.00000000E+00 0.00000000E+00 1.11921807E-04 0.00000000E+00
 5 10 1.26763319E-03 0.00000000E+00 0.00000000E+00 0.00000000E+00 0.00000000E+00
 5 11 5.66902798E-04 0.00000000E+00-2.26761119E-03 0.00000000E+00 0.00000000E+00
 5 12 0.00000000E+00 0.00000000E+00 0.00000000E+00 0.00000000E+00 3.08338219E-01
 5 13 0.00000000E+00 0.00000000E+00 3.96157431E-01 0.00000000E+00 0.00000000E+00
 5 14 2.95428914E-01 0.00000000E+00 0.00000000E+00 0.00000000E+00 0.00000000E+00
 5 15 0.00000000E+00 0.00000000E+00-8.53859242E-03 0.00000000E+00 0.00000000E+00
 5 16 0.00000000E+00 0.00000000E+00 0.00000000E+00-2.75282965E-02 0.00000000E+00
 5 17-2.66359974E-03 0.00000000E+00 0.00000000E+00 0.00000000E+00 0.00000000E+00
 5 18-1.19119801E-03 0.00000000E+00 4.76479206E-03 0.00000000E+00 0.00000000E+00
 5 19 0.00000000E+00 3.01151333E-02 0.00000000E+00 0.00000000E+00 0.00000000E+00
 5 20 0.00000000E+00 0.00000000E+00 0.00000000E+00-1.64538868E-02 0.00000000E+00
 5 21-2.37570886E-03 0.00000000E+00 0.00000000E+00 0.00000000E+00 0.00000000E+00
 5 22-1.06244930E-03 0.00000000E+00 4.24979721E-03 0.00000000E+00 0.00000000E+00
 6  1 0.00000000E+00 0.00000000E+00 0.00000000E+00 0.00000000E+00 0.00000000E+00
 6  2 1.51521332E-01 0.00000000E+00 0.00000000E+00 1.60541224E-01 0.00000000E+00
 6  3 0.00000000E+00 4.04280198E-02 0.00000000E+00 0.00000000E+00 0.00000000E+00
 6  4 0.00000000E+00 0.00000000E+00 0.00000000E+00 3.28574440E-02 0.00000000E+00
 6  5 0.00000000E+00 0.00000000E+00 0.00000000E+00 0.00000000E+00 1.76357186E-02
 6  6 0.00000000E+00-6.03453488E-03 0.00000000E+00-2.69872604E-03 0.00000000E+00
 6  7 0.00000000E+00 0.00000000E+00 0.00000000E+00 1.07949042E-02 0.00000000E+00
 6  8 0.00000000E+00 0.00000000E+00-2.52958012E-03 0.00000000E+00 0.00000000E+00
 6  9 0.00000000E+00 0.00000000E+00 0.00000000E+00 0.00000000E+00 1.11921807E-04
 6 10 0.00000000E+00 1.26763319E-03 0.00000000E+00 5.66902798E-04 0.00000000E+00
 6 11 0.00000000E+00 0.00000000E+00 0.00000000E+00-2.26761119E-03 0.00000000E+00
 6 12 0.00000000E+00 0.00000000E+00 0.00000000E+00 0.00000000E+00 0.00000000E+00
 6 13 3.08338219E-01 0.00000000E+00 0.00000000E+00 3.96157431E-01 0.00000000E+00
 6 14 0.00000000E+00 2.95428914E-01 0.00000000E+00 0.00000000E+00 0.00000000E+00
 6 15 0.00000000E+00 0.00000000E+00 0.00000000E+00-8.53859242E-03 0.00000000E+00
 6 16 0.00000000E+00 0.00000000E+00 0.00000000E+00 0.00000000E+00-2.75282965E-02
 6 17 0.00000000E+00-2.66359974E-03 0.00000000E+00-1.19119801E-03 0.00000000E+00
 6 18 0.00000000E+00 0.00000000E+00 0.00000000E+00 4.76479206E-03 0.00000000E+00
 6 19 0.00000000E+00 0.00000000E+00 3.01151333E-02 0.00000000E+00 0.00000000E+00
 6 20 0.00000000E+00 0.00000000E+00 0.00000000E+00 0.00000000E+00-1.64538868E-02
 6 21 0.00000000E+00-2.37570886E-03 0.00000000E+00-1.06244930E-03 0.00000000E+00
 6 22 0.00000000E+00 0.00000000E+00 0.00000000E+00 4.24979721E-03 0.00000000E+00
 7  1 8.81473279E-03 4.24833924E-01 8.50310042E-02 2.99628105E-01 0.00000000E+00
 7  2 0.00000000E+00-2.43907859E-01 0.00000000E+00 0.00000000E+00-3.82953155E-01
 7  3 0.00000000E+00 0.00000000E+00-1.12812089E-01-4.23257205E-03-4.23257205E-03
 7  4 8.46514410E-03 0.00000000E+00 0.00000000E+00 0.00000000E+00-4.51522534E-03
 7  5-4.51522534E-03 9.03045068E-03 0.00000000E+00 0.00000000E+00 0.00000000E+00
 7  6 0.00000000E+00 0.00000000E+00-4.05805975E-03 0.00000000E+00 2.72222924E-03
 7  7 0.00000000E+00 2.72222924E-03 0.00000000E+00 0.00000000E+00 0.00000000E+00
 7  8-2.46545561E-03 0.00000000E+00 0.00000000E+00 1.28784213E-03-2.21043954E-03
 7  9-2.21043954E-03 4.42087907E-03 0.00000000E+00 0.00000000E+00 0.00000000E+00
 7 10 0.00000000E+00 0.00000000E+00-4.34607085E-03 0.00000000E+00 2.91543295E-03
 7 11 0.00000000E+00 2.91543295E-03 0.00000000E+00 0.00000000E+00 0.00000000E+00
 7 12-2.39529901E-03-5.16525861E-02-1.38422782E-02 5.93842664E-02 0.00000000E+00
 7 13 0.00000000E+00 7.50950828E-02 0.00000000E+00 0.00000000E+00 9.41407262E-02
 7 14 0.00000000E+00 0.00000000E+00 1.47840576E-02 1.42906901E-03 1.42906901E-03
 7 15-2.85813802E-03 0.00000000E+00 0.00000000E+00 0.00000000E+00 4.76700229E-03
 7 16 4.76700229E-03-9.53400458E-03 0.00000000E+00 0.00000000E+00 0.00000000E+00
 7 17 0.00000000E+00 0.00000000E+00 2.39203087E-03 0.00000000E+00-1.60462309E-03
 7 18 0.00000000E+00-1.60462309E-03 0.00000000E+00 0.00000000E+00 0.00000000E+00
 7 19 3.82869981E-02 0.00000000E+00 0.00000000E+00 8.25959369E-03-3.41646279E-03
 7 20-3.41646279E-03 6.83292558E-03 0.00000000E+00 0.00000000E+00 0.00000000E+00
 7 21 0.00000000E+00 0.00000000E+00 1.83072872E-03 0.00000000E+00-1.22809016E-03
 7 22 0.00000000E+00-1.22809016E-03 0.00000000E+00 0.00000000E+00 0.00000000E+00
 8  1 0.00000000E+00 0.00000000E+00 0.00000000E+00 0.00000000E+00 6.97732010E-02
 8  2 0.00000000E+00 0.00000000E+00 1.80234872E-01 0.00000000E+00 0.00000000E+00
 8  3 3.52511106E-01 0.00000000E+00 0.00000000E+00 0.00000000E+00 0.00000000E+00
 8  4 0.00000000E+00 0.00000000E+00-2.09764050E-02 0.00000000E+00 0.00000000E+00
 8  5 0.00000000E+00 0.00000000E+00 0.00000000E+00-1.91709084E-02 0.00000000E+00
 8  6 1.36241867E-04 0.00000000E+00 0.00000000E+00 0.00000000E+00 0.00000000E+00
 8  7 6.09292152E-05 0.00000000E+00-2.43716861E-04 0.00000000E+00 0.00000000E+00
 8  8 0.00000000E+00 1.03399565E+00 0.00000000E+00 0.00000000E+00 0.00000000E+00
 8  9 0.00000000E+00 0.00000000E+00 0.00000000E+00 4.83576591E-02 0.00000000E+00
 8 10-1.37610601E-02 0.00000000E+00 0.00000000E+00 0.00000000E+00 0.00000000E+00
 8 11-6.15413319E-03 0.00000000E+00 2.46165327E-02 0.00000000E+00 0.00000000E+00
 8 12 0.00000000E+00 0.00000000E+00 0.00000000E+00 0.00000000E+00-7.97011912E-02
 8 13 0.00000000E+00 0.00000000E+00-1.05287297E-01 0.00000000E+00 0.00000000E+00
 8 14-1.44217447E-01 0.00000000E+00 0.00000000E+00 0.00000000E+00 0.00000000E+00
 8 15 0.00000000E+00 0.00000000E+00-1.20917993E-04 0.00000000E+00 0.00000000E+00
 8 16 0.00000000E+00 0.00000000E+00 0.00000000E+00-4.11261237E-03 0.00000000E+00
 8 17-5.07683807E-04 0.00000000E+00 0.00000000E+00 0.00000000E+00 0.00000000E+00
 8 18-2.27043100E-04 0.00000000E+00 9.08172402E-04 0.00000000E+00 0.00000000E+00
 8 19 0.00000000E+00-5.05922719E-01 0.00000000E+00 0.00000000E+00 0.00000000E+00
 8 20 0.00000000E+00 0.00000000E+00 0.00000000E+00 4.39913534E-02 0.00000000E+00
 8 21 2.90803413E-03 0.00000000E+00 0.00000000E+00 0.00000000E+00 0.00000000E+00
 8 22 1.30051240E-03 0.00000000E+00-5.20204959E-03 0.00000000E+00 0.00000000E+00
 9  1 0.00000000E+00 0.00000000E+00 0.00000000E+00 0.00000000E+00 0.00000000E+00
 9  2 6.97732010E-02 0.00000000E+00 0.00000000E+00 1.80234872E-01 0.00000000E+00
 9  3 0.00000000E+00 3.52511106E-01 0.00000000E+00 0.00000000E+00 0.00000000E+00
 9  4 0.00000000E+00 0.00000000E+00 0.00000000E+00-2.09764050E-02 0.00000000E+00
 9  5 0.00000000E+00 0.00000000E+00 0.00000000E+00 0.00000000E+00-1.91709084E-02
 9  6 0.00000000E+00 1.36241867E-04 0.00000000E+00 6.09292152E-05 0.00000000E+00
 9  7 0.00000000E+00 0.00000000E+00 0.00000000E+00-2.43716861E-04 0.00000000E+00
 9  8 0.00000000E+00 0.00000000E+00 1.03399565E+00 0.00000000E+00 0.00000000E+00
 9  9 0.00000000E+00 0.00000000E+00 0.00000000E+00 0.00000000E+00 4.83576591E-02
 9 10 0.00000000E+00-1.37610601E-02 0.00000000E+00-6.15413319E-03 0.00000000E+00
 9 11 0.00000000E+00 0.00000000E+00 0.00000000E+00 2.46165327E-02 0.00000000E+00
 9 12 0.00000000E+00 0.00000000E+00 0.00000000E+00 0.00000000E+00 0.00000000E+00
 9 13-7.97011912E-02 0.00000000E+00 0.00000000E+00-1.05287297E-01 0.00000000E+00
 9 14 0.00000000E+00-1.44217447E-01 0.00000000E+00 0.00000000E+00 0.00000000E+00
 9 15 0.00000000E+00 0.00000000E+00 0.00000000E+00-1.20917993E-04 0.00000000E+00
 9 16 0.00000000E+00 0.00000000E+00 0.00000000E+00 0.00000000E+00-4.11261237E-03
 9 17 0.00000000E+00-5.07683807E-04 0.00000000E+00-2.27043100E-04 0.00000000E+00
 9 18 0.00000000E+00 0.00000000E+00 0.00000000E+00 9.08172402E-04 0.00000000E+00
 9 19 0.00000000E+00 0.00000000E+00-5.05922719E-01 0.00000000E+00 0.00000000E+00
 9 20 0.00000000E+00 0.00000000E+00 0.00000000E+00 0.00000000E+00 4.39913534E-02
 9 21 0.00000000E+00 2.90803413E-03 0.00000000E+00 1.30051240E-03 0.00000000E+00
 9 22 0.00000000E+00 0.00000000E+00 0.00000000E+00-5.20204959E-03 0.00000000E+00
10  1-5.68531285E-03 8.74603137E-02 3.93284824E-02-2.58665862E+00 0.00000000E+00
10  2 0.00000000E+00-4.67359605E-02 0.00000000E+00 0.00000000E+00-3.56503667E-01
10  3 0.00000000E+00 0.00000000E+00-1.54570956E+00 2.11912725E-04 2.11912725E-04
10  4-4.23825451E-04 0.00000000E+00 0.00000000E+00 0.00000000E+00 1.12483064E-01
10  5 1.12483064E-01-2.24966128E-01 0.00000000E+00 0.00000000E+00 0.00000000E+00
10  6 0.00000000E+00 0.00000000E+00-1.49464971E-02 0.00000000E+00 1.00264150E-02
10  7 0.00000000E+00 1.00264150E-02 0.00000000E+00 0.00000000E+00 0.00000000E+00
10  8-1.64457600E+00 0.00000000E+00 0.00000000E+00 8.67862050E-01 1.05892119E-01
10  9 1.05892119E-01-2.11784238E-01 0.00000000E+00 0.00000000E+00 0.00000000E+00
10 10 0.00000000E+00 0.00000000E+00-5.25683703E-02 0.00000000E+00 3.52639348E-02
10 11 0.00000000E+00 3.52639348E-02 0.00000000E+00 0.00000000E+00 0.00000000E+00
10 12-2.25594547E-03-6.21216541E-03-2.55050006E-03 6.01231463E-01 0.00000000E+00
10 13 0.00000000E+00 9.73422013E-03 0.00000000E+00 0.00000000E+00-1.04474408E-02
10 14 0.00000000E+00 0.00000000E+00-2.49933424E-01 1.95666428E-04 1.95666428E-04
10 15-3.91332855E-04 0.00000000E+00 0.00000000E+00 0.00000000E+00-4.23488656E-03
10 16-4.23488656E-03 8.46977312E-03 0.00000000E+00 0.00000000E+00 0.00000000E+00
10 17 0.00000000E+00 0.00000000E+00-1.18721616E-03 0.00000000E+00 7.96408813E-04
10 18 0.00000000E+00 7.96408813E-04 0.00000000E+00 0.00000000E+00 0.00000000E+00
10 19 3.40867123E+00 0.00000000E+00 0.00000000E+00-8.90156916E-01 1.28327683E-04
10 20 1.28327683E-04-2.56655365E-04 0.00000000E+00 0.00000000E+00 0.00000000E+00
10 21 0.00000000E+00 0.00000000E+00 5.76943590E-03 0.00000000E+00-3.87025526E-03
10 22 0.00000000E+00-3.87025526E-03 0.00000000E+00 0.00000000E+00 0.00000000E+00
11  1-1.34795635E-02 4.97051563E-03 5.08946462E-03-1.50334353E+00 0.00000000E+00
11  2 0.00000000E+00-2.60507224E-02 0.00000000E+00 0.00000000E+00-2.20831502E-01
11  3 0.00000000E+00 0.00000000E+00-1.22952738E+00-3.26198748E-03-3.26198748E-03
11  4 6.52397497E-03 0.00000000E+00 0.00000000E+00 0.00000000E+00 4.65661846E-02
11  5 4.65661846E-02-9.31323693E-02 0.00000000E+00 0.00000000E+00 0.00000000E+00
11  6 0.00000000E+00 0.00000000E+00-1.61467367E-04 0.00000000E+00 1.08315603E-04
11  7 0.00000000E+00 1.08315603E-04 0.00000000E+00 0.00000000E+00 0.00000000E+00
11  8-1.87911351E+00 0.00000000E+00 0.00000000E+00-1.03666510E+00 1.89159697E-01
11  9 1.89159697E-01-3.78319393E-01 0.00000000E+00 0.00000000E+00 0.00000000E+00
11 10 0.00000000E+00 0.00000000E+00-4.77299652E-02 0.00000000E+00 3.20182340E-02
11 11 0.00000000E+00 3.20182340E-02 0.00000000E+00 0.00000000E+00 0.00000000E+00
11 12 4.10413693E-03 5.46869375E-02 1.26324386E-02 3.65482341E-01 0.00000000E+00
11 13 0.00000000E+00 1.00648306E-02 0.00000000E+00 0.00000000E+00 1.56396895E-02
11 14 0.00000000E+00 0.00000000E+00-2.16859247E-01 8.17738761E-04 8.17738761E-04
11 15-1.63547752E-03 0.00000000E+00 0.00000000E+00 0.00000000E+00-7.57773159E-03
11 16-7.57773159E-03 1.51554632E-02 0.00000000E+00 0.00000000E+00 0.00000000E+00
11 17 0.00000000E+00 0.00000000E+00-6.17025414E-04 0.00000000E+00 4.13913231E-04
11 18 0.00000000E+00 4.13913231E-04 0.00000000E+00 0.00000000E+00 0.00000000E+00
11 19 3.11646043E+00 0.00000000E+00 0.00000000E+00 5.21309784E-03 6.18928268E-03
11 20 6.18928268E-03-1.23785654E-02 0.00000000E+00 0.00000000E+00 0.00000000E+00
11 21 0.00000000E+00 0.00000000E+00-1.53214633E-04 0.00000000E+00 1.02779500E-04
11 22 0.00000000E+00 1.02779500E-04 0.00000000E+00 0.00000000E+00 0.00000000E+00
12  1 0.00000000E+00 0.00000000E+00 0.00000000E+00 0.00000000E+00-1.78940617E-01
12  2 0.00000000E+00 0.00000000E+00-2.94240450E-01 0.00000000E+00 0.00000000E+00
12  3-3.10596322E-01 0.00000000E+00 0.00000000E+00 0.00000000E+00 0.00000000E+00
12  4 0.00000000E+00 0.00000000E+00 4.28630862E-02 0.00000000E+00 0.00000000E+00
12  5 0.00000000E+00 0.00000000E+00 0.00000000E+00 6.06944661E-02 0.00000000E+00
12  6 6.36348321E-03 0.00000000E+00 0.00000000E+00 0.00000000E+00 0.00000000E+00
12  7 2.84583621E-03 0.00000000E+00-1.13833448E-02 0.00000000E+00 0.00000000E+00
12  8 0.00000000E+00 9.35435766E-01 0.00000000E+00 0.00000000E+00 0.00000000E+00
12  9 0.00000000E+00 0.00000000E+00 0.00000000E+00 6.08531500E-01 0.00000000E+00
12 10-1.16492552E-02 0.00000000E+00 0.00000000E+00 0.00000000E+00 0.00000000E+00
12 11-5.20970532E-03 0.00000000E+00 2.08388213E-02 0.00000000E+00 0.00000000E+00
12 12 0.00000000E+00 0.00000000E+00 0.00000000E+00 0.00000000E+00 1.11948730E-01
12 13 0.00000000E+00 0.00000000E+00 1.40656690E-01 0.00000000E+00 0.00000000E+00
12 14 1.90533796E-01 0.00000000E+00 0.00000000E+00 0.00000000E+00 0.00000000E+00
12 15 0.00000000E+00 0.00000000E+00 3.56696071E-03 0.00000000E+00 0.00000000E+00
12 16 0.00000000E+00 0.00000000E+00 0.00000000E+00 9.14634969E-04 0.00000000E+00
12 17 4.58591090E-04 0.00000000E+00 0.00000000E+00 0.00000000E+00 0.00000000E+00
12 18 2.05088170E-04 0.00000000E+00-8.20352681E-04 0.00000000E+00 0.00000000E+00
12 19 0.00000000E+00-6.64998728E-01 0.00000000E+00 0.00000000E+00 0.00000000E+00
12 20 0.00000000E+00 0.00000000E+00 0.00000000E+00 1.51563155E-02 0.00000000E+00
12 21 3.18951637E-04 0.00000000E+00 0.00000000E+00 0.00000000E+00 0.00000000E+00
12 22 1.42639508E-04 0.00000000E+00-5.70558033E-04 0.00000000E+00 0.00000000E+00
13  1 0.00000000E+00 0.00000000E+00 0.00000000E+00 0.00000000E+00 0.00000000E+00
13  2-1.78940617E-01 0.00000000E+00 0.00000000E+00-2.94240450E-01 0.00000000E+00
13  3 0.00000000E+00-3.10596322E-01 0.00000000E+00 0.00000000E+00 0.00000000E+00
13  4 0.00000000E+00 0.00000000E+00 0.00000000E+00 4.28630862E-02 0.00000000E+00
13  5 0.00000000E+00 0.00000000E+00 0.00000000E+00 0.00000000E+00 6.06944661E-02
13  6 0.00000000E+00 6.36348321E-03 0.00000000E+00 2.84583621E-03 0.00000000E+00
13  7 0.00000000E+00 0.00000000E+00 0.00000000E+00-1.13833448E-02 0.00000000E+00
13  8 0.00000000E+00 0.00000000E+00 9.35435766E-01 0.00000000E+00 0.00000000E+00
13  9 0.00000000E+00 0.00000000E+00 0.00000000E+00 0.00000000E+00 6.08531500E-01
13 10 0.00000000E+00-1.16492552E-02 0.00000000E+00-5.20970532E-03 0.00000000E+00
13 11 0.00000000E+00 0.00000000E+00 0.00000000E+00 2.08388213E-02 0.00000000E+00
13 12 0.00000000E+00 0.00000000E+00 0.00000000E+00 0.00000000E+00 0.00000000E+00
13 13 1.11948730E-01 0.00000000E+00 0.00000000E+00 1.40656690E-01 0.00000000E+00
13 14 0.00000000E+00 1.90533796E-01 0.00000000E+00 0.00000000E+00 0.00000000E+00
13 15 0.00000000E+00 0.00000000E+00 0.00000000E+00 3.56696071E-03 0.00000000E+00
13 16 0.00000000E+00 0.00000000E+00 0.00000000E+00 0.00000000E+00 9.14634969E-04
13 17 0.00000000E+00 4.58591090E-04 0.00000000E+00 2.05088170E-04 0.00000000E+00
13 18 0.00000000E+00 0.00000000E+00 0.00000000E+00-8.20352681E-04 0.00000000E+00
13 19 0.00000000E+00 0.00000000E+00-6.64998728E-01 0.00000000E+00 0.00000000E+00
13 20 0.00000000E+00 0.00000000E+00 0.00000000E+00 0.00000000E+00 1.51563155E-02
13 21 0.00000000E+00 3.18951637E-04 0.00000000E+00 1.42639508E-04 0.00000000E+00
13 22 0.00000000E+00 0.00000000E+00 0.00000000E+00-5.70558033E-04 0.00000000E+00
14  1-1.78486568E-02-8.52188081E-02-2.46232541E-02-6.35903286E+00 0.00000000E+00
14  2 0.00000000E+00 2.61733113E-02 0.00000000E+00 0.00000000E+00-6.42137620E-01
14  3 0.00000000E+00 0.00000000E+00-3.25185077E+00 3.19174984E-02 3.19174984E-02
14  4-6.38349968E-02 0.00000000E+00 0.00000000E+00 0.00000000E+00 2.35182485E-01
14  5 2.35182485E-01-4.70364971E-01 0.00000000E+00 0.00000000E+00 0.00000000E+00
14  6 0.00000000E+00 0.00000000E+00-2.32504905E-02 0.00000000E+00 1.55969032E-02
14  7 0.00000000E+00 1.55969032E-02 0.00000000E+00 0.00000000E+00 0.00000000E+00
14  8-1.67984743E+00 0.00000000E+00 0.00000000E+00-4.28478192E-01 8.29608711E-01
14  9 8.29608711E-01-1.65921742E+00 0.00000000E+00 0.00000000E+00 0.00000000E+00
14 10 0.00000000E+00 0.00000000E+00-1.49808679E-01 0.00000000E+00 1.00494717E-01
14 11 0.00000000E+00 1.00494717E-01 0.00000000E+00 0.00000000E+00 0.00000000E+00
14 12-1.83609112E-02-7.97301649E-02-2.40642173E-02 1.41241877E+00 0.00000000E+00
14 13 0.00000000E+00 3.90302747E-02 0.00000000E+00 0.00000000E+00-1.66535346E-02
14 14 0.00000000E+00 0.00000000E+00-5.72475955E-01 1.74016291E-03 1.74016291E-03
14 15-3.48032581E-03 0.00000000E+00 0.00000000E+00 0.00000000E+00-1.53617406E-02
14 16-1.53617406E-02 3.07234812E-02 0.00000000E+00 0.00000000E+00 0.00000000E+00
14 17 0.00000000E+00 0.00000000E+00-3.18741196E-03 0.00000000E+00 2.13818094E-03
14 18 0.00000000E+00 2.13818094E-03 0.00000000E+00 0.00000000E+00 0.00000000E+00
14 19 7.99410834E+00 0.00000000E+00 0.00000000E+00-9.49988966E-01-5.09465877E-03
14 20-5.09465877E-03 1.01893175E-02 0.00000000E+00 0.00000000E+00 0.00000000E+00
14 21 0.00000000E+00 0.00000000E+00 4.74477553E-03 0.00000000E+00-3.18289219E-03
14 22 0.00000000E+00-3.18289219E-03 0.00000000E+00 0.00000000E+00 0.00000000E+00
15  1 0.00000000E+00 0.00000000E+00 0.00000000E+00 0.00000000E+00 0.00000000E+00
15  2 0.00000000E+00 0.00000000E+00 0.00000000E+00 0.00000000E+00 0.00000000E+00
15  3 0.00000000E+00 0.00000000E+00 0.00000000E+00 2.91075117E-02-2.91075117E-02
15  4 0.00000000E+00 0.00000000E+00 0.00000000E+00 0.00000000E+00-7.39338938E-02
15  5 7.39338938E-02 0.00000000E+00 0.00000000E+00 0.00000000E+00 0.00000000E+00
15  6 0.00000000E+00 0.00000000E+00 0.00000000E+00 0.00000000E+00-4.22908248E-03
15  7 0.00000000E+00 4.22908248E-03 0.00000000E+00 0.00000000E+00 0.00000000E+00
15  8 0.00000000E+00 0.00000000E+00 0.00000000E+00 0.00000000E+00 9.14556390E-01
15  9-9.14556390E-01 0.00000000E+00 0.00000000E+00 0.00000000E+00 0.00000000E+00
15 10 0.00000000E+00 0.00000000E+00 0.00000000E+00 0.00000000E+00-1.41704926E-03
15 11 0.00000000E+00 1.41704926E-03 0.00000000E+00 0.00000000E+00 0.00000000E+00
15 12 0.00000000E+00 0.00000000E+00 0.00000000E+00 0.00000000E+00 0.00000000E+00
15 13 0.00000000E+00 0.00000000E+00 0.00000000E+00 0.00000000E+00 0.00000000E+00
15 14 0.00000000E+00 0.00000000E+00 0.00000000E+00-6.85930911E-04 6.85930911E-04