!   glycine GVB-PP(10) energy calculation
!
!   This run reproduces section B.4 of the paper
!   R.P.Muller, J.-M.Langlois, M.N.Ringnalda, R.A.Friesner, W.A.Goddard
!                 J.Chem.Phys. 100, 1226-1235(1994)
!
!   The paper is about DIIS, which GAMESS has only for one pair,
!   so here we are using our SOSCF converger on the multi-pair case.
!
!      F.NAL RHF E= -282.8372630090, 12 iters (Cs or C1)
!       literature= -282.837281
!      F.NAL GVB E= -282.9928939886, 16 iters (Cs)
!      FINAL GVB E= -283.0193925697, 25 iters (C1)    <-- this run's result.
!       literature= -283.019396
!
!   This run takes 70 seconds on 2.66 GHz Cloverton (20 Dec 2013)
!
!   The starting geometry is a bit different from Table VI.
!   For some reason, my optimized geometry's RHF energy is a bit
!   higher than the rounded off geometry given in that table?
!
!   The GVB-PP(10) calculation in the paper must have beeen done by
!   reducing the symmetry from Cs to C1, e.g. the banana bonds for
!   the C=O group are used, as well as localized CH and NH bonds.
!
!   For the heck of it, the calculation was also done in Cs sym.
!   by using SYMLOC during the Boys localization orb. prep.
!
!   The calculation proceeds by combining localized RHF occupied
!   with localized VVOs, using MacMolPlt to pair these up.
!   Since they are put in pairs with no regard to energy, it is
!   useful to RSTRCT them from moving around during the GVB.
!   Oddly, although the Boys occupied orbitals for CO are the
!   expected 'banana' bonds, the localization of the VVO partners
!   turned out sigma* and pi* (a' and a'').  These were arbitrarily
!   paired with the banana bonds!
!
 $contrl scftyp=gvb runtyp=energy coord=zmt nosym=1 $end
 $system mwords=2 $end
 $basis  gbasis=n31 ngauss=6 ndfunc=1 npfunc=1 $end
!   lone pairs are moved to occur first in the filled space,
!   first 3 pairs are heavy atom sigma,
!   next 5 pairs are hydrogen sigma,
!   last two pairs are CO banana bonds, matched to pi* and sigma* antibonds.
 $guess  guess=moread norb=100 norder=1
         iorder(6)=6,15,11,19,20
           10,28,  12,25,  16,27,
           14,22,  9,29,  17,24,  8,26,  13,23,
           7,21   18,30  $end
 $scf    nco=10 npair=10 rstrct=.true. $end

!        this (and MacMolPlt) prepared the starting orbitals:
--- $contrl scftyp=rhf runtyp=energy local=boys nosym=0 $end
--- $guess  guess=Huckel norder=0 $end
--- $scf    vvos=.true. $end
--- $local  symloc=.true. $end

 $data
glycine...tightly optimized RHF/STO-3G geometry
Cs

H
O 1 rOH
C 2 rCOa 1 aCOH
O 3 rCOb 2 aOCO  1    0.0
C 3 rCC  2 aCCO  1  180.0
N 5 rCN  3 aNCC  2  180.0
H 5 rCH  3 aHCC  4  wHCCO
H 5 rCH  3 aHCC  4 -wHCCO
H 6 rNH  5 aHNC  3  wHNCC
H 6 rNH  5 aHNC  3 -wHNCC

rOH=0.9901198
rCOa=1.3890950
rCOb=1.2166298
rCC=1.5518978
rCN=1.4820229
rCH=1.0914929
rNH=1.0334664
aCOH=104.7643351
aOCO=122.4435200
aCCO=111.8987436
aNCC=113.5868155
aHCC=108.4156715
aHNC=107.2334891
wHCCO=121.7734115
wHNCC=55.7270587
 $end

--- Cs symmetry ORBITALS --- GENERATED AT Fri Dec 20 14:08:44 2013
E(RHF)= -282.8372630090, the first 30 are SYMLOC-type Boys localized,
while the rest are the external space after VVO preparation.
The reordering for this deck is
         iorder(6)=7,11,14,15,20,
           10,24,  12,29,  16,27,
           6,22,  9,26,  17,28,  8,23,  13,25,
           19,30,  18,21  $end
If you try this, you wouldn't be switching symmetry off in the run!
--- $VEC
 1  1 2.44968611E-04-3.98494387E-04-2.16130415E-04 1.75311148E-04 0.00000000E+00
 1  2 9.94682521E-01 2.11288463E-02 2.23128922E-05 1.31137830E-03 0.00000000E+00
 1  3 3.84375319E-03-1.42788966E-04-5.73146566E-04 0.00000000E+00-4.01137633E-03
 1  4-3.93746921E-03-3.88215036E-03-1.48913729E-04 0.00000000E+00 0.00000000E+00
 1  5-5.35124543E-06 3.55839019E-04-2.74487126E-04-1.91833787E-04 0.00000000E+00
 1  6-1.36942276E-05-3.60041477E-04 3.48330083E-04 0.00000000E+00-1.91564918E-05
 1  7 2.10906235E-07-5.46557611E-05 2.90791505E-06 0.00000000E+00 0.00000000E+00
 1  8-3.19552867E-04 2.89176266E-05 2.69113791E-05 2.98738735E-05 0.00000000E+00
 1  9-2.88757121E-04 8.87149057E-05 9.09909364E-05 0.00000000E+00 1.19394849E-05
 1 10-2.75349328E-05-6.57751614E-06-6.09777565E-05 0.00000000E+00 0.00000000E+00
 1 11-7.24761888E-06-1.11239673E-05-1.26539004E-05-7.60478526E-06 0.00000000E+00
 1 12 5.63270573E-04 1.63497977E-04 2.30189785E-04 0.00000000E+00-4.76024328E-05
 1 13 4.83829193E-06-1.95606767E-05 8.54589366E-06 0.00000000E+00 0.00000000E+00
 1 14 8.57236816E-06 3.73880688E-05-3.05860472E-07-4.17049833E-06 0.00000000E+00
 1 15-3.20656405E-04 1.40487022E-04 9.86138274E-05 0.00000000E+00 4.99147318E-06
 1 16 2.24155351E-05 1.86998567E-05-1.01958369E-05 0.00000000E+00 0.00000000E+00
 1 17 1.10426123E-05-3.96527344E-05-2.09886008E-05-1.17742705E-05 2.27815280E-07
 1 18 1.10426123E-05-3.96527344E-05-2.09886008E-05-1.17742705E-05-2.27815280E-07
 1 19 8.78100652E-06-2.41786352E-05-1.20991007E-06 1.51313997E-06-4.71916029E-06
 1 20 8.78100652E-06-2.41786352E-05-1.20991007E-06 1.51313997E-06 4.71916029E-06
 2  1-3.21630392E-05-3.42443696E-05-1.82085574E-05 2.02949094E-05 0.00000000E+00
 2  2 3.19952828E-04-3.31220378E-05-1.65468242E-05-3.05517895E-05 0.00000000E+00
 2  3 1.25862825E-04 1.40543794E-05 6.66539135E-05 0.00000000E+00 6.26792833E-05
 2  4-8.14088761E-05-6.21446906E-05-2.83429833E-05 0.00000000E+00 0.00000000E+00
 2  5-2.71020961E-06 4.84940677E-04-4.83352852E-06-7.33048409E-05 0.00000000E+00
 2  6-4.02909945E-04 1.31306170E-04-5.49479768E-04 0.00000000E+00-6.02657744E-05
 2  7-8.12786611E-04-3.11229885E-05 9.38508399E-06 0.00000000E+00 0.00000000E+00
 2  8 9.94691776E-01 2.09726464E-02 1.38870266E-05-1.57304680E-03 0.00000000E+00
 2  9 4.56048408E-03-1.08962176E-05 4.05117466E-07 0.00000000E+00-3.91920600E-03
 2 10-3.58503431E-03-4.13807695E-03-1.05174436E-05 0.00000000E+00 0.00000000E+00
 2 11-1.58263837E-06-1.31742833E-05 9.97804522E-07-1.46971454E-05 0.00000000E+00
 2 12-9.26537689E-06 1.77369162E-04 2.64080448E-05 0.00000000E+00 5.15656651E-05
 2 13-4.62350933E-05-1.34397649E-05 2.61815293E-05 0.00000000E+00 0.00000000E+00
 2 14 6.32178691E-06 2.53330541E-05-1.04380711E-05 7.48919222E-06 0.00000000E+00
 2 15-1.27501768E-04 9.27293019E-05 5.60004403E-05 0.00000000E+00 5.98915625E-06
 2 16 5.14960992E-06 2.57172951E-05-1.09340663E-05 0.00000000E+00 0.00000000E+00
 2 17 8.38306721E-06-2.68076744E-05 7.14395502E-06-5.55014379E-06 5.55562186E-06
 2 18 8.38306721E-06-2.68076744E-05 7.14395502E-06-5.55014379E-06-5.55562186E-06
 2 19 2.18151202E-05-5.18651330E-05-4.51995239E-06 5.19202849E-06-8.01574527E-06
 2 20 2.18151202E-05-5.18651330E-05-4.51995239E-06 5.19202849E-06 8.01574527E-06
 3  1 3.01481344E-06 6.71180018E-05 1.15568549E-05-3.40945772E-05 0.00000000E+00
 3  2-5.00810048E-05-2.14544425E-04-2.61412047E-05-9.65248608E-06 0.00000000E+00
 3  3 1.17083196E-03 4.43399339E-04 1.68531844E-04 0.00000000E+00-1.01537761E-04
 3  4-1.45495270E-04-1.57366708E-04 6.35842913E-05 0.00000000E+00 0.00000000E+00
 3  5-1.28753880E-05 6.58919918E-06-7.14338074E-05 8.94479779E-07 0.00000000E+00
 3  6-8.02237462E-04 4.41697102E-04 6.57264914E-04 0.00000000E+00-1.27022431E-04
 3  7-5.27378953E-05-4.65522834E-05-3.10318734E-05 0.00000000E+00 0.00000000E+00
 3  8-3.75473290E-06 6.56478027E-07-2.73513160E-05 8.56458794E-06 0.00000000E+00
 3  9-1.36286975E-04-5.91803006E-05-3.87566703E-05 0.00000000E+00-3.36668226E-05
 3 10 1.36881810E-05-4.39976328E-05 1.44162773E-05 0.00000000E+00 0.00000000E+00
 3 11-2.43499331E-05 1.64718812E-04 2.36098651E-04 1.41738586E-04 0.00000000E+00
 3 12 1.96233675E-03 2.66348986E-04 5.28850916E-04 0.00000000E+00-1.49866248E-04
 3 13-1.04699028E-04-7.77387921E-05-5.77799200E-05 0.00000000E+00 0.00000000E+00
 3 14 9.95133997E-01 2.46891669E-02-1.39759435E-03 1.00528052E-03 0.00000000E+00
 3 15-2.82891869E-03 1.46594874E-03-2.76928312E-04 0.00000000E+00-3.22359736E-03
 3 16-2.96912989E-03-2.91554207E-03-1.78879519E-04 0.00000000E+00 0.00000000E+00
 3 17-1.06188922E-04-9.39023446E-05-2.22321760E-05-2.91532677E-05-2.26132383E-06
 3 18-1.06188922E-04-9.39023446E-05-2.22321760E-05-2.91532677E-05 2.26132383E-06
 3 19 1.75464069E-04 4.22928161E-04-4.78138315E-05 2.13962143E-04-2.77645389E-04
 3 20 1.75464069E-04 4.22928161E-04-4.78138315E-05 2.13962143E-04 2.77645389E-04
 4  1 3.77286378E-04 2.06988325E-04 2.14001589E-04-1.15661027E-05 0.00000000E+00
 4  2-8.17752419E-05 5.76733728E-04 1.00696185E-04 1.34390910E-04 0.00000000E+00
 4  3-1.12153578E-03-4.50137611E-04-1.57064419E-03 0.00000000E+00-4.18109412E-04
 4  4-2.71859108E-04 4.75368352E-04-4.32851187E-04 0.00000000E+00 0.00000000E+00
 4  5 9.95917449E-01 2.56345822E-02-9.97492382E-04 1.17465885E-04 0.00000000E+00
 4  6-5.93337808E-03-2.77971601E-03 3.42275244E-03 0.00000000E+00-1.20402225E-03
 4  7-4.84044631E-04-2.22761894E-03 1.55109531E-04 0.00000000E+00 0.00000000E+00
 4  8-2.78062649E-04 6.74679929E-04-3.76859935E-05-2.98248269E-04 0.00000000E+00
 4  9-3.48561396E-03 6.34172045E-04 1.83519663E-03 0.00000000E+00 2.22908606E-04
 4 10 5.15416907E-05 4.12626420E-04-1.72365860E-04 0.00000000E+00 0.00000000E+00
 4 11 2.18566262E-03 1.34355710E-04 1.62487656E-05-1.29097227E-05 0.00000000E+00
 4 12 3.62508626E-03-2.17404524E-03 9.87113859E-04 0.00000000E+00-4.28843653E-04
 4 13-3.24252435E-04-2.15097479E-04 1.20038982E-04 0.00000000E+00 0.00000000E+00
 4 14-2.90531118E-05-1.45899274E-04 7.44277619E-05 7.91536039E-08 0.00000000E+00
 4 15 4.56454526E-04-2.20512197E-04-3.01240502E-04 0.00000000E+00-1.47620105E-05
 4 16-3.45143262E-05-1.51906725E-04 9.23128575E-06 0.00000000E+00 0.00000000E+00
 4 17-1.44292384E-04 2.87044062E-04-2.78630144E-05 7.46362048E-05 4.91702132E-05
 4 18-1.44292384E-04 2.87044062E-04-2.78630144E-05 7.46362048E-05-4.91702132E-05
 4 19-3.98283633E-05 1.35917228E-04 2.27321683E-05-8.67800273E-06 3.78076229E-05
 4 20-3.98283633E-05 1.35917228E-04 2.27321683E-05-8.67800273E-06-3.78076229E-05
 5  1 5.70431810E-06 3.28855469E-04 3.93704909E-05 1.10921953E-05 0.00000000E+00
 5  2-5.19663925E-05-3.20367615E-04-1.08459828E-04-2.15632202E-05 0.00000000E+00
 5  3 1.22369543E-03 4.90464260E-04 3.08150308E-04 0.00000000E+00-7.74729236E-05
 5  4-1.11716340E-04-2.65667114E-04 4.03538516E-05 0.00000000E+00 0.00000000E+00
 5  5-2.52298967E-03-1.68921508E-05 8.59374546E-05-6.48677231E-05 0.00000000E+00
 5  6 4.30240828E-03 3.26058273E-03-8.35108764E-04 0.00000000E+00-4.87839509E-04
 5  7-3.89850033E-04-1.92696420E-04 1.79448615E-04 0.00000000E+00 0.00000000E+00
 5  8-9.07650974E-06-9.32827750E-05-6.85748096E-06 2.04760518E-05 0.00000000E+00
 5  9-8.11280579E-06-5.45629993E-04-1.02406765E-04 0.00000000E+00-1.01999663E-05
 5 10 7.65091377E-05-1.54625855E-04 1.01112178E-04 0.00000000E+00 0.00000000E+00
 5 11 9.95921570E-01 2.80236992E-02-6.69554450E-05 2.79143940E-04 0.00000000E+00
 5 12-1.70612835E-02 7.90692873E-04-1.45712660E-03 0.00000000E+00-1.57032604E-03
 5 13-1.47689383E-03-1.25272740E-03 7.25225858E-05 0.00000000E+00 0.00000000E+00
 5 14-2.03135259E-04 6.25656470E-05-6.13763590E-05-3.22104122E-05 0.00000000E+00
 5 15 2.95007052E-03-1.07455294E-03-7.36757991E-04 0.00000000E+00-4.05236838E-04
 5 16-2.93086580E-04-1.64394574E-04-2.05218070E-04 0.00000000E+00 0.00000000E+00
 5 17 1.73972632E-04 2.57634918E-03-2.34345215E-05-3.93982459E-05-1.60956130E-04
 5 18 1.73972632E-04 2.57634918E-03-2.34345215E-05-3.93982459E-05 1.60956130E-04
 5 19-1.80422589E-05 3.17007229E-04-1.09112823E-04-1.15177692E-04 4.66287423E-05
 5 20-1.80422589E-05 3.17007229E-04-1.09112823E-04-1.15177692E-04-4.66287423E-05
 6  1 2.96996567E-01 1.12743982E-01 2.48566059E-02-2.32356971E-02 0.00000000E+00
 6  2-1.06932592E-01 2.38392020E-01-3.46557957E-01 2.67059872E-01 0.00000000E+00
 6  3 1.81788906E-01-1.92779605E-01 1.74318896E-01 0.00000000E+00-9.66209725E-05
 6  4 2.00267744E-02-4.51544072E-03-1.97489702E-02 0.00000000E+00 0.00000000E+00
 6  5 9.56672307E-03-2.59987748E-02 3.16488570E-02 3.22175251E-02 0.00000000E+00
 6  6-4.32550240E-02 2.19501648E-02 3.10988595E-02 0.00000000E+00 1.49947337E-02
 6  7-1.25882590E-02 9.78504897E-04-6.78705055E-03 0.00000000E+00 0.00000000E+00
 6  8 4.46577900E-03-8.50587029E-03 7.42318607E-03 1.01457188E-02 0.00000000E+00
 6  9-2.81140693E-02 1.59207074E-03 1.26667217E-02 0.00000000E+00 1.50490706E-03
 6 10 6.20602366E-04 2.27639455E-04-2.11480973E-03 0.00000000E+00 0.00000000E+00
 6 11-7.05362428E-03 1.11330803E-02-1.80202010E-02 1.15937522E-02 0.00000000E+00
 6 12 5.37016807E-02-1.83444332E-02 1.32652314E-02 0.00000000E+00-1.17892213E-03
 6 13 2.69093186E-04 6.58878108E-04-1.85208939E-03 0.00000000E+00 0.00000000E+00
 6 14 1.76603130E-03-2.62270856E-03 1.02335217E-02 1.91359633E-03 0.00000000E+00
 6 15-1.40553278E-02 1.72142183E-02 1.18412143E-04 0.00000000E+00 3.23204780E-04
 6 16 3.71284634E-05 3.24094614E-04-2.09314001E-04 0.00000000E+00 0.00000000E+00
 6 17 1.88583293E-03-4.71902971E-03 3.46128994E-04 2.52107318E-04-6.31076956E-05
 6 18 1.88583293E-03-4.71902971E-03 3.46128994E-04 2.52107318E-04 6.31076956E-05
 6 19-3.78838196E-04 1.85061970E-04 2.37134692E-04 8.61072391E-05-5.21538360E-05
 6 20-3.78838196E-04 1.85061970E-04 2.37134692E-04 8.61072391E-05 5.21538360E-05
 7  1 2.67916190E-03 4.00053709E-02 1.42198669E-03 1.92970468E-03 0.00000000E+00
 7  2 1.08308491E-02-1.44874980E-02-1.35267630E-02-2.81661421E-02 0.00000000E+00
 7  3-1.04154176E-01-1.68564198E-02-4.63790741E-02 0.00000000E+00 5.94005651E-03
 7  4 2.13223723E-03 4.04564763E-03 6.35324602E-05 0.00000000E+00 0.00000000E+00
 7  5 8.80485260E-03-3.60485410E-02-7.68912106E-02-5.57301456E-02 0.00000000E+00
 7  6-3.76105426E-02-7.67560105E-02-1.81660801E-02 0.00000000E+00-6.05561185E-04
 7  7 6.22439025E-03-1.36903919E-04-3.14457250E-02 0.00000000E+00 0.00000000E+00
 7  8-1.42782718E-01 3.17774145E-01-4.53832848E-01 2.04867685E-01 0.00000000E+00
 7  9 3.89891158E-01-3.26916295E-01 1.26192239E-01 0.00000000E+00 4.15789006E-03
 7 10-1.09154511E-02 2.32287494E-03 2.30615499E-02 0.00000000E+00 0.00000000E+00
 7 11-9.35854698E-03 1.51521760E-02-2.73974772E-02 2.04756966E-02 0.00000000E+00
 7 12 9.77956633E-02-4.20421007E-02 4.12524535E-02 0.00000000E+00 2.13569852E-03
 7 13-2.83755110E-03-1.86350335E-04 1.64764905E-03 0.00000000E+00 0.00000000E+00
 7 14-2.58138664E-03 8.70546835E-03-8.52322842E-03 3.59101402E-03 0.00000000E+00
 7 15 3.66882563E-03 5.50500713E-03 1.41728976E-03 0.00000000E+00 1.77706465E-04
 7 16-2.05151871E-04 9.71587251E-04 1.07018097E-03 0.00000000E+00 0.00000000E+00
 7 17-4.26117717E-03-1.40936000E-02-6.44577744E-04 3.90061690E-04-2.20670826E-04
 7 18-4.26117717E-03-1.40936000E-02-6.44577744E-04 3.90061690E-04 2.20670826E-04
 7 19 1.73830038E-03-9.15878784E-03 5.88806603E-04-5.02980052E-04-2.25447206E-05
 7 20 1.73830038E-03-9.15878784E-03 5.88806603E-04-5.02980052E-04 2.25447206E-05
 8  1-3.23270636E-04-1.93400378E-03 1.16577864E-05 1.93628746E-04 0.00000000E+00
 8  2 8.29010634E-06-7.48032721E-04 7.89690897E-04 1.12249006E-03 0.00000000E+00
 8  3 6.87808398E-03 2.37360249E-03 1.07902331E-03 0.00000000E+00-4.71720618E-04
 8  4 2.86071174E-04-8.34602528E-05-2.04980612E-04 0.00000000E+00 0.00000000E+00
 8  5 5.74478885E-03-1.36567546E-02-1.69240289E-02 8.10408519E-03 0.00000000E+00
 8  6-1.59126741E-02-6.35163371E-03 2.87095905E-02 0.00000000E+00-7.35552616E-04
 8  7 1.24629134E-03-2.85167945E-04-1.69777946E-04 0.00000000E+00 0.00000000E+00
 8  8 2.22766615E-03-1.64951209E-03-8.50510337E-03-2.96084018E-03 0.00000000E+00
 8  9-2.57885512E-02-6.00551711E-03 4.08450329E-03 0.00000000E+00 2.60609912E-03
 8 10-5.03900818E-05 1.25894793E-03 9.14142237E-04 0.00000000E+00 0.00000000E+00
 8 11 1.28501397E-02-3.03028889E-02-5.63470539E-02-2.02271742E-02 0.00000000E+00
 8 12-7.77146760E-02-6.12055761E-02-4.14628059E-02 0.00000000E+00-9.57629628E-03
 8 13 9.91223416E-03 2.33125259E-03 6.31150275E-03 0.00000000E+00 0.00000000E+00
 8 14-1.15031702E-01 2.26701672E-01-5.81541139E-02 3.85357636E-01 0.00000000E+00
 8 15 2.24133480E-01-9.65491860E-02 2.40260988E-01 0.00000000E+00-1.29699416E-02
 8 16 7.14358377E-03 5.39647607E-03-1.53186819E-02 0.00000000E+00 0.00000000E+00
 8 17 1.00773605E-02 2.48800768E-02-7.51075423E-04-3.35515738E-04 3.88469116E-06
 8 18 1.00773605E-02 2.48800768E-02-7.51075423E-04-3.35515738E-04-3.88469116E-06
 8 19 2.09124159E-01 8.48283199E-02-1.01905983E-03-6.05549895E-03 2.00329304E-02
 8 20 2.09124159E-01 8.48283199E-02-1.01905983E-03-6.05549895E-03-2.00329304E-02
 9  1-8.77622792E-04 1.15269270E-02 2.29378688E-04-3.03155846E-04 0.00000000E+00
 9  2-1.43945901E-03 1.72672886E-03 1.56909020E-03-6.10307160E-03 0.00000000E+00
 9  3 7.23367827E-04 4.09883542E-03-6.70901858E-03 0.00000000E+00 7.23232961E-04
 9  4-2.35602395E-03-8.98142195E-04 9.50455544E-04 0.00000000E+00 0.00000000E+00
 9  5-1.75132792E-02 4.17478473E-02 5.36568512E-02-3.05546653E-02 0.00000000E+00
 9  6 1.00167134E-01 4.81014205E-02-3.13886106E-02 0.00000000E+00 3.51944721E-03
 9  7-7.14697496E-03-1.00986392E-04 2.65681063E-03 0.00000000E+00 0.00000000E+00
 9  8 3.44332055E-03-1.00303194E-02-1.39195023E-02 1.49509262E-02 0.00000000E+00
 9  9-1.31686982E-02-2.49625580E-02 1.42622697E-02 0.00000000E+00-4.85965258E-04
 9 10-3.37714971E-04-6.34715637E-04-3.41992583E-04 0.00000000E+00 0.00000000E+00
 9 11 1.33450850E-01-2.51606366E-01 1.85390333E-03 3.24043161E-01 0.00000000E+00
 9 12-2.72248006E-01 1.98299715E-02 1.41002734E-01 0.00000000E+00 2.27254259E-02
 9 13 9.60832554E-05-2.01827867E-02-1.69378663E-03 0.00000000E+00 0.00000000E+00
 9 14-1.64660867E-02 3.51811494E-02-2.88862713E-02-3.44679572E-02 0.00000000E+00
 9 15 9.10059259E-02-1.88931686E-02-4.94849823E-02 0.00000000E+00 2.59376511E-03
 9 16-7.84475605E-03-2.61930776E-03-3.75645535E-03 0.00000000E+00 0.00000000E+00
 9 17-2.20916026E-01-1.26566351E-01-2.52877880E-04-5.81897340E-03-1.41585946E-02
 9 18-2.20916026E-01-1.26566351E-01-2.52877880E-04-5.81897340E-03 1.41585946E-02
 9 19-8.01610006E-03-2.54810413E-02-9.56050882E-04-1.75141565E-03 2.16311184E-04
 9 20-8.01610006E-03-2.54810413E-02-9.56050882E-04-1.75141565E-03-2.16311184E-04
10  1 2.92841806E-02 5.57397335E-02-9.96337166E-03-4.41933218E-03 0.00000000E+00
10  2 1.05947496E-01-2.30074540E-01-3.64841664E-01-2.31461066E-01 0.00000000E+00
10  3-2.26875746E-01-2.37882566E-01-1.57810763E-01 0.00000000E+00-8.54386971E-03
10  4-1.10788266E-02 6.53769256E-03-3.00597460E-02 0.00000000E+00 0.00000000E+00
10  5 9.05033789E-02-1.85023137E-01 2.61509844E-01 1.64420523E-01 0.00000000E+00
10  6-6.01518020E-02 1.10685356E-02-2.04889814E-02 0.00000000E+00-2.26309112E-02
10  7 2.05227126E-03 1.36347292E-02-3.75331746E-02 0.00000000E+00 0.00000000E+00
10  8-7.77940840E-03 1.19268884E-02-3.47731676E-02-2.59496591E-02 0.00000000E+00
10  9 4.40898216E-02-3.84447078E-02-2.68852441E-02 0.00000000E+00-9.18569151E-04
10 10-1.45302760E-03-3.13899620E-03-5.03822949E-03 0.00000000E+00 0.00000000E+00
10 11-1.14223801E-02 2.07243749E-02-2.95049169E-02 2.19231650E-02 0.00000000E+00
10 12 5.28534880E-02-2.64183932E-02 2.27089674E-02 0.00000000E+00-6.37238802E-03
10 13 1.27178475E-03-1.76798414E-04-1.35237224E-03 0.00000000E+00 0.00000000E+00
10 14 1.17946807E-03-6.15655287E-03 1.53005461E-02 2.93670353E-03 0.00000000E+00
10 15 1.55597280E-03 1.55319378E-02 1.62008805E-03 0.00000000E+00 2.22377151E-04
10 16-1.74891246E-03-1.37293092E-03-4.70964977E-05 0.00000000E+00 0.00000000E+00
10 17 1.96632113E-03-3.19148274E-03 3.67383227E-05 3.74683602E-04 1.51987171E-04
10 18 1.96632113E-03-3.19148274E-03 3.67383227E-05 3.74683602E-04-1.51987171E-04
10 19-1.92439163E-03-3.91720736E-03 7.36742529E-04-1.59688659E-04-1.06398716E-04
10 20-1.92439163E-03-3.91720736E-03 7.36742529E-04-1.59688659E-04 1.06398716E-04
11  1 4.39686131E-03-1.54245906E-02-1.67396451E-04-1.52732576E-03 0.00000000E+00
11  2-1.05192634E-02 2.01544620E-02 2.27670184E-02 3.59710044E-02 0.00000000E+00
11  3 8.96471255E-02 3.32220569E-02 5.14287563E-02 0.00000000E+00-1.94901713E-03
11  4-1.88905947E-03-1.49604652E-03-1.03529390E-03 0.00000000E+00 0.00000000E+00
11  5 1.42335542E-02-5.18932106E-02 8.16853501E-02-4.43252219E-02 0.00000000E+00
11  6-4.78192881E-02 6.98056806E-02-3.43969444E-03 0.00000000E+00-2.15646624E-03
11  7 6.63252610E-03-1.56810203E-03 3.08295079E-02 0.00000000E+00 0.00000000E+00
11  8-1.45935972E-01 3.27007007E-01 4.31050502E-01 2.38563237E-01 0.00000000E+00
11  9 3.99582320E-01 3.11732278E-01 1.48281480E-01 0.00000000E+00 5.51619541E-03
11 10-1.23519259E-02 3.09512136E-03-2.20743188E-02 0.00000000E+00 0.00000000E+00
11 11 6.45216537E-03-9.85840352E-03 1.46445341E-02-1.50416299E-02 0.00000000E+00
11 12-7.11352804E-02 1.66311293E-02-3.46362210E-02 0.00000000E+00-4.59243635E-05
11 13 1.02632125E-03 1.52094490E-04-1.05822162E-03 0.00000000E+00 0.00000000E+00
11 14 2.41278705E-03-8.27400294E-03 8.43125853E-03-8.71983572E-03 0.00000000E+00
11 15-4.78864567E-03-1.04433676E-02-1.30692878E-02 0.00000000E+00 9.51000485E-04
11 16-2.92021622E-05-1.58940916E-03-1.18411528E-03 0.00000000E+00 0.00000000E+00
11 17 1.58511439E-03 5.11156222E-03 4.89401796E-04-9.19781015E-05 8.17310769E-05
11 18 1.58511439E-03 5.11156222E-03 4.89401796E-04-9.19781015E-05-8.17310769E-05
11 19-4.20936786E-03 1.90983939E-02-9.64831090E-04 4.44432460E-04 6.07888227E-04
11 20-4.20936786E-03 1.90983939E-02-9.64831090E-04 4.44432460E-04-6.07888227E-04
12  1 1.61726680E-02 4.72450124E-02-2.00646973E-03-6.42619382E-05 0.00000000E+00
12  2 1.70522427E-02-3.13194252E-02-3.93884376E-02-1.70929750E-02 0.00000000E+00
12  3-1.32759043E-01-6.04605492E-02-1.41108740E-02 0.00000000E+00 1.09706396E-02
12  4 3.39230517E-04 2.45910052E-03-3.11512983E-03 0.00000000E+00 0.00000000E+00
12  5-1.17552610E-01 2.52687601E-01 3.01452606E-01-2.15689520E-01 0.00000000E+00
12  6 2.46414045E-01 8.31388777E-02-1.00774606E-01 0.00000000E+00 1.37808320E-02
12  7-2.22274640E-03-5.70538783E-03-2.98488055E-02 0.00000000E+00 0.00000000E+00
12  8 1.05630107E-02-2.85128811E-02-3.66504943E-02 3.74691770E-02 0.00000000E+00
12  9-2.03010163E-02-6.13549317E-02 3.09958775E-02 0.00000000E+00-9.96776564E-04
12 10-3.28433764E-03 8.55585890E-04-4.39390443E-03 0.00000000E+00 0.00000000E+00
12 11-9.58901263E-02 1.83760256E-01-2.84267254E-01 1.94034563E-01 0.00000000E+00
12 12 1.84747185E-01-8.58544693E-02 9.93458139E-02 0.00000000E+00 1.79020633E-02
12 13-6.04979687E-04-1.03893176E-02-2.50453890E-02 0.00000000E+00 0.00000000E+00
12 14 5.11058134E-03-8.14958245E-03 4.29872603E-02 2.47534597E-03 0.00000000E+00
12 15-3.41448877E-02 7.56108956E-02-7.66303763E-03 0.00000000E+00 4.92036144E-03
12 16-2.71785154E-03 4.54807078E-04-6.77231287E-04 0.00000000E+00 0.00000000E+00
12 17-9.85358678E-03-5.07693411E-02-4.12430068E-03 3.49352501E-03 6.33255366E-04
12 18-9.85358678E-03-5.07693411E-02-4.12430068E-03 3.49352501E-03-6.33255366E-04
12 19-5.98925405E-03-1.31363643E-02 1.49843010E-03 1.22307081E-04-6.93917975E-04
12 20-5.98925405E-03-1.31363643E-02 1.49843010E-03 1.22307081E-04 6.93917975E-04
13  1 0.00000000E+00 0.00000000E+00 0.00000000E+00 0.00000000E+00-1.79867091E-04
13  2 0.00000000E+00 0.00000000E+00 0.00000000E+00 0.00000000E+00-3.29884987E-03
13  3 0.00000000E+00 0.00000000E+00 0.00000000E+00-3.31533175E-03 0.00000000E+00
13  4 0.00000000E+00 0.00000000E+00 0.00000000E+00 4.16270296E-04-1.37429322E-04
13  5 0.00000000E+00 0.00000000E+00 0.00000000E+00 0.00000000E+00 8.20821370E-03
13  6 0.00000000E+00 0.00000000E+00 0.00000000E+00 6.14416962E-03 0.00000000E+00
13  7 0.00000000E+00 0.00000000E+00 0.00000000E+00 8.96037782E-05-9.76921087E-04
13  8 0.00000000E+00 0.00000000E+00 0.00000000E+00 0.00000000E+00 2.93385112E-03
13  9 0.00000000E+00 0.00000000E+00 0.00000000E+00 8.49160288E-04 0.00000000E+00
13 10 0.00000000E+00 0.00000000E+00 0.00000000E+00-5.58822204E-04-4.23469959E-04
13 11 0.00000000E+00 0.00000000E+00 0.00000000E+00 0.00000000E+00-2.93508606E-03
13 12 0.00000000E+00 0.00000000E+00 0.00000000E+00 2.45755808E-03 0.00000000E+00
13 13 0.00000000E+00 0.00000000E+00 0.00000000E+00-1.23772971E-02-1.18010217E-02
13 14 0.00000000E+00 0.00000000E+00 0.00000000E+00 0.00000000E+00-4.68264399E-01
13 15 0.00000000E+00 0.00000000E+00 0.00000000E+00-2.74289274E-01 0.00000000E+00
13 16 0.00000000E+00 0.00000000E+00 0.00000000E+00 1.62073358E-02-3.39193685E-02
13 17-2.02143039E-02-4.64571623E-02-4.38976479E-05-7.78811769E-04-7.94590874E-05
13 18 2.02143039E-02 4.64571623E-02 4.38976479E-05 7.78811769E-04-7.94590874E-05
13 19 2.40433258E-01 1.58725030E-01 1.48792290E-04-1.38028633E-02 6.70392066E-03
13 20-2.40433258E-01-1.58725030E-01-1.48792290E-04 1.38028633E-02 6.70392066E-03
14  1 0.00000000E+00 0.00000000E+00 0.00000000E+00 0.00000000E+00 1.80813604E-02
14  2 0.00000000E+00 0.00000000E+00 0.00000000E+00 0.00000000E+00 6.19912184E-01
14  3 0.00000000E+00 0.00000000E+00 0.00000000E+00 4.70002242E-01 0.00000000E+00
14  4 0.00000000E+00 0.00000000E+00 0.00000000E+00 1.06677392E-02 2.88343739E-02
14  5 0.00000000E+00 0.00000000E+00 0.00000000E+00 0.00000000E+00 1.12752822E-01
14  6 0.00000000E+00 0.00000000E+00 0.00000000E+00 6.50546026E-02 0.00000000E+00
14  7 0.00000000E+00 0.00000000E+00 0.00000000E+00-2.29247009E-02-1.91978285E-02
14  8 0.00000000E+00 0.00000000E+00 0.00000000E+00 0.00000000E+00-5.07909657E-02
14  9 0.00000000E+00 0.00000000E+00 0.00000000E+00-6.37682379E-02 0.00000000E+00
14 10 0.00000000E+00 0.00000000E+00 0.00000000E+00-1.01454549E-03 3.12446027E-04
14 11 0.00000000E+00 0.00000000E+00 0.00000000E+00 0.00000000E+00-8.78214579E-03
14 12 0.00000000E+00 0.00000000E+00 0.00000000E+00-3.38667667E-02 0.00000000E+00
14 13 0.00000000E+00 0.00000000E+00 0.00000000E+00-2.86425802E-03 1.98117544E-03
14 14 0.00000000E+00 0.00000000E+00 0.00000000E+00 0.00000000E+00 1.46645073E-03
14 15 0.00000000E+00 0.00000000E+00 0.00000000E+00 8.08410443E-03 0.00000000E+00
14 16 0.00000000E+00 0.00000000E+00 0.00000000E+00-5.18119946E-06 5.93161048E-04
14 17 7.59305631E-03-1.05270703E-02 1.14712084E-03-6.29913258E-04-1.40069364E-04
14 18-7.59305631E-03 1.05270703E-02-1.14712084E-03 6.29913258E-04-1.40069364E-04
14 19-1.73945557E-03 5.20991514E-03-1.50995688E-04-1.52084399E-04 2.38398583E-04
14 20 1.73945557E-03-5.20991514E-03 1.50995688E-04 1.52084399E-04 2.38398583E-04
15  1 5.97362685E-02 4.79652506E-02 4.52865493E-03 8.53399813E-03 0.00000000E+00
15  2 1.64151052E-01-3.75888962E-01 2.05766582E-02 4.52872302E-01 0.00000000E+00
15  3-4.56638094E-01 1.36940136E-02 3.17768847E-01 0.00000000E+00-9.92513377E-03
15  4 2.26855326E-02-1.03675870E-02 2.84785311E-03 0.00000000E+00 0.00000000E+00
15  5-1.77751905E-02 4.91779878E-02-6.56390407E-02-2.75191380E-02 0.00000000E+00
15  6 4.55655148E-02-3.17636809E-02 2.14438587E-02 0.00000000E+00 1.31329626E-02
15  7-1.30888542E-02-2.11738071E-04-4.56209826E-03 0.00000000E+00 0.00000000E+00
15  8 6.93374443E-03-1.54547708E-02 2.23320639E-02 2.24959782E-02 0.00000000E+00
15  9-4.75105192E-02 2.83364733E-02 2.78513442E-02 0.00000000E+00 8.75112020E-04
15 10-2.69910136E-04-1.95834250E-04-4.85626940E-04 0.00000000E+00 0.00000000E+00
15 11-3.35949526E-03 2.21086799E-03-5.80907924E-03-5.25492703E-04 0.00000000E+00
15 12 4.94613970E-02 4.28782930E-03 8.64536404E-03 0.00000000E+00 1.90465759E-04
15 13-9.76666246E-04 2.62985284E-05-1.22364311E-03 0.00000000E+00 0.00000000E+00
15 14 1.41013667E-03 1.75450364E-04 2.90531499E-03 6.15623665E-04 0.00000000E+00
15 15-2.47713505E-02 1.06248535E-02 3.42213593E-03 0.00000000E+00 2.70732767E-04
15 16 8.76422098E-04 7.61984791E-04-5.15286528E-04 0.00000000E+00 0.00000000E+00
15 17 2.19881092E-03-8.29056483E-03 5.51631808E-04-2.18497112E-04-1.64468658E-04
15 18 2.19881092E-03-8.29056483E-03 5.51631808E-04-2.18497112E-04 1.64468658E-04
15 19 4.37573957E-04 3.53421852E-03-1.70122654E-04 7.49111616E-05 6.38008462E-05
15 20 4.37573957E-04 3.53421852E-03-1.70122654E-04 7.49111616E-05-6.38008462E-05
16  1 6.42681530E-03 1.52066531E-02-5.61032376E-04 5.71795821E-05 0.00000000E+00
16  2 5.66287419E-03-1.10425824E-02-1.43027910E-02-2.90491670E-03 0.00000000E+00
16  3-4.36827681E-02-2.13161235E-02-2.07394701E-03 0.00000000E+00 2.56169364E-03
16  4 7.57515173E-04 4.13968301E-04-1.66347455E-03 0.00000000E+00 0.00000000E+00
16  5-9.53046973E-03 1.81936781E-02 1.58945012E-02-2.27377743E-02 0.00000000E+00
16  6 6.81784884E-02 2.78821891E-02-4.25464142E-02 0.00000000E+00-8.15346525E-03
16  7 4.58396393E-03 3.71931887E-04-2.22010433E-03 0.00000000E+00 0.00000000E+00
16  8-2.07775949E-03 1.13665749E-03 6.39145057E-03-4.37852102E-03 0.00000000E+00
16  9 2.32002676E-02 1.82778689E-03-7.87344823E-03 0.00000000E+00-1.75633906E-03
16 10-9.57232159E-04-1.16916822E-03-5.67047956E-04 0.00000000E+00 0.00000000E+00
16 11 9.79535075E-02-1.89650296E-01-2.78474853E-01-1.90829176E-01 0.00000000E+00
16 12-1.41350266E-01-6.54045429E-02-8.86454346E-02 0.00000000E+00-1.73778442E-02
16 13-3.35876191E-03 1.36311109E-02-2.65710672E-02 0.00000000E+00 0.00000000E+00
16 14 9.48468087E-02-1.94045144E-01 3.38057097E-01 1.92086734E-01 0.00000000E+00
16 15-1.82241192E-01 2.17550828E-01 1.00920603E-01 0.00000000E+00-2.96543483E-02
16 16 9.95148558E-03 1.37649445E-02-1.50418179E-02 0.00000000E+00 0.00000000E+00
16 17 5.47762596E-03 3.00272057E-02-3.73411365E-03-2.78667459E-03-1.40357670E-03
16 18 5.47762596E-03 3.00272057E-02-3.73411365E-03-2.78667459E-03 1.40357670E-03
16 19 1.62290101E-02 5.12669159E-02 7.55592079E-03 5.23117813E-03-1.67827177E-03
16 20 1.62290101E-02 5.12669159E-02 7.55592079E-03 5.23117813E-03 1.67827177E-03
17  1 0.00000000E+00 0.00000000E+00 0.00000000E+00 0.00000000E+00 9.56542742E-04
17  2 0.00000000E+00 0.00000000E+00 0.00000000E+00 0.00000000E+00 1.97708877E-02
17  3 0.00000000E+00 0.00000000E+00 0.00000000E+00 1.83764468E-02 0.00000000E+00
17  4 0.00000000E+00 0.00000000E+00 0.00000000E+00-1.36405302E-03 1.09608560E-03
17  5 0.00000000E+00 0.00000000E+00 0.00000000E+00 0.00000000E+00-4.52123321E-02
17  6 0.00000000E+00 0.00000000E+00 0.00000000E+00-1.17997162E-04 0.00000000E+00
17  7 0.00000000E+00 0.00000000E+00 0.00000000E+00-9.58526546E-03 1.02570507E-02