!  open shell SCF on the 1-sigma-plus state of NH.
!
!  Coupling constants obtained by the translation of Roothaan's
!  1960 A and B coefficients into ALPHA and BETA values below.
!
!  FINAL E= -54.8206269527 after 7 iters, RMS grad= 0.001486045
!
!  This run takes a second on anything (11 Feb 2014)
!
 $contrl scftyp=gvb mult=1 runtyp=gradient $end
 $basis  gbasis=n31 ngauss=6 ndfunc=1 npfunc=1 $end
 $guess  guess=moread norb=20 $end
 $scf    nco=3 nseto=1 no(1)=2 npair=0 couple=.true.
             f(1)=1.0, 0.5
         alpha(1)= 2.00, 1.00, 0.00
          beta(1)=-1.00,-0.50,+0.50 $end

!  Checked by obtaining the same state as an upper root during MCSCF:
!  GROUP=C1 generates only 3 CSFs, of which xy and xx-yy
!  yield lower energy 1-delta states, and the third root
!  is the xx+yy 1-sigma-plus state.  Since this is a single
!  root with no CI coefficient freedom, this is actually a
!  ROHF computation on this state (only MOs are optimized).
!   the 3rd singlet root is the 4th root of the determinant Hamiltonian
x$contrl scftyp=mcscf $end
x$det    ncore=3 nact=2 nels=2 nstate=4 wstate(1)=0,0,1 $end

 $data
imidogen...open shell SCF on 1-sigma-plus state
Cnv 4

Nitrogen   7.0
Hydrogen   1.0  0.0 0.0 1.0220667
 $end

--- ROHF ORBITALS --- GENERATED AT Mon Jun 24 15:22:35 1991
imidogen                                                                        
E(ROHF)=      -54.9557018114, E(NUC)=    3.6242651724,    9 ITERS
 $VEC
 1  1 9.96077138E-01 2.15951275E-02 0.00000000E+00 0.00000000E+00 2.10155399E-03
 1  2-2.80821528E-03 0.00000000E+00 0.00000000E+00-4.29514776E-04-3.49522507E-03
 1  3-3.49522507E-03-2.60746060E-03 0.00000000E+00 0.00000000E+00 0.00000000E+00
 1  4-7.28437229E-04 7.55714736E-04 0.00000000E+00 0.00000000E+00 7.64146656E-04
 2  1-1.79901189E-01 4.07051094E-01-0.00000000E+00-0.00000000E+00 2.12339973E-01
 2  2 3.72385097E-01-0.00000000E+00-0.00000000E+00 1.08659099E-01-8.20483241E-03
 2  3-8.20483241E-03 2.38508464E-02-0.00000000E+00-0.00000000E+00-0.00000000E+00
 2  4 2.55010855E-01 8.04597837E-02-0.00000000E+00-0.00000000E+00-2.46594820E-02
 3  1-1.24960716E-01 2.77333652E-01-0.00000000E+00-0.00000000E+00-4.65767412E-01
 3  2 4.83202897E-01-0.00000000E+00-0.00000000E+00-2.85191582E-01 6.05703231E-03
 3  3 6.05703231E-03-4.17977179E-02-0.00000000E+00-0.00000000E+00-0.00000000E+00
 3  4-2.13165245E-01-1.96454909E-01-0.00000000E+00-0.00000000E+00 3.49192908E-03
 4  1 0.00000000E+00 0.00000000E+00 6.68065451E-01 0.00000000E+00 0.00000000E+00
 4  2 0.00000000E+00 4.69068908E-01 0.00000000E+00 0.00000000E+00 0.00000000E+00
 4  3 0.00000000E+00 0.00000000E+00 0.00000000E+00 2.42169353E-02 0.00000000E+00
 4  4 0.00000000E+00 0.00000000E+00 1.68368556E-02 0.00000000E+00 0.00000000E+00
 5  1-0.00000000E+00-0.00000000E+00 0.00000000E+00-6.68065451E-01-0.00000000E+00
 5  2-0.00000000E+00 0.00000000E+00-4.69068908E-01-0.00000000E+00-0.00000000E+00
 5  3-0.00000000E+00-0.00000000E+00-0.00000000E+00 0.00000000E+00-2.42169353E-02
 5  4-0.00000000E+00-0.00000000E+00 0.00000000E+00-1.68368556E-02-0.00000000E+00
 6  1 7.85475035E-02-1.40507443E-01 0.00000000E+00 0.00000000E+00-3.05496663E-01
 6  2-1.12690664E+00 0.00000000E+00 0.00000000E+00-8.37306630E-01 1.29970124E-02
 6  3 1.29970124E-02 2.12760713E-04 0.00000000E+00 0.00000000E+00 0.00000000E+00
 6  4 6.78988197E-02 1.85396794E+00 0.00000000E+00 0.00000000E+00-9.01506414E-03
 7  1-0.00000000E+00-0.00000000E+00 9.59457560E-01 0.00000000E+00-0.00000000E+00
 7  2-0.00000000E+00-1.07302384E+00 0.00000000E+00-0.00000000E+00-0.00000000E+00
 7  3-0.00000000E+00-0.00000000E+00-0.00000000E+00 1.28644413E-03 0.00000000E+00
 7  4-0.00000000E+00-0.00000000E+00 1.20810905E-02 0.00000000E+00-0.00000000E+00
 8  1 0.00000000E+00 0.00000000E+00 0.00000000E+00-9.59457560E-01 0.00000000E+00
 8  2 0.00000000E+00 0.00000000E+00 1.07302384E+00 0.00000000E+00 0.00000000E+00
 8  3 0.00000000E+00 0.00000000E+00 0.00000000E+00 0.00000000E+00-1.28644413E-03
 8  4 0.00000000E+00 0.00000000E+00 0.00000000E+00-1.20810905E-02 0.00000000E+00
 9  1 4.45474795E-03-8.48256217E-01 0.00000000E+00 0.00000000E+00 6.65343911E-01
 9  2 1.29935138E+00 0.00000000E+00 0.00000000E+00-7.60285079E-01-2.05898097E-01
 9  3-2.05898097E-01-2.09921313E-01 0.00000000E+00 0.00000000E+00 0.00000000E+00
 9  4 1.60144689E-01-1.58845963E-01 0.00000000E+00 0.00000000E+00-7.81816819E-02
10  1-4.79537632E-02-4.19152723E-01 0.00000000E+00 0.00000000E+00 2.26142768E-03
10  2 1.06037713E+00 0.00000000E+00 0.00000000E+00 7.66047388E-01 2.27646693E-03
10  3 2.27646693E-03-3.74160267E-01 0.00000000E+00 0.00000000E+00 0.00000000E+00
10  4-1.05528641E+00 1.28608166E-01 0.00000000E+00 0.00000000E+00-7.59687941E-02
11  1-1.23814494E-02-1.06394510E+00 0.00000000E+00 0.00000000E+00-6.92518615E-01
11  2 2.44218331E+00 0.00000000E+00 0.00000000E+00 1.35553621E+00-2.25641895E-01
11  3-2.25641895E-01-1.85499203E-02 0.00000000E+00 0.00000000E+00 0.00000000E+00
11  4 3.52602288E-01-1.82524586E+00 0.00000000E+00 0.00000000E+00 1.88536502E-01
12  1 0.00000000E+00 0.00000000E+00-4.36657540E-02 0.00000000E+00 0.00000000E+00
12  2 0.00000000E+00-1.02848593E-01 0.00000000E+00 0.00000000E+00 0.00000000E+00
12  3 0.00000000E+00 0.00000000E+00 0.00000000E+00 7.71210886E-01 0.00000000E+00
12  4 0.00000000E+00 0.00000000E+00 4.31072406E-01 0.00000000E+00 0.00000000E+00
13  1 0.00000000E+00 0.00000000E+00 0.00000000E+00 4.36657540E-02 0.00000000E+00
13  2 0.00000000E+00 0.00000000E+00 1.02848593E-01 0.00000000E+00 0.00000000E+00
13  3 0.00000000E+00 0.00000000E+00 0.00000000E+00 0.00000000E+00-7.71210886E-01
13  4 0.00000000E+00 0.00000000E+00 0.00000000E+00-4.31072406E-01 0.00000000E+00
14  1-0.00000000E+00-0.00000000E+00-0.00000000E+00-0.00000000E+00-0.00000000E+00
14  2-0.00000000E+00-0.00000000E+00-0.00000000E+00-0.00000000E+00 8.66025404E-01
14  3-8.66025404E-01-0.00000000E+00 0.00000000E+00-0.00000000E+00-0.00000000E+00
14  4-0.00000000E+00-0.00000000E+00-0.00000000E+00-0.00000000E+00-0.00000000E+00
15  1 0.00000000E+00 0.00000000E+00 0.00000000E+00 0.00000000E+00 0.00000000E+00
15  2 0.00000000E+00 0.00000000E+00 0.00000000E+00 0.00000000E+00 0.00000000E+00
15  3 0.00000000E+00 0.00000000E+00-1.00000000E+00 0.00000000E+00 0.00000000E+00
15  4 0.00000000E+00 0.00000000E+00 0.00000000E+00 0.00000000E+00 0.00000000E+00
16  1-4.03045331E-02-1.74328300E-01 0.00000000E+00 0.00000000E+00-2.10531003E-01
16  2 5.85962512E-01 0.00000000E+00 0.00000000E+00 5.20109160E-01-5.58070183E-01
16  3-5.58070183E-01 7.81708771E-01 0.00000000E+00 0.00000000E+00 0.00000000E+00
16  4-7.53946537E-01 1.73316862E-03 0.00000000E+00 0.00000000E+00-4.00872861E-01
17  1-0.00000000E+00-0.00000000E+00 3.80038212E-02 0.00000000E+00-0.00000000E+00
17  2-0.00000000E+00 2.20548279E-01 0.00000000E+00-0.00000000E+00-0.00000000E+00
17  3-0.00000000E+00-0.00000000E+00-0.00000000E+00 7.40721990E-01 0.00000000E+00
17  4-0.00000000E+00-0.00000000E+00-1.01400058E+00 0.00000000E+00-0.00000000E+00
18  1 0.00000000E+00 0.00000000E+00 0.00000000E+00-3.80038212E-02 0.00000000E+00
18  2 0.00000000E+00 0.00000000E+00-2.20548279E-01 0.00000000E+00 0.00000000E+00
18  3 0.00000000E+00 0.00000000E+00 0.00000000E+00 0.00000000E+00-7.40721990E-01
18  4 0.00000000E+00 0.00000000E+00 0.00000000E+00 1.01400058E+00 0.00000000E+00
19  1-2.80633468E-01 9.41416754E-01-0.00000000E+00-0.00000000E+00 4.84045756E-01
19  2 1.89243644E+00-0.00000000E+00-0.00000000E+00 6.96545788E-01-1.11761980E+00
19  3-1.11761980E+00 3.41785928E-02-0.00000000E+00-0.00000000E+00-0.00000000E+00
19  4-7.20827178E-01-8.67473345E-01-0.00000000E+00-0.00000000E+00 1.06350431E+00
20  1 3.08701294E-01-1.03799498E+00-0.00000000E+00-0.00000000E+00 6.04432801E-01
20  2-1.02365746E+00-0.00000000E+00-0.00000000E+00 2.60823098E-01 8.22580434E-01
20  3 8.22580434E-01 1.95313880E+00-0.00000000E+00-0.00000000E+00-0.00000000E+00
20  4-9.74445273E-01 3.73801810E-02-0.00000000E+00-0.00000000E+00 1.01979147E+00
 $END

! TRAVIS-CI SMALL

! TRAVIS-CI SKIP
