!  3-S excited state of He atom.
!  Test to ensure the GVB code can handle the absence of cores.
!
!   GVB code gets FINAL E= -2.1723613545, 11 iters
!  ROHF code gets FINAL E= -2.1723613545, 12 iters
!
!  This run takes 1 seconds on a 266 MHz Pentium II (9 Dec 1999)
!
 $contrl scftyp=gvb mult=3 runtyp=energy $end
 $system mwords=1 $end
 $guess  guess=hcore $end
!
!   triplet via GVB code:
!
 $scf    nco=0 nseto=2 no(1)=1,1 npair=0 $end
!
!   triplet via ROHF code:
!
--- $contrl scftyp=rohf $end
 $data
He molecule...-311G basis plus even-tempered diffuse functions
Dnh 2

He 2.0  0.0 0.0 0.0
  n311 6
  s 1 ; 1 0.09 1.0
  s 1 ; 1 0.03 1.0
  s 1 ; 1 0.01 1.0

 $end

! TRAVIS-CI SMALL

! TRAVIS-CI SKIP
