!  TCSCF IR intnsity test...ozone, 1-A-1 "biradicaloid".
!  Duplicate table 7 from Y.Yamaguchi, M.J.Frisch, T.J.Lee,
!  H.F.Schaefer, J.S.Binkley  Theor.Chim.Acta 69,337-352(1986)
!
!  Note that this paper prints incorrect p.larizability values,
!  which can only be duplicated by making the coefficient of
!  the CI response term in equation 43 be 4 rather than 2.
!  In fact, formula 43 is correct as printed, as may be proved
!  by numerical differentiation (RUNTYP=FFIELD).  For ozone,
!  the numerical result is a(xx)=3.06043, a(yy)=0.95001, and
!  a(zz)=1.22200, so the mean p.larizability is 1.74415 A**3.
!  Clearly the GAMESS analytic calculation is correct.  Similar
!  comments apply the HF example given in table 6 of this paper.
!  To generate alpha(xx) numerically, use
!     $contrl runtyp=ffield $end
!     $ffcalc iaxis=1 jaxis=0 $end
!
!  GAMESS: FINAL E=-224.3429459486 after 14 iterations
!                     C1=0.894793, C2=-0.446482
!                       dipole=0.199038 Debye
!       FREQ= 779.71(a1), 1169.04(a1), 1486.32(b1) cm**-1
!  INTENSITY=  0.12149,    0.35216,     0.07011 D**2/amu-A**2
!                    mean POLARIZABILITY=1.74436 A**3
!
!  literature: at rOO=1.256, aOOO=115.1
!  E=-224.34295, C1=0.895, C2=-0.446, dipole=0.199
!  F.EQ=780, 1171, 1486,  intnsity=0.121, 0.355, 0.071
!  mean P.LARIZABILITY=1.755 (which is incorrect)
!
!  This run takes 1 seconds on 2.66 GHz Cloverton ( 9 Apr 2015)
!  results have not changed much since at least 2005.
!
 $contrl scftyp=gvb runtyp=hessian coord=zmt $end
 $system mwords=1 $end
 $cphf   polar=.true. $end
 $basis  gbasis=n31 ngauss=6 ndfunc=1 $end
 $scf    nco=11 nseto=0 npair=1 $end
 $guess  guess=moread norb=13 $end
 $data
Ozone...TCSCF/6-31G(d)
Cnv   2
 
O
O 1 rOO
O 1 rOO 2 aOOO

rOO=1.2557467
aOOO=115.148614
 $end

--- RHF ORBITALS --- GENERATED AT Mon Mar 27 19:24:53 1995
Ozone...occupied RHF orbitals, plus the LUMO.
E(RHF)=     -224.2532102413, E(NUC)=   69.9057394596,   15 ITERS
 $VEC
 1  1 9.94883894E-01 2.06067444E-02 0.00000000E+00 0.00000000E+00 1.64766200E-03
 1  2 3.72365018E-03 0.00000000E+00 0.00000000E+00-4.57251460E-04-3.53524316E-03
 1  3-3.89594333E-03-3.52991282E-03 0.00000000E+00 0.00000000E+00 0.00000000E+00
 1  4 1.74052905E-03 3.61447309E-04 2.24300560E-04 0.00000000E+00-1.66267767E-04
 1  5-3.54381038E-04-1.70234997E-04 0.00000000E+00 2.20104314E-04-2.08405780E-04
 1  6 1.23236410E-04-3.61989605E-05 0.00000000E+00 1.84212029E-04 0.00000000E+00
 1  7 1.74052905E-03 3.61447309E-04-2.24300560E-04 0.00000000E+00-1.66267767E-04
 1  8-3.54381038E-04 1.70234997E-04 0.00000000E+00 2.20104314E-04-2.08405780E-04
 1  9 1.23236410E-04-3.61989605E-05 0.00000000E+00-1.84212029E-04 0.00000000E+00
 2  1 0.00000000E+00 0.00000000E+00-3.30362708E-04 0.00000000E+00 0.00000000E+00
 2  2 0.00000000E+00 8.12237243E-04 0.00000000E+00 0.00000000E+00 0.00000000E+00
 2  3 0.00000000E+00 0.00000000E+00 0.00000000E+00 5.54051194E-04 0.00000000E+00
 2  4 7.03449271E-01 1.46727074E-02 1.08347846E-03 0.00000000E+00-6.24728812E-04
 2  5 2.86629660E-03-1.03102942E-04 0.00000000E+00 9.28803250E-06-2.57451704E-03
 2  6-2.73461955E-03-2.56745481E-03 0.00000000E+00 4.36766955E-05 0.00000000E+00
 2  7-7.03449271E-01-1.46727074E-02 1.08347846E-03 0.00000000E+00 6.24728812E-04
 2  8-2.86629660E-03-1.03102942E-04 0.00000000E+00-9.28803250E-06 2.57451704E-03
 2  9 2.73461955E-03 2.56745481E-03 0.00000000E+00 4.36766955E-05 0.00000000E+00
 3  1-2.54702329E-03 5.00190261E-04 0.00000000E+00 0.00000000E+00 2.18951879E-04
 3  2-2.74449849E-04 0.00000000E+00 0.00000000E+00-1.80778072E-04-5.35810801E-04
 3  3 1.74979726E-04-1.10388019E-04 0.00000000E+00 0.00000000E+00 0.00000000E+00
 3  4 7.03458990E-01 1.46481514E-02 9.74950005E-04 0.00000000E+00-6.27044754E-04
 3  5 2.51022553E-03-2.23346339E-04 0.00000000E+00 1.00483520E-04-2.63163000E-03
 3  6-2.77253652E-03-2.48234984E-03 0.00000000E+00 4.53720217E-05 0.00000000E+00
 3  7 7.03458990E-01 1.46481514E-02-9.74950005E-04 0.00000000E+00-6.27044754E-04
 3  8 2.51022553E-03 2.23346339E-04 0.00000000E+00 1.00483520E-04-2.63163000E-03
 3  9-2.77253652E-03-2.48234984E-03 0.00000000E+00-4.53720217E-05 0.00000000E+00
 4  1-1.74177212E-01 4.20849966E-01 0.00000000E+00 0.00000000E+00 1.12573089E-01
 4  2 2.75558545E-01 0.00000000E+00 0.00000000E+00 4.92126447E-02 2.87859059E-02
 4  3-5.06606028E-03 1.48513002E-02 0.00000000E+00 0.00000000E+00 0.00000000E+00
 4  4-8.92735018E-02 2.12017274E-01 9.45875466E-02 0.00000000E+00-5.04085230E-02
 4  5 9.63550698E-02 1.48662856E-02 0.00000000E+00-1.26929201E-02 2.20244221E-02
 4  6 5.82541829E-04 6.53628115E-03 0.00000000E+00-1.57717928E-02 0.00000000E+00
 4  7-8.92735018E-02 2.12017274E-01-9.45875466E-02 0.00000000E+00-5.04085230E-02
 4  8 9.63550698E-02-1.48662856E-02 0.00000000E+00-1.26929201E-02 2.20244221E-02
 4  9 5.82541829E-04 6.53628115E-03 0.00000000E+00 1.57717928E-02 0.00000000E+00
 5  1 0.00000000E+00 0.00000000E+00-2.95674518E-01 0.00000000E+00 0.00000000E+00
 5  2 0.00000000E+00-8.39491239E-02 0.00000000E+00 0.00000000E+00 0.00000000E+00
 5  3 0.00000000E+00 0.00000000E+00 0.00000000E+00-3.92987719E-02 0.00000000E+00
 5  4-1.43794233E-01 3.36094179E-01 5.94918810E-02 0.00000000E+00-5.95321297E-02
 5  5 2.76868197E-01 3.30055956E-02 0.00000000E+00-2.27871018E-02 1.39091005E-02
 5  6-1.79192428E-03 8.96776199E-03 0.00000000E+00-1.44131642E-02 0.00000000E+00
 5  7 1.43794233E-01-3.36094179E-01 5.94918810E-02 0.00000000E+00 5.95321297E-02
 5  8-2.76868197E-01 3.30055956E-02 0.00000000E+00 2.27871018E-02-1.39091005E-02
 5  9 1.79192428E-03-8.96776199E-03 0.00000000E+00-1.44131642E-02 0.00000000E+00
 6  1-1.38083173E-01 3.51078190E-01 0.00000000E+00 0.00000000E+00-2.14933785E-01
 6  2 4.25928886E-01 0.00000000E+00 0.00000000E+00-7.12239424E-02 1.27262426E-03
 6  3 6.38647267E-03-6.63140522E-03 0.00000000E+00 0.00000000E+00 0.00000000E+00
 6  4 1.23243837E-01-2.93940262E-01 5.99498008E-02 0.00000000E+00-9.35447691E-02
 6  5-3.54850292E-01 5.64171332E-03 0.00000000E+00-2.77761637E-02-6.25907600E-04
 6  6-3.50755532E-03 2.31469279E-03 0.00000000E+00-1.02152427E-02 0.00000000E+00
 6  7 1.23243837E-01-2.93940262E-01-5.99498008E-02 0.00000000E+00-9.35447691E-02
 6  8-3.54850292E-01-5.64171332E-03 0.00000000E+00-2.77761637E-02-6.25907600E-04
 6  9-3.50755532E-03 2.31469279E-03 0.00000000E+00 1.02152427E-02 0.00000000E+00
 7  1 1.02702887E-02-2.00697769E-02 0.00000000E+00 0.00000000E+00 4.88798193E-01
 7  2-4.13372813E-02 0.00000000E+00 0.00000000E+00 2.69406345E-01-1.38663121E-02
 7  3-1.03051992E-02 3.42905592E-02 0.00000000E+00 0.00000000E+00 0.00000000E+00
 7  4 5.46445843E-02-1.21312121E-01 2.75978794E-01 0.00000000E+00 8.70626933E-02
 7  5-2.29535251E-01 1.23452477E-01 0.00000000E+00 5.31386133E-02 2.92149012E-02
 7  6-4.02875373E-03-8.97259681E-03 0.00000000E+00-8.01413673E-03 0.00000000E+00
 7  7 5.46445843E-02-1.21312121E-01-2.75978794E-01 0.00000000E+00 8.70626933E-02
 7  8-2.29535251E-01-1.23452477E-01 0.00000000E+00 5.31386133E-02 2.92149012E-02
 7  9-4.02875373E-03-8.97259681E-03 0.00000000E+00 8.01413673E-03 0.00000000E+00
 8  1 0.00000000E+00 0.00000000E+00 4.23735435E-01 0.00000000E+00 0.00000000E+00
 8  2 0.00000000E+00 2.10239479E-01 0.00000000E+00 0.00000000E+00 0.00000000E+00
 8  3 0.00000000E+00 0.00000000E+00 0.00000000E+00 2.29529888E-02 0.00000000E+00
 8  4-7.64311614E-02 1.78934447E-01-1.97610477E-01 0.00000000E+00 2.54045418E-01
 8  5 3.05290748E-01-9.28203104E-02 0.00000000E+00 1.22165910E-01-1.45714975E-02
 8  6 8.94271283E-03-1.07976492E-02 0.00000000E+00 2.75106284E-02 0.00000000E+00
 8  7 7.64311614E-02-1.78934447E-01-1.97610477E-01 0.00000000E+00-2.54045418E-01
 8  8-3.05290748E-01-9.28203104E-02 0.00000000E+00-1.22165910E-01 1.45714975E-02
 8  9-8.94271283E-03 1.07976492E-02 0.00000000E+00 2.75106284E-02 0.00000000E+00
 9  1 0.00000000E+00 0.00000000E+00 0.00000000E+00 5.03658864E-01 0.00000000E+00
 9  2 0.00000000E+00 0.00000000E+00 3.01544112E-01 0.00000000E+00 0.00000000E+00
 9  3 0.00000000E+00 0.00000000E+00 0.00000000E+00 0.00000000E+00 3.44377963E-02
 9  4 0.00000000E+00 0.00000000E+00 0.00000000E+00 2.64494044E-01 0.00000000E+00
 9  5 0.00000000E+00 0.00000000E+00 1.53737546E-01 0.00000000E+00 0.00000000E+00
 9  6 0.00000000E+00 0.00000000E+00 2.59913596E-02 0.00000000E+00-1.67632928E-02
 9  7 0.00000000E+00 0.00000000E+00 0.00000000E+00 2.64494044E-01 0.00000000E+00
 9  8 0.00000000E+00 0.00000000E+00 1.53737546E-01 0.00000000E+00 0.00000000E+00
 9  9 0.00000000E+00 0.00000000E+00-2.59913596E-02 0.00000000E+00-1.67632928E-02
10  1 0.00000000E+00 0.00000000E+00-9.67018467E-02 0.00000000E+00 0.00000000E+00
10  2 0.00000000E+00-3.99807209E-02 0.00000000E+00 0.00000000E+00 0.00000000E+00
10  3 0.00000000E+00 0.00000000E+00 0.00000000E+00-3.39908202E-02 0.00000000E+00
10  4 3.37839920E-03-1.38179969E-03 3.59613298E-01 0.00000000E+00 3.46247858E-01
10  5-3.68977991E-02 2.43416416E-01 0.00000000E+00 2.42413327E-01 2.32819558E-02
10  6 1.18421293E-04-1.11090559E-02 0.00000000E+00-1.39021607E-03 0.00000000E+00
10  7-3.37839920E-03 1.38179969E-03 3.59613298E-01 0.00000000E+00-3.46247858E-01
10  8 3.68977991E-02 2.43416416E-01 0.00000000E+00-2.42413327E-01-2.32819558E-02
10  9-1.18421293E-04 1.11090559E-02 0.00000000E+00-1.39021607E-03 0.00000000E+00
11  1-3.58999295E-02 7.63136884E-02 0.00000000E+00 0.00000000E+00-3.35064977E-01
11  2 2.02686531E-01 0.00000000E+00 0.00000000E+00-2.13762205E-01-4.76355465E-02
11  3 7.64765985E-03 1.35424003E-02 0.00000000E+00 0.00000000E+00 0.00000000E+00
11  4-3.36990570E-03-7.59238002E-03 8.58522870E-02 0.00000000E+00 4.34706959E-01
11  5 6.16120690E-02 8.39585486E-02 0.00000000E+00 3.02090267E-01-6.96621716E-03
11  6-1.89934630E-03-9.92079858E-03 0.00000000E+00 1.25052122E-02 0.00000000E+00
11  7-3.36990570E-03-7.59238002E-03-8.58522870E-02 0.00000000E+00 4.34706959E-01
11  8 6.16120690E-02-8.39585486E-02 0.00000000E+00 3.02090267E-01-6.96621716E-03
11  9-1.89934630E-03-9.92079858E-03 0.00000000E+00-1.25052122E-02 0.00000000E+00
12  1 0.00000000E+00 0.00000000E+00 0.00000000E+00 0.00000000E+00 0.00000000E+00
12  2 0.00000000E+00 0.00000000E+00 0.00000000E+00 0.00000000E+00 0.00000000E+00
12  3 0.00000000E+00 0.00000000E+00-5.06741503E-02 0.00000000E+00 0.00000000E+00
12  4 0.00000000E+00 0.00000000E+00 0.00000000E+00 4.60606521E-01 0.00000000E+00
12  5 0.00000000E+00 0.00000000E+00 3.56868388E-01 0.00000000E+00 0.00000000E+00
12  6 0.00000000E+00 0.00000000E+00 2.09676388E-02 0.00000000E+00-1.39721491E-02
12  7 0.00000000E+00 0.00000000E+00 0.00000000E+00-4.60606521E-01 0.00000000E+00
12  8 0.00000000E+00 0.00000000E+00-3.56868388E-01 0.00000000E+00 0.00000000E+00
12  9 0.00000000E+00 0.00000000E+00 2.09676388E-02 0.00000000E+00 1.39721491E-02
13  1 0.00000000E+00 0.00000000E+00 0.00000000E+00 4.84461433E-01 0.00000000E+00
13  2 0.00000000E+00 0.00000000E+00 4.41893623E-01 0.00000000E+00 0.00000000E+00
13  3 0.00000000E+00 0.00000000E+00 0.00000000E+00 0.00000000E+00-5.89204076E-03
13  4 0.00000000E+00 0.00000000E+00 0.00000000E+00-3.76356600E-01 0.00000000E+00
13  5 0.00000000E+00 0.00000000E+00-3.74665399E-01 0.00000000E+00 0.00000000E+00
13  6 0.00000000E+00 0.00000000E+00 4.94901927E-03 0.00000000E+00-4.80286675E-03
13  7 0.00000000E+00 0.00000000E+00 0.00000000E+00-3.76356600E-01 0.00000000E+00
13  8 0.00000000E+00 0.00000000E+00-3.74665399E-01 0.00000000E+00 0.00000000E+00
13  9 0.00000000E+00 0.00000000E+00-4.94901927E-03 0.00000000E+00-4.80286675E-03
 $end

! TRAVIS-CI SMALL

! TRAVIS-CI SKIP
