!  See M.W.Schmidt, K.A.Nguyen, M.S.Gordon, J.A.Montgomery,
!      J.Am.Chem.Soc.  113, 5998-6001(1991).
!  The paper compares RHF to TCSCF, but today we can add many
!  other correlation techniques.  See below, if you are interested
!  in how single reference methods indicate their performance
!  on multi-reference situations.
!
!  FINAL E= -728.7681499744, 9 iters, RMS grad= 0.000004657
!  This is a near perfect biradical, C1= 0.708575, C2= -0.705635
!
!  This run takes 1 second on 2.66 GHz Cloverton ( 9 Apr 2015)
!  results haven't changed much since at least 2005, and probably 1991,
!  except that more comparisons can be made now, eg to MP2 and DFT.
!
 $contrl scftyp=gvb runtyp=gradient nzvar=12 $end
 $system mwords=1 timlim=10 $end
 $zmat   izmat(1)=1,1,2,  1,1,3,  1,1,4,  1,2,3,  1,2,4,  3,4,1,2,3,
                  1,1,5,  1,2,6,  2,5,1,2,  2,6,2,1,  3,6,2,1,4,
                  3,5,1,2,3 $end
 $scf    nco=22 nseto=0 npair=1 cicoef(1)=0.90,-0.20 $end
 $guess  guess=moread norb=72 $end
 $basis  gbasis=n31 ngauss=6 ndfunc=1 $end
 $data
TCSCF geometry of Si2O2H2
Cnv 2

SILICON    14.0   1.2068010643   0.0000000000  -0.0173723587
OXYGEN      8.0   0.0000000000   1.1722030788  -0.0066411809
HYDROGEN    1.0   2.0196267999   0.0000000000  -1.2587152251
 $end

------ October 2010.  Run a lot of single reference stuff,
                      and capture what each can tell us about
                      its possible correctness/inaccuracy.

RHF geometry:        -728.6720338119
SILICON    14.0   1.1527257210   0.0000000000  -0.1584907592
OXYGEN      8.0   0.0000000000   1.1739159534   0.2654620097
HYDROGEN    1.0   1.3020821807   0.0000000000  -1.6597832998

revTPSS geometry:    -730.9817643057
SILICON    14.0   1.1449050254   0.0000000000  -0.1825960002
OXYGEN      8.0   0.0000000000   1.2063650177   0.3106144070
HYDROGEN    1.0   1.1611380934   0.0000000000  -1.7072299213

MP2 geometry:        -729.2450830362
SILICON    14.0   1.1643768842   0.0000000000  -0.1656399783
OXYGEN      8.0   0.0000000000   1.2074827302   0.2792055759
HYDROGEN    1.0   1.3080806396   0.0000000000  -1.6794433613

CCSD geometry:       -729.2584495  (numerical nuclear gradient)
SILICON    14.0   1.1741042533   0.0000000000  -0.1457310445
OXYGEN      8.0   0.0000000000   1.1988559452   0.2422255939
HYDROGEN    1.0   1.4337060258   0.0000000000  -1.6452105970

CCSD(T) geometry:    -729.2966872  (numerical nuclear gradient)
SILICON    14.0   1.2203210962   0.0000000000   0.0197438063
OXYGEN      8.0   0.0000000000   1.1931128746  -0.0771977819
HYDROGEN    1.0   2.1339887949   0.0000000000  -1.1692650396

TCSCF geometry:      -728.7681499744
SILICON    14.0   1.2068010643   0.0000000000  -0.0173723587
OXYGEN      8.0   0.0000000000   1.1722030788  -0.0066411809
HYDROGEN    1.0   2.0196267999   0.0000000000  -1.2587152251

Note that by recovering the near-degeneracy correlation, TCSCF has
much better results, through CCSD.  But CCSD(T) sees the correct
geometry:
    method    r(SiSi)   r(SiO)  r(SiH) a(HSiSi)
     RHF       2.305    1.698    1.509   95.7
   revTPSS     2.290    1.735    1.524   90.6
     MP2       2.329    1.735    1.521   95.4
    CCSD       2.348    1.722    1.522   99.8
   CCSD(T)     2.441    1.709    1.499  127.5
    TCSCF      2.413    1.682    1.484  123.2

diagnostic information:      all info obtained using the RHF geometry!
                ...except hessians are at optimized geometries, of course.
   RHF:
      eps(HOMO,a1)= -0.2791  eps(LUMO,b1)= -0.0637   LUMO+1 is b2, +0.0999
      pseudoenergy of lowest VVOs is LVVO,b1= -0.0512  LVVO+1,b2=+0.1649
            frequency of 734i for a b1 mode is found
 revTPSS:
      eps(HOMO,a1)= -0.2078  eps(LUMO,b1)= -0.1711  eps(LUMO+1,b2)=-0.0473
            frequency of 164i for a b1 mode is found
   MP2:
      NOON values ...1.9528 1.9415 1.8174 0.1820 0.0390 0.0327...
         with 45.49 in principal and 0.51 e- in s.condary orbitals
            frequencies are all real valued
  CCSD:
      T1 diagnostic 0.01881357 (less than Tim Lee's 0.02 threshold),
      but largest T2 amplitude is very big, 0.56359092 (c.f. Bartlett)
      NOON values...1.9552 1.9526 1.7005 0.2918 0.0385 0.0326
         with 45.00 in principal and 0.63 e- in s.condary orbitals
  CCSD(T):
      no extra information is printed during the triples calculation.
      Perhaps the energies say something?  At the RHF geometry,
              RHF= -728.672034
              MP2= -729.242367
             CCSD= -729.256580
          CCSD(T)= -729.285096
      This is probably more difference between MP2 and CCSD
      and between CCSD and CCSD(T) than is normally the case.
      Note that CCSD(T) ends up resembling the TCSCF structure!
  TCSCF:
      at RHF geometry, C1=0.842339 C2= -0.538948  NOON= 1.41907, 0.58093
   after optimization, C1=0.708575 C2= -0.705635  NOON= 1.00416, 0.99584
            frequencies are all real valued


--- RHF ORBITALS --- GENERATED AT Tue Jun 25 08:39:43 1991
TCSCF geometry of Si2O2H2                                                       
E(RHF)=     -728.6502274210, E(NUC)=  219.1233282357,   11 ITERS
 $VEC
 1  1-7.04891668E-01-8.77798916E-03-7.85778846E-06-0.00000000E+00-2.92934225E-06
 1  2 1.21217171E-02 7.24194959E-05-0.00000000E+00-5.83422882E-06-1.98379031E-03
 1  3-3.84928272E-04-0.00000000E+00-1.01972128E-04-4.24936884E-03-4.24058935E-03
 1  4-4.17545912E-03-0.00000000E+00 7.53967503E-06-0.00000000E+00 7.04891668E-01
 1  5 8.77798916E-03-7.85778846E-06-0.00000000E+00 2.92934225E-06-1.21217171E-02
 1  6 7.24194959E-05-0.00000000E+00 5.83422882E-06 1.98379031E-03-3.84928272E-04
 1  7-0.00000000E+00 1.01972128E-04 4.24936884E-03 4.24058935E-03 4.17545912E-03
 1  8-0.00000000E+00 7.53967503E-06-0.00000000E+00-0.00000000E+00-0.00000000E+00
 1  9-1.10333459E-04-0.00000000E+00-0.00000000E+00-0.00000000E+00 1.14858887E-05
 1 10-0.00000000E+00-0.00000000E+00-0.00000000E+00-0.00000000E+00-0.00000000E+00
 1 11-8.41114875E-05-1.52758529E-06-0.00000000E+00-0.00000000E+00-0.00000000E+00
 1 12-1.10333459E-04-0.00000000E+00-0.00000000E+00-0.00000000E+00 1.14858887E-05
 1 13-0.00000000E+00-0.00000000E+00-0.00000000E+00-0.00000000E+00-0.00000000E+00
 1 14 8.41114875E-05-1.52758529E-06-0.00000000E+00 3.65751311E-05-1.53008090E-04
 1 15-3.65751311E-05 1.53008090E-04
 2  1 7.04897516E-01 8.79753253E-03 1.99512510E-05 0.00000000E+00 1.36104681E-06
 2  2-1.17294590E-02 6.60331375E-05 0.00000000E+00 1.65562373E-05 1.16402637E-03
 2  3-1.67692021E-05 0.00000000E+00 5.27899383E-05 4.18067983E-03 4.16420638E-03
 2  4 4.17366299E-03 0.00000000E+00-9.85841452E-06 0.00000000E+00 7.04897516E-01
 2  5 8.79753253E-03-1.99512510E-05 0.00000000E+00 1.36104681E-06-1.17294590E-02
 2  6-6.60331375E-05 0.00000000E+00 1.65562373E-05 1.16402637E-03 1.67692021E-05
 2  7 0.00000000E+00 5.27899383E-05 4.18067983E-03 4.16420638E-03 4.17366299E-03
 2  8 0.00000000E+00 9.85841452E-06 0.00000000E+00 8.26541416E-06-3.78827547E-05
 2  9 0.00000000E+00-1.06401890E-04 6.86587919E-06 1.79583689E-04 0.00000000E+00
 2 10 6.13848445E-06-2.30015875E-05-3.55383254E-05-5.79154528E-05 6.45899945E-05
 2 11 0.00000000E+00 0.00000000E+00 8.23639793E-07 8.26541416E-06-3.78827547E-05
 2 12 0.00000000E+00 1.06401890E-04 6.86587919E-06 1.79583689E-04 0.00000000E+00
 2 13-6.13848445E-06-2.30015875E-05-3.55383254E-05-5.79154528E-05 6.45899945E-05
 2 14 0.00000000E+00 0.00000000E+00-8.23639793E-07-4.19022493E-05 1.45181083E-04
 2 15-4.19022493E-05 1.45181083E-04
 3  1-0.00000000E+00-0.00000000E+00-0.00000000E+00-6.77229000E-05-0.00000000E+00
 3  2-0.00000000E+00-0.00000000E+00 4.94123948E-04-0.00000000E+00-0.00000000E+00
 3  3-0.00000000E+00-2.97313356E-04-0.00000000E+00-0.00000000E+00-0.00000000E+00
 3  4-0.00000000E+00 3.35179967E-04-0.00000000E+00-2.50898871E-06-0.00000000E+00
 3  5-0.00000000E+00-0.00000000E+00-6.77229000E-05-0.00000000E+00-0.00000000E+00
 3  6-0.00000000E+00 4.94123948E-04-0.00000000E+00-0.00000000E+00-0.00000000E+00
 3  7-2.97313356E-04-0.00000000E+00-0.00000000E+00-0.00000000E+00-0.00000000E+00
 3  8-3.35179967E-04-0.00000000E+00-2.50898871E-06-7.03336512E-01-1.50040609E-02
 3  9-0.00000000E+00-7.10927105E-04 1.20681145E-04-2.46902842E-03-0.00000000E+00
 3 10 5.41888673E-04-5.48972190E-05 2.97541347E-03 2.80812343E-03 2.72424384E-03
 3 11-0.00000000E+00-0.00000000E+00-8.67774747E-06 7.03336512E-01 1.50040609E-02
 3 12-0.00000000E+00-7.10927105E-04-1.20681145E-04 2.46902842E-03-0.00000000E+00
 3 13 5.41888673E-04 5.48972190E-05-2.97541347E-03-2.80812343E-03-2.72424384E-03
 3 14-0.00000000E+00-0.00000000E+00-8.67774747E-06-0.00000000E+00-0.00000000E+00
 3 15-0.00000000E+00-0.00000000E+00
 4  1 1.73028815E-05-5.53395515E-05-6.70486282E-05 0.00000000E+00-7.52446413E-06
 4  2 5.08932103E-04 5.82069782E-04 0.00000000E+00 2.86158314E-05-3.38413023E-04
 4  3-1.91830710E-04 0.00000000E+00 2.55751242E-05 2.07715420E-04 9.37732851E-05
 4  4-1.19604039E-04 0.00000000E+00-2.95871038E-05 0.00000000E+00 1.73028815E-05
 4  5-5.53395515E-05 6.70486282E-05 0.00000000E+00-7.52446413E-06 5.08932103E-04
 4  6-5.82069782E-04 0.00000000E+00 2.86158314E-05-3.38413023E-04 1.91830710E-04
 4  7 0.00000000E+00 2.55751242E-05 2.07715420E-04 9.37732851E-05-1.19604039E-04
 4  8 0.00000000E+00 2.95871038E-05 0.00000000E+00 7.03338058E-01 1.50192172E-02
 4  9 0.00000000E+00 6.69091296E-04-1.15433085E-04 2.44752717E-03 0.00000000E+00
 4 10-6.27000838E-04 4.32157300E-05-2.91856919E-03-2.93570181E-03-2.71841040E-03
 4 11 0.00000000E+00 0.00000000E+00 1.13012537E-05 7.03338058E-01 1.50192172E-02
 4 12 0.00000000E+00-6.69091296E-04-1.15433085E-04 2.44752717E-03 0.00000000E+00
 4 13 6.27000838E-04 4.32157300E-05-2.91856919E-03-2.93570181E-03-2.71841040E-03
 4 14 0.00000000E+00 0.00000000E+00-1.13012537E-05 1.66255294E-05 9.49582920E-05
 4 15 1.66255294E-05 9.49582920E-05
 5  1-1.89706561E-01 7.28993304E-01 6.18627028E-04-0.00000000E+00 1.00832242E-03
 5  2 2.99825614E-03 4.66203482E-04-0.00000000E+00-6.71016679E-05-9.94610333E-04
 5  3-1.54537906E-05-0.00000000E+00-3.30956385E-05 1.83821708E-03 1.72221131E-03
 5  4 1.63323251E-03-0.00000000E+00-2.71542397E-05-0.00000000E+00-1.89706561E-01
 5  5 7.28993304E-01-6.18627028E-04-0.00000000E+00 1.00832242E-03 2.99825614E-03
 5  6-4.66203482E-04-0.00000000E+00-6.71016679E-05-9.94610333E-04 1.54537906E-05
 5  7-0.00000000E+00-3.30956385E-05 1.83821708E-03 1.72221131E-03 1.63323251E-03
 5  8-0.00000000E+00 2.71542397E-05-0.00000000E+00-3.07634154E-04 6.33726860E-04
 5  9-0.00000000E+00 6.88115305E-04-6.12667512E-06-9.25878779E-04-0.00000000E+00
 5 10-1.65987979E-04 5.04612199E-05 4.60481617E-04 4.82991037E-04-2.88228332E-05
 5 11-0.00000000E+00-0.00000000E+00 1.73825407E-06-3.07634154E-04 6.33726860E-04
 5 12-0.00000000E+00-6.88115305E-04-6.12667512E-06-9.25878779E-04-0.00000000E+00
 5 13 1.65987979E-04 5.04612199E-05 4.60481617E-04 4.82991037E-04-2.88228332E-05
 5 14-0.00000000E+00-0.00000000E+00-1.73825407E-06 2.92276154E-04-4.28505823E-05
 5 15 2.92276154E-04-4.28505823E-05
 6  1-1.89712440E-01 7.29007807E-01 5.90830098E-04-0.00000000E+00 9.84369453E-04
 6  2 2.90804244E-03 3.77620961E-04-0.00000000E+00-1.06094033E-06-2.36530803E-03
 6  3-6.98983874E-04-0.00000000E+00-4.05491223E-05 2.02649925E-03 1.61073168E-03
 6  4 1.67831285E-03-0.00000000E+00-3.01492245E-05-0.00000000E+00 1.89712440E-01
 6  5-7.29007807E-01 5.90830098E-04-0.00000000E+00-9.84369453E-04-2.90804244E-03
 6  6 3.77620961E-04-0.00000000E+00 1.06094033E-06 2.36530803E-03-6.98983874E-04
 6  7-0.00000000E+00 4.05491223E-05-2.02649925E-03-1.61073168E-03-1.67831285E-03
 6  8-0.00000000E+00-3.01492245E-05-0.00000000E+00-0.00000000E+00-0.00000000E+00
 6  9-6.16915992E-04-0.00000000E+00-0.00000000E+00-0.00000000E+00-2.43831910E-04
 6 10-0.00000000E+00-0.00000000E+00-0.00000000E+00-0.00000000E+00-0.00000000E+00
 6 11-5.67390505E-04-1.44216233E-05-0.00000000E+00-0.00000000E+00-0.00000000E+00
 6 12-6.16915992E-04-0.00000000E+00-0.00000000E+00-0.00000000E+00-2.43831910E-04
 6 13-0.00000000E+00-0.00000000E+00-0.00000000E+00-0.00000000E+00-0.00000000E+00
 6 14 5.67390505E-04-1.44216233E-05-0.00000000E+00 3.02452108E-04-2.34915490E-05
 6 15-3.02452108E-04 2.34915490E-05
 7  1 2.52781347E-04-1.20517711E-03 6.88975143E-01-0.00000000E+00-1.41843761E-01
 7  2 1.17815889E-03 1.19619188E-02-0.00000000E+00-2.61627865E-03 7.67431832E-04
 7  3-2.87110105E-03-0.00000000E+00 6.63982786E-04-6.98307467E-04-3.11508583E-04
 7  4-8.18717098E-04-0.00000000E+00 2.31339830E-06-0.00000000E+00 2.52781347E-04
 7  5-1.20517711E-03-6.88975143E-01-0.00000000E+00-1.41843761E-01 1.17815889E-03
 7  6-1.19619188E-02-0.00000000E+00-2.61627865E-03 7.67431832E-04 2.87110105E-03
 7  7-0.00000000E+00 6.63982786E-04-6.98307467E-04-3.11508583E-04-8.18717098E-04
 7  8-0.00000000E+00-2.31339830E-06-0.00000000E+00-1.03074456E-03 1.09795393E-03
 7  9-0.00000000E+00 1.98123611E-03-1.78903121E-04 3.39952778E-04-0.00000000E+00
 7 10 8.21703923E-04 3.99405986E-05 5.75473682E-04 1.17355748E-03-7.81556013E-04
 7 11-0.00000000E+00-0.00000000E+00-7.24405685E-05-1.03074456E-03 1.09795393E-03
 7 12-0.00000000E+00-1.98123611E-03-1.78903121E-04 3.39952778E-04-0.00000000E+00
 7 13-8.21703923E-04 3.99405986E-05 5.75473682E-04 1.17355748E-03-7.81556013E-04
 7 14-0.00000000E+00-0.00000000E+00 7.24405685E-05-2.31749156E-04 1.00227637E-05
 7 15-2.31749156E-04 1.00227637E-05
 8  1 1.68472573E-04-7.24575572E-04 6.79306267E-01-0.00000000E+00-1.83283208E-01
 8  2 1.35027753E-03 1.32237226E-02-0.00000000E+00-3.53178822E-03-2.01987349E-03
 8  3-3.67515737E-03-0.00000000E+00 1.41146112E-03 5.17415934E-04-6.64884710E-04
 8  4-6.91256540E-04-0.00000000E+00-6.08034423E-05-0.00000000E+00-1.68472573E-04
 8  5 7.24575572E-04 6.79306267E-01-0.00000000E+00 1.83283208E-01-1.35027753E-03
 8  6 1.32237226E-02-0.00000000E+00 3.53178822E-03 2.01987349E-03-3.67515737E-03
 8  7-0.00000000E+00-1.41146112E-03-5.17415934E-04 6.64884710E-04 6.91256540E-04
 8  8-0.00000000E+00-6.08034423E-05-0.00000000E+00-0.00000000E+00-0.00000000E+00
 8  9-1.53172740E-03-0.00000000E+00-0.00000000E+00-0.00000000E+00-8.01241060E-04
 8 10-0.00000000E+00-0.00000000E+00-0.00000000E+00-0.00000000E+00-0.00000000E+00
 8 11-1.48647026E-03 6.20224811E-05-0.00000000E+00-0.00000000E+00-0.00000000E+00
 8 12-1.53172740E-03-0.00000000E+00-0.00000000E+00-0.00000000E+00-8.01241060E-04
 8 13-0.00000000E+00-0.00000000E+00-0.00000000E+00-0.00000000E+00-0.00000000E+00
 8 14 1.48647026E-03 6.20224811E-05-0.00000000E+00-1.82227890E-04 3.55541780E-04
 8 15 1.82227890E-04-3.55541780E-04
 9  1-0.00000000E+00-0.00000000E+00-0.00000000E+00 7.03616889E-01-0.00000000E+00
 9  2-0.00000000E+00-0.00000000E+00 1.27059535E-02-0.00000000E+00-0.00000000E+00
 9  3-0.00000000E+00-2.35647139E-03-0.00000000E+00-0.00000000E+00-0.00000000E+00
 9  4-0.00000000E+00 2.29981346E-04-0.00000000E+00 1.53345510E-04-0.00000000E+00
 9  5-0.00000000E+00-0.00000000E+00 7.03616889E-01-0.00000000E+00-0.00000000E+00
 9  6-0.00000000E+00 1.27059535E-02-0.00000000E+00-0.00000000E+00-0.00000000E+00
 9  7-2.35647139E-03-0.00000000E+00-0.00000000E+00-0.00000000E+00-0.00000000E+00
 9  8-2.29981346E-04-0.00000000E+00 1.53345510E-04 9.59282359E-04-1.44634857E-03
 9  9-0.00000000E+00-1.53088892E-03 7.63287735E-05 8.14733184E-04-0.00000000E+00
 9 10-5.21680166E-04 4.25496029E-05-1.02254137E-03-8.69810515E-04 4.83327413E-04
 9 11-0.00000000E+00-0.00000000E+00 3.49460382E-05-9.59282359E-04 1.44634857E-03
 9 12-0.00000000E+00-1.53088892E-03-7.63287735E-05-8.14733184E-04-0.00000000E+00
 9 13-5.21680166E-04-4.25496029E-05 1.02254137E-03 8.69810515E-04-4.83327413E-04
 9 14-0.00000000E+00-0.00000000E+00 3.49460382E-05-0.00000000E+00-0.00000000E+00
 9 15-0.00000000E+00-0.00000000E+00
10  1 0.00000000E+00 0.00000000E+00 0.00000000E+00 7.03616609E-01 0.00000000E+00
10  2 0.00000000E+00 0.00000000E+00 1.28395533E-02 0.00000000E+00 0.00000000E+00
10  3 0.00000000E+00-3.66125000E-03 0.00000000E+00 0.00000000E+00 0.00000000E+00
10  4 0.00000000E+00 5.91485576E-06 0.00000000E+00 1.40494378E-04 0.00000000E+00
10  5 0.00000000E+00 0.00000000E+00-7.03616609E-01 0.00000000E+00 0.00000000E+00
10  6 0.00000000E+00-1.28395533E-02 0.00000000E+00 0.00000000E+00 0.00000000E+00
10  7 3.66125000E-03 0.00000000E+00 0.00000000E+00 0.00000000E+00 0.00000000E+00
10  8 5.91485576E-06 0.00000000E+00-1.40494378E-04 0.00000000E+00 0.00000000E+00
10  9 2.03451989E-03 0.00000000E+00 0.00000000E+00 0.00000000E+00 2.25882979E-04
10 10 0.00000000E+00 0.00000000E+00 0.00000000E+00 0.00000000E+00 0.00000000E+00
10 11 1.62768869E-03-4.41612722E-05 0.00000000E+00 0.00000000E+00 0.00000000E+00
10 12-2.03451989E-03 0.00000000E+00 0.00000000E+00 0.00000000E+00-2.25882979E-04
10 13 0.00000000E+00 0.00000000E+00 0.00000000E+00 0.00000000E+00 0.00000000E+00
10 14 1.62768869E-03 4.41612722E-05 0.00000000E+00 0.00000000E+00 0.00000000E+00
10 15 0.00000000E+00 0.00000000E+00
11  1 3.15102684E-04-1.31980847E-03 1.41813875E-01 0.00000000E+00 6.89300410E-01
11  2 6.28870377E-04 2.00391999E-03 0.00000000E+00 1.24991671E-02-5.80549336E-04
11  3-1.82267053E-04 0.00000000E+00-2.20961399E-03-6.66010263E-04-4.58582126E-04
11  4-5.50929621E-04 0.00000000E+00-2.71571954E-04 0.00000000E+00 3.15102684E-04
11  5-1.31980847E-03-1.41813875E-01 0.00000000E+00 6.89300410E-01 6.28870377E-04
11  6-2.00391999E-03 0.00000000E+00 1.24991671E-02-5.80549336E-04 1.82267053E-04
11  7 0.00000000E+00-2.20961399E-03-6.66010263E-04-4.58582126E-04-5.50929621E-04
11  8 0.00000000E+00 2.71571954E-04 0.00000000E+00-2.61593667E-04 1.17023754E-05
11  9 0.00000000E+00 4.08637523E-04 6.46999039E-04 1.06371865E-03 0.00000000E+00
11 10 5.42677013E-04-6.07358499E-04-6.26853458E-06 1.95445441E-04-3.57407499E-04
11 11 0.00000000E+00 0.00000000E+00 1.99321835E-04-2.61593667E-04 1.17023754E-05
11 12 0.00000000E+00-4.08637523E-04 6.46999039E-04 1.06371865E-03 0.00000000E+00
11 13-5.42677013E-04-6.07358499E-04-6.26853458E-06 1.95445441E-04-3.57407499E-04
11 14 0.00000000E+00 0.00000000E+00-1.99321835E-04-7.78705945E-04 9.70739563E-04
11 15-7.78705945E-04 9.70739563E-04
12  1 3.16081932E-04-1.24661130E-03 1.83340245E-01-0.00000000E+00 6.79440108E-01
12  2 1.12225228E-03 3.17510679E-03-0.00000000E+00 1.24618769E-02-1.34206827E-03
12  3-9.64267336E-04-0.00000000E+00-3.24015171E-03-4.20663622E-04-6.28020437E-04
12  4-5.28130881E-04-0.00000000E+00-5.97113374E-05-0.00000000E+00-3.16081932E-04
12  5 1.24661130E-03 1.83340245E-01-0.00000000E+00-6.79440108E-01-1.12225228E-03
12  6 3.17510679E-03-0.00000000E+00-1.24618769E-02 1.34206827E-03-9.64267336E-04
12  7-0.00000000E+00 3.24015171E-03 4.20663622E-04 6.28020437E-04 5.28130881E-04
12  8-0.00000000E+00-5.97113374E-05-0.00000000E+00-0.00000000E+00-0.00000000E+00
12  9-3.47638015E-04-0.00000000E+00-0.00000000E+00-0.00000000E+00-5.00026275E-04
12 10-0.00000000E+00-0.00000000E+00-0.00000000E+00-0.00000000E+00-0.00000000E+00
12 11-4.80032925E-04-1.48192702E-04-0.00000000E+00-0.00000000E+00-0.00000000E+00
12 12-3.47638015E-04-0.00000000E+00-0.00000000E+00-0.00000000E+00-5.00026275E-04
12 13-0.00000000E+00-0.00000000E+00-0.00000000E+00-0.00000000E+00-0.00000000E+00
12 14 4.80032925E-04-1.48192702E-04-0.00000000E+00-8.21194944E-04 5.70279763E-04
12 15 8.21194944E-04-5.70279763E-04
13  1 1.74022063E-02-8.59804790E-02-5.65597525E-02 0.00000000E+00-3.61253889E-04
13  2 1.37574899E-01 8.21206186E-02 0.00000000E+00 2.35004623E-03-7.39278938E-03
13  3-1.59929513E-02 0.00000000E+00 1.85463106E-03 1.62691559E-02 7.60841317E-03
13  4-2.67004813E-02 0.00000000E+00-7.60762565E-04 0.00000000E+00 1.74022063E-02
13  5-8.59804790E-02 5.65597525E-02 0.00000000E+00-3.61253889E-04 1.37574899E-01
13  6-8.21206186E-02 0.00000000E+00 2.35004623E-03-7.39278938E-03 1.59929513E-02
13  7 0.00000000E+00 1.85463106E-03 1.62691559E-02 7.60841317E-03-2.67004813E-02
13  8 0.00000000E+00 7.60762565E-04 0.00000000E+00-1.41988778E-01 3.17401756E-01
13  9 0.00000000E+00 7.34289073E-02-8.63613311E-04 2.83404667E-01 0.00000000E+00
13 10 3.19420510E-02-2.76493872E-03 1.39613913E-02 1.55544533E-02 4.48774742E-04
13 11 0.00000000E+00 0.00000000E+00-7.71611620E-04-1.41988778E-01 3.17401756E-01
13 12 0.00000000E+00-7.34289073E-02-8.63613311E-04 2.83404667E-01 0.00000000E+00
13 13-3.19420510E-02-2.76493872E-03 1.39613913E-02 1.55544533E-02 4.48774742E-04
13 14 0.00000000E+00 0.00000000E+00 7.71611620E-04 8.59561606E-03 4.49911407E-03
13 15 8.59561606E-03 4.49911407E-03
14  1-0.00000000E+00-0.00000000E+00-0.00000000E+00 5.48825588E-02-0.00000000E+00
14  2-0.00000000E+00-0.00000000E+00-8.31638493E-02-0.00000000E+00-0.00000000E+00
14  3-0.00000000E+00 7.22511585E-03-0.00000000E+00-0.00000000E+00-0.00000000E+00
14  4-0.00000000E+00-4.62129789E-02-0.00000000E+00-8.93290173E-04-0.00000000E+00
14  5-0.00000000E+00-0.00000000E+00 5.48825588E-02-0.00000000E+00-0.00000000E+00
14  6-0.00000000E+00-8.31638493E-02-0.00000000E+00-0.00000000E+00-0.00000000E+00
14  7 7.22511585E-03-0.00000000E+00-0.00000000E+00-0.00000000E+00-0.00000000E+00
14  8 4.62129789E-02-0.00000000E+00-8.93290173E-04-1.56632128E-01 3.49138815E-01
14  9-0.00000000E+00 4.32605865E-02-1.16625989E-03 3.40281717E-01-0.00000000E+00
14 10 3.50941666E-02-2.07218772E-03 1.00679235E-02 1.56604782E-02-3.21398442E-04
14 11-0.00000000E+00-0.00000000E+00-6.58707681E-04 1.56632128E-01-3.49138815E-01
14 12-0.00000000E+00 4.32605865E-02 1.16625989E-03-3.40281717E-01-0.00000000E+00
14 13 3.50941666E-02 2.07218772E-03-1.00679235E-02-1.56604782E-02 3.21398442E-04
14 14-0.00000000E+00-0.00000000E+00-6.58707681E-04-0.00000000E+00-0.00000000E+00
14 15-0.00000000E+00-0.00000000E+00
15  1-3.74887486E-02 1.81601046E-01 8.69751315E-03-0.00000000E+00-1.52740676E-02
15  2-3.94633239E-01-2.20434201E-03-0.00000000E+00 3.46859733E-02-2.13421209E-02
15  3 2.79903516E-02-0.00000000E+00-2.00415796E-02 5.13426940E-03-1.52183680E-02
15  4 8.99691929E-03-0.00000000E+00-1.61055102E-02-0.00000000E+00 3.74887486E-02
15  5-1.81601046E-01 8.69751315E-03-0.00000000E+00 1.52740676E-02 3.94633239E-01
15  6-2.20434201E-03-0.00000000E+00-3.46859733E-02 2.13421209E-02 2.79903516E-02
15  7-0.00000000E+00 2.00415796E-02-5.13426940E-03 1.52183680E-02-8.99691929E-03
15  8-0.00000000E+00-1.61055102E-02-0.00000000E+00-0.00000000E+00-0.00000000E+00
15  9 2.61402545E-01-0.00000000E+00-0.00000000E+00-0.00000000E+00 1.73769700E-01
15 10-0.00000000E+00-0.00000000E+00-0.00000000E+00-0.00000000E+00-0.00000000E+00
15 11 2.37826022E-02-1.04868141E-03-0.00000000E+00-0.00000000E+00-0.00000000E+00
15 12 2.61402545E-01-0.00000000E+00-0.00000000E+00-0.00000000E+00 1.73769700E-01
15 13-0.00000000E+00-0.00000000E+00-0.00000000E+00-0.00000000E+00-0.00000000E+00
15 14-2.37826022E-02-1.04868141E-03-0.00000000E+00-9.30081384E-02-8.12155222E-02
15 15 9.30081384E-02 8.12155222E-02
16  1-2.47242272E-02 1.17190009E-01 3.80958913E-02-0.00000000E+00-2.06243878E-02
16  2-2.69213159E-01-8.95387505E-02-0.00000000E+00 4.90649131E-02-3.60399542E-03
16  3 1.74506788E-02-0.00000000E+00-7.45297991E-03-5.61281401E-02 3.47637900E-02
16  4 1.46980551E-03-0.00000000E+00-6.14588546E-03-0.00000000E+00-2.47242272E-02
16  5 1.17190009E-01-3.80958913E-02-0.00000000E+00-2.06243878E-02-2.69213159E-01
16  6 8.95387505E-02-0.00000000E+00 4.90649131E-02-3.60399542E-03-1.74506788E-02
16  7-0.00000000E+00-7.45297991E-03-5.61281401E-02 3.47637900E-02 1.46980551E-03
16  8-0.00000000E+00 6.14588546E-03-0.00000000E+00-6.76473280E-02 1.49895033E-01
16  9-0.00000000E+00-3.21570073E-01 3.57502935E-02 2.75315424E-01-0.00000000E+00
16 10-1.91836074E-01 2.52544530E-02 5.47083326E-03-2.28138406E-02 2.50425701E-03
16 11-0.00000000E+00-0.00000000E+00 4.07157664E-03-6.76473280E-02 1.49895033E-01
16 12-0.00000000E+00 3.21570073E-01 3.57502935E-02 2.75315424E-01-0.00000000E+00
16 13 1.91836074E-01 2.52544530E-02 5.47083326E-03-2.28138406E-02 2.50425701E-03
16 14-0.00000000E+00-0.00000000E+00-4.07157664E-03-6.78565888E-02-7.11484804E-02
16 15-6.78565888E-02-7.11484804E-02
17  1-8.96697586E-03 4.55011569E-02-6.40955897E-02 0.00000000E+00-7.92034165E-02
17  2-8.85721741E-02 1.65991113E-01 0.00000000E+00 1.94510881E-01-5.81545731E-02
17  3 1.16599698E-03 0.00000000E+00 2.58320243E-02 2.41999518E-02 9.98171886E-03
17  4-3.54995412E-02 0.00000000E+00 9.33080162E-03 0.00000000E+00-8.96697586E-03
17  5 4.55011569E-02 6.40955897E-02 0.00000000E+00-7.92034165E-02-8.85721741E-02
17  6-1.65991113E-01 0.00000000E+00 1.94510881E-01-5.81545731E-02-1.16599698E-03
17  7 0.00000000E+00 2.58320243E-02 2.41999518E-02 9.98171886E-03-3.54995412E-02
17  8 0.00000000E+00-9.33080162E-03 0.00000000E+00 6.28676069E-03-1.13738966E-02
17  9 0.00000000E+00 1.34598434E-01 2.64786618E-01-4.68991696E-02 0.00000000E+00
17 10 7.31790054E-02 1.86582794E-01-5.17945432E-03 8.84799791E-03-2.56697631E-03
17 11 0.00000000E+00 0.00000000E+00 1.73212669E-02 6.28676069E-03-1.13738966E-02
17 12 0.00000000E+00-1.34598434E-01 2.64786618E-01-4.68991696E-02 0.00000000E+00
17 13-7.31790054E-02 1.86582794E-01-5.17945432E-03 8.84799791E-03-2.56697631E-03
17 14 0.00000000E+00 0.00000000E+00-1.73212669E-02-1.29193617E-01-1.01240782E-01
17 15-1.29193617E-01-1.01240782E-01
18  1 0.00000000E+00 0.00000000E+00 0.00000000E+00 1.11570337E-01 0.00000000E+00
18  2 0.00000000E+00 0.00000000E+00-2.61884547E-01 0.00000000E+00 0.00000000E+00
18  3 0.00000000E+00-8.81350282E-03 0.00000000E+00 0.00000000E+00 0.00000000E+00
18  4 0.00000000E+00-7.64789612E-02 0.00000000E+00-4.06254547E-03 0.00000000E+00
18  5 0.00000000E+00 0.00000000E+00-1.11570337E-01 0.00000000E+00 0.00000000E+00
18  6 0.00000000E+00 2.61884547E-01 0.00000000E+00 0.00000000E+00 0.00000000E+00
18  7 8.81350282E-03 0.00000000E+00 0.00000000E+00 0.00000000E+00 0.00000000E+00
18  8-7.64789612E-02 0.00000000E+00 4.06254547E-03 0.00000000E+00 0.00000000E+00
18  9-3.78339988E-01 0.00000000E+00 0.00000000E+00 0.00000000E+00-2.35003111E-01
18 10 0.00000000E+00 0.00000000E+00 0.00000000E+00 0.00000000E+00 0.00000000E+00
18 11-1.90905274E-02 1.01821398E-03 0.00000000E+00 0.00000000E+00 0.00000000E+00
18 12 3.78339988E-01 0.00000000E+00 0.00000000E+00 0.00000000E+00 2.35003111E-01
18 13 0.00000000E+00 0.00000000E+00 0.00000000E+00 0.00000000E+00 0.00000000E+00
18 14-1.90905274E-02-1.01821398E-03 0.00000000E+00 0.00000000E+00 0.00000000E+00
18 15 0.00000000E+00 0.00000000E+00
19  1 1.76387781E-02-8.67493024E-02 7.39619686E-02 0.00000000E+00-1.24687644E-02
19  2 1.89387115E-01-1.90369276E-01 0.00000000E+00 2.60600489E-02 6.98625007E-02
19  3-3.44265933E-03 0.00000000E+00 3.88323184E-02-2.06900402E-02-1.45955874E-02
19  4 3.85249617E-02 0.00000000E+00 6.96291047E-02 0.00000000E+00 1.76387781E-02
19  5-8.67493024E-02-7.39619686E-02 0.00000000E+00-1.24687644E-02 1.89387115E-01
19  6 1.90369276E-01 0.00000000E+00 2.60600489E-02 6.98625007E-02 3.44265933E-03
19  7 0.00000000E+00 3.88323184E-02-2.06900402E-02-1.45955874E-02 3.85249617E-02
19  8 0.00000000E+00-6.96291047E-02 0.00000000E+00 6.68080377E-03-1.58613701E-02
19  9 0.00000000E+00-9.79050907E-02 2.80052196E-01-8.84342689E-03 0.00000000E+00
19 10-5.46000613E-02 2.14217743E-01 6.83084594E-03-5.98015472E-03-4.74705562E-04
19 11 0.00000000E+00 0.00000000E+00 1.74468395E-02 6.68080377E-03-1.58613701E-02
19 12 0.00000000E+00 9.79050907E-02 2.80052196E-01-8.84342689E-03 0.00000000E+00
19 13 5.46000613E-02 2.14217743E-01 6.83084594E-03-5.98015472E-03-4.74705562E-04
19 14 0.00000000E+00 0.00000000E+00-1.74468395E-02 1.31475547E-01 1.64076642E-01
19 15 1.31475547E-01 1.64076642E-01
20  1 3.50219153E-03-1.54595471E-02 8.76538955E-02-0.00000000E+00 6.92613460E-02
20  2 4.16969863E-02-2.26194411E-01-0.00000000E+00-1.82902939E-01-2.02191557E-02
20  3-2.52296783E-02-0.00000000E+00-8.60865047E-03 4.90303078E-03-5.90734042E-02
20  4 6.21003733E-02-0.00000000E+00 4.52856761E-02-0.00000000E+00-3.50219153E-03
20  5 1.54595471E-02 8.76538955E-02-0.00000000E+00-6.92613460E-02-4.16969863E-02
20  6-2.26194411E-01-0.00000000E+00 1.82902939E-01 2.02191557E-02-2.52296783E-02
20  7-0.00000000E+00 8.60865047E-03-4.90303078E-03 5.90734042E-02-6.21003733E-02
20  8-0.00000000E+00 4.52856761E-02-0.00000000E+00-0.00000000E+00-0.00000000E+00
20  9 2.33498845E-01-0.00000000E+00-0.00000000E+00-0.00000000E+00 1.66651120E-01
20 10-0.00000000E+00-0.00000000E+00-0.00000000E+00-0.00000000E+00-0.00000000E+00
20 11 1.32885639E-02 1.78600732E-03-0.00000000E+00-0.00000000E+00-0.00000000E+00
20 12 2.33498845E-01-0.00000000E+00-0.00000000E+00-0.00000000E+00 1.66651120E-01
20 13-0.00000000E+00-0.00000000E+00-0.00000000E+00-0.00000000E+00-0.00000000E+00
20 14-1.32885639E-02 1.78600732E-03-0.00000000E+00 1.92627955E-01 2.33140000E-01
20 15-1.92627955E-01-2.33140000E-01
21  1-0.00000000E+00-0.00000000E+00-0.00000000E+00 4.25921915E-04-0.00000000E+00
21  2-0.00000000E+00-0.00000000E+00-9.25266798E-04-0.00000000E+00-0.00000000E+00
21  3-0.00000000E+00 6.35698552E-03-0.00000000E+00-0.00000000E+00-0.00000000E+00
21  4-0.00000000E+00-3.09477042E-03-0.00000000E+00-5.52354038E-02-0.00000000E+00
21  5-0.00000000E+00-0.00000000E+00 4.25921915E-04-0.00000000E+00-0.00000000E+00
21  6-0.00000000E+00-9.25266798E-04-0.00000000E+00-0.00000000E+00-0.00000000E+00
21  7 6.35698552E-03-0.00000000E+00-0.00000000E+00-0.00000000E+00-0.00000000E+00
21  8 3.09477042E-03-0.00000000E+00-5.52354038E-02-3.11789583E-04 3.28605536E-03
21  9-0.00000000E+00 2.11879197E-02 4.38426621E-01-1.61440497E-03-0.00000000E+00
21 10 1.37740842E-02 3.62405929E-01 5.98721647E-04 2.91534945E-03-1.93991043E-03
21 11-0.00000000E+00-0.00000000E+00 2.51766084E-02 3.11789583E-04-3.28605536E-03
21 12-0.00000000E+00 2.11879197E-02-4.38426621E-01 1.61440497E-03-0.00000000E+00
21 13 1.37740842E-02-3.62405929E-01-5.98721647E-04-2.91534945E-03 1.93991043E-03
21 14-0.00000000E+00-0.00000000E+00 2.51766084E-02-0.00000000E+00-0.00000000E+00
21 15-0.00000000E+00-0.00000000E+00
22  1-0.00000000E+00-0.00000000E+00-0.00000000E+00 5.03724461E-02-0.00000000E+00
22  2-0.00000000E+00-0.00000000E+00-1.07674131E-01-0.00000000E+00-0.00000000E+00
22  3-0.00000000E+00 4.88408573E-02-0.00000000E+00-0.00000000E+00-0.00000000E+00