!  Formaldehyde 1A'' analytic frequency test...DZ+P basis
!  in core transformation and in core CPHF...42 AOs
!  This run duplicates Table 1 of Y.Osamura, Y.Yamaguchi, P.Saxe,
!  M.A.Vincent, J.F.Gaw, H.F.Schaefer Chem.Phys. 72, 131-139(1982).
!
!  Their F.NAL E= -113.80795
!  Their geom= R(CO)=1.360, R(CH)=1.079, aHCH=118.8, pl.bend=38.7
!  Their F.EQ= 928, 1078, 1239, 1544, 3275, 3403
!
!  GAMESS FINAL E= -113.8079532508, after 11 iterations
!  geom= R(CO)=1.3596902, R(CH)=1.0789193, pl.bend=38.6557197
!       FREQ= 928.37 1078.32 1239.79 1543.83 3274.97 3402.97
!  INTENSITY=0.45847 0.28332 1.19106 0.08441 0.20971 0.34099
!  mean POLARIZABILITY=1.71675
!
!  This run takes 2 seconds on a 2.66 GHz Cloverton (10 Sep 2013)
!
 $contrl scftyp=gvb mult=1 runtyp=hessian maxit=50 nzvar=6 $end
 $system mwords=1 timlim=5 $end
 $cphf   polar=.true. $end
 $scf    nco=7 nseto=2 no(1)=1,1 npair=0 $end
 $guess  guess=huckel $end
 $zmat   izmat(1)=1,1,2,  1,1,3,   1,1,4,
                  2,2,1,3,   2,2,1,4,  4,2,1,3,4  $end
 $data
S1 (1A'') formaldehyde ... n-->pi* excitation ... DZ+P basis
Cs
 
CARBON      6.0    .6704639108   -.0229062232    .0000000000
  S    6
    1   4232.61        0.002029
    2    634.882       0.015535
    3    146.097       0.075411
    4     42.4974      0.257121
    5     14.1892      0.596555
    6      1.9666      0.242517
  S    1
    1      5.1477      1.0
  S    1
    1      0.4962      1.0
  S    1
    1      0.1533      1.0
  P    4
    1     18.1557      0.018534
    2      3.9864      0.115442
    3      1.1429      0.386206
    4      0.3594      0.640089
  P    1
    1      0.1146      1.0
  D    1
    1      0.8         1.0
 
OXYGEN      8.0   -.6891517724   -.0086745307    .0000000000
  S    6
    1   7816.54      0.002031
    2   1175.82      0.015436
    3    273.188     0.073771
    4     81.1696    0.247606
    5     27.1836    0.611832
    6      3.4136    0.241205
  S    1
    1      9.5322    1.0
  S    1
    1      0.9398    1.0
  S    1
    1      0.2846    1.0
  P    4
    1     35.1832    0.019580
    2      7.9040    0.124189
    3      2.3051    0.394727
    4      0.7171    0.627375
  P    1
    1      0.2137    1.0
  D    1
    1      0.8         1.0
 
HYDROGEN    1.0   1.1028292066    .3155756448   -.9287395077
  DH   0   1.2       1.2
  P    1
    1      1.0       1.0
 
 $end

! TRAVIS-CI SMALL

! TRAVIS-CI SKIP
