!    cation O+ in an excited 2-P state arising from the s1,p4 configuration
!    Coupling constant information provided by Boris Plakhutin
!
!    FINAL E= -73.3040238107 by either GVB or MCSCF.
!
!    this takes 0 seconds on 2.66 GHz Cloverton (22 Feb 2014)
!
 $contrl icharg=1 mult=2 ispher=1 $end
 $system mwords=5 $end 
 $basis  gbasis=acct $end
 $guess  guess=huckel $end

!            these data are due to Boris' assistance:
!     a)  the target 2-P has as its parent state the 3-P of p**4,
!         which has Roothaan couplings App=15/16 and Bpp=18/16.
!     b)  for s1,pN, we always have Asp=1.0, and the Roothaan/Bagus
!         coupling K101 gives Bsp from -3*K101+1, or 0.0 for this case.
!     c)  Since there is no other electron, s**1 has Ass=Bss=0.0 always.
!     d)  Filled shell c's Acc=Bcc=Aco=Bco=1.0 for o=open s or open p, always.
!
!         The full Roothaan A,B matrices for 2-P from s1,p4 are thus
!                1                  1
!             A= 1 0             B= 1 0
!                1 1 15/16          1 0 18/16
!         and then ALPHA = +2*Fi*Fj*Aij
!                   BETA = -1*Fi*Fj*Bij generates the input below.
!
 $contrl scftyp=gvb $end
 $scf    nco=1 nseto=2 no(1)=1,3 couple=.true.
             f(1)=1.0,0.5,0.666666666666666
         alpha(1)= 2.0, 1.0, 0.0,
               1.333333333333333, 0.666666666666666, 0.833333333333333
          beta(1)=-1.0,-0.5, 0.0,
              -0.666666666666666, 0.0,              -0.5   $end

!   The order of states in MCSCF is 4-P, 2-D, 2-S, 2-P.
!   There are 3 + 5 + 1 + 3 = 12 determinants with Sz=0.5, for NSTATE,
!   but only nine roots will be found to have S=0.5, for WSTATE input.
!    STATE   1  ENERGY=  -73.8025200978  S=  1.50  SZ=  0.50  SPACE SYM=A
!    STATE   2  ENERGY=  -73.8025200978  S=  1.50  SZ=  0.50  SPACE SYM=A
!    STATE   3  ENERGY=  -73.8025200978  S=  1.50  SZ=  0.50  SPACE SYM=A
!    STATE   4  ENERGY=  -73.5464806955  S=  0.50  SZ=  0.50  SPACE SYM=A
!    STATE   5  ENERGY=  -73.5464806955  S=  0.50  SZ=  0.50  SPACE SYM=A
!    STATE   6  ENERGY=  -73.5464806955  S=  0.50  SZ=  0.50  SPACE SYM=A
!    STATE   7  ENERGY=  -73.5464806955  S=  0.50  SZ=  0.50  SPACE SYM=A
!    STATE   8  ENERGY=  -73.5464806955  S=  0.50  SZ=  0.50  SPACE SYM=A
!    STATE   9  ENERGY=  -73.4116697356  S=  0.50  SZ=  0.50  SPACE SYM=A
!    STATE  10  ENERGY=  -73.3040238107  S=  0.50  SZ=  0.50  SPACE SYM=A
!    STATE  11  ENERGY=  -73.3040238107  S=  0.50  SZ=  0.50  SPACE SYM=A
!    STATE  12  ENERGY=  -73.3040238107  S=  0.50  SZ=  0.50  SPACE SYM=A
x$contrl scftyp=mcscf $end
x$mcscf  cistep=ormas $end
x$det    group=c1 ncore=1 nact=4 nels=5 
x        nstate=12 sz=0.5 pures=.true. 
x        wstate(1)=0,0,0,0,0,  0,  1,1,1 $end
x$ormas  nspace=2 mstart(1)=2,3 mine(1)=1,4 maxe(1)=1,4 $end
!
!
 $data
oxygen cation
Dnh 2

O  8.0
 $end

! TRAVIS-CI SMALL

! TRAVIS-CI SKIP
