!   H2Ti(F)2TiH2...test file from Christine, not sure what year.
!   this has slow response equation convergence, more than 50 cycles on
!   the older convergence criteria, only 43 after that softened in 2012.
!
!   FINAL E=  -1898.2233630512, in just two iterations
!   FREQ=  980.98i & 842.27i
!   FREQ=  10.28, 0.17, 0.10, 1.22, 4.49, 6.09 (residuals)
!   FREQ=  118.96,  254.97,  280.09,  335.27, 378.03, 399.17, 410.87,
!   FREQ=  480.12,  483.55,  493.16,  648.54, 657.46, 
!   FREQ= 1690.33, 1703.20, 1769.75, 1791.05
!
!   This run takes 75 seconds on 2.66 GHz Cloverton ( 9 Apr 2015)
!   results unchanged since 2013.
!
 $CONTRL SCFTYP=GVB RUNTYP=hessian $END 
 $SYSTEM MWORDS=20 TIMLIM=1000 $END
 $BASIS  GBASIS=TZV npfunc=1 $END
 $SCF    nco=32 nseto=0 npair=1 $end
!  where is the energy of this open shell singlet?
--- $scf    nco=32 nseto=2 no(1)=1,1 $end
 $GUESS  guess=moread norb=156 $end
 $DATA
Ti2F2H4 singlet...bridging F atoms, apparently
Dnh 2

TI         22.0   0.0000000000   0.0000000000   1.6345580385
F           9.0   1.2043277768   0.0000000000   0.0000000000
H           1.0   0.0000000000   1.5374687716   2.4886591440
 $end
 $SCF    CICOEF( 1)=  0.70598144, -0.70823033 $END   
 $VEC
 1  1 1.18051161E-01 2.11958743E-01 2.95844287E-01 1.66690586E-01 1.53521475E-02
 1  2-3.03052221E-03 1.21651170E-03-1.35663543E-02 8.24988964E-03 1.20055354E-04
 1  3 0.00000000E+00 0.00000000E+00 3.85397905E-06 0.00000000E+00 0.00000000E+00
 1  4-3.99281893E-06 0.00000000E+00 0.00000000E+00 2.56236758E-06 0.00000000E+00
 1  5 0.00000000E+00-2.46622884E-06 0.00000000E+00 0.00000000E+00 1.42482143E-06
 1  6 0.00000000E+00 0.00000000E+00 2.07993794E-06 0.00000000E+00 0.00000000E+00
 1  7-3.04591610E-06 0.00000000E+00 0.00000000E+00-1.14097235E-04 3.39743222E-03
 1  8 3.39589550E-03 3.39761037E-03 0.00000000E+00 0.00000000E+00 0.00000000E+00
 1  9-1.79042826E-03-1.78175045E-03-1.78714276E-03 0.00000000E+00 0.00000000E+00
 1 10 0.00000000E+00-4.85309847E-05-2.26400460E-05-9.65356476E-05 0.00000000E+00
 1 11 0.00000000E+00 0.00000000E+00-1.18051161E-01-2.11958743E-01-2.95844287E-01
 1 12-1.66690586E-01-1.53521475E-02 3.03052221E-03-1.21651170E-03 1.35663543E-02
 1 13-8.24988964E-03-1.20055354E-04 0.00000000E+00 0.00000000E+00 3.85397905E-06
 1 14 0.00000000E+00 0.00000000E+00-3.99281893E-06 0.00000000E+00 0.00000000E+00
 1 15 2.56236758E-06 0.00000000E+00 0.00000000E+00-2.46622884E-06 0.00000000E+00
 1 16 0.00000000E+00 1.42482143E-06 0.00000000E+00 0.00000000E+00 2.07993794E-06
 1 17 0.00000000E+00 0.00000000E+00-3.04591610E-06 0.00000000E+00 0.00000000E+00
 1 18-1.14097235E-04-3.39743222E-03-3.39589550E-03-3.39761037E-03 0.00000000E+00
 1 19 0.00000000E+00 0.00000000E+00 1.79042826E-03 1.78175045E-03 1.78714276E-03
 1 20 0.00000000E+00 0.00000000E+00 0.00000000E+00 4.85309847E-05 2.26400460E-05
 1 21 9.65356476E-05 0.00000000E+00 0.00000000E+00 0.00000000E+00 0.00000000E+00
 1 22 0.00000000E+00 0.00000000E+00 0.00000000E+00 0.00000000E+00 0.00000000E+00
 1 23 0.00000000E+00-1.68579865E-06 0.00000000E+00 0.00000000E+00-3.59995859E-07
 1 24 0.00000000E+00 0.00000000E+00-1.48402994E-05 0.00000000E+00 0.00000000E+00
 1 25 0.00000000E+00 0.00000000E+00 0.00000000E+00 0.00000000E+00 0.00000000E+00
 1 26-1.68579865E-06 0.00000000E+00 0.00000000E+00-3.59995859E-07 0.00000000E+00
 1 27 0.00000000E+00-1.48402994E-05-3.29089912E-06 5.36765071E-06 1.69003957E-05
 1 28 0.00000000E+00 1.45766813E-06-1.36060405E-06 3.29089912E-06-5.36765071E-06
 1 29-1.69003957E-05 0.00000000E+00 1.45766813E-06-1.36060405E-06 3.29089912E-06
 1 30-5.36765071E-06-1.69003957E-05 0.00000000E+00-1.45766813E-06-1.36060405E-06
 1 31-3.29089912E-06 5.36765071E-06 1.69003957E-05 0.00000000E+00-1.45766813E-06
 1 32-1.36060405E-06
 2  1 1.18051171E-01 2.11958649E-01 2.95844681E-01 1.66691589E-01 1.53559564E-02
 2  2-3.02537087E-03 1.19473842E-03-1.35703475E-02 8.16629189E-03 9.39798590E-05
 2  3 0.00000000E+00 0.00000000E+00 3.80410969E-06 0.00000000E+00 0.00000000E+00
 2  4-3.76386788E-06 0.00000000E+00 0.00000000E+00 2.04710182E-06 0.00000000E+00
 2  5 0.00000000E+00-1.71419734E-06 0.00000000E+00 0.00000000E+00 1.40138586E-06
 2  6 0.00000000E+00 0.00000000E+00-9.33489921E-07 0.00000000E+00 0.00000000E+00
 2  7-8.69854904E-06 0.00000000E+00 0.00000000E+00 4.47812786E-06 3.43515152E-03
 2  8 3.43492464E-03 3.43473168E-03 0.00000000E+00 0.00000000E+00 0.00000000E+00
 2  9-1.74683802E-03-1.74412634E-03-1.74929197E-03 0.00000000E+00 0.00000000E+00
 2 10 0.00000000E+00-1.52380325E-05-2.09080666E-05-2.04049608E-05 0.00000000E+00
 2 11 0.00000000E+00 0.00000000E+00 1.18051171E-01 2.11958649E-01 2.95844681E-01
 2 12 1.66691589E-01 1.53559564E-02-3.02537087E-03 1.19473842E-03-1.35703475E-02
 2 13 8.16629189E-03 9.39798590E-05 0.00000000E+00 0.00000000E+00-3.80410969E-06
 2 14 0.00000000E+00 0.00000000E+00 3.76386788E-06 0.00000000E+00 0.00000000E+00
 2 15-2.04710182E-06 0.00000000E+00 0.00000000E+00 1.71419734E-06 0.00000000E+00
 2 16 0.00000000E+00-1.40138586E-06 0.00000000E+00 0.00000000E+00 9.33489920E-07
 2 17 0.00000000E+00 0.00000000E+00 8.69854904E-06 0.00000000E+00 0.00000000E+00
 2 18-4.47812786E-06 3.43515152E-03 3.43492464E-03 3.43473168E-03 0.00000000E+00
 2 19 0.00000000E+00 0.00000000E+00-1.74683802E-03-1.74412634E-03-1.74929197E-03
 2 20 0.00000000E+00 0.00000000E+00 0.00000000E+00-1.52380325E-05-2.09080666E-05
 2 21-2.04049608E-05 0.00000000E+00 0.00000000E+00 0.00000000E+00-7.97788642E-08
 2 22 1.95186743E-07-1.16958025E-06 4.32282967E-06 3.54109765E-07 8.83446571E-07
 2 23 0.00000000E+00 0.00000000E+00 8.70712449E-07 0.00000000E+00 0.00000000E+00
 2 24 6.94677673E-06 0.00000000E+00 0.00000000E+00-7.97788643E-08 1.95186743E-07
 2 25-1.16958025E-06 4.32282967E-06 3.54109765E-07-8.83446571E-07 0.00000000E+00
 2 26 0.00000000E+00-8.70712449E-07 0.00000000E+00 0.00000000E+00-6.94677673E-06
 2 27 0.00000000E+00 0.00000000E+00 2.30606872E-06-1.85321288E-06 2.21514435E-06
 2 28 0.00000000E+00-1.18456106E-06 4.66224790E-07 2.30606872E-06-1.85321288E-06
 2 29 2.21514435E-06 0.00000000E+00 1.18456106E-06-4.66224790E-07 2.30606872E-06
 2 30-1.85321288E-06 2.21514435E-06 0.00000000E+00-1.18456106E-06-4.66224790E-07
 2 31 2.30606872E-06-1.85321288E-06 2.21514435E-06 0.00000000E+00 1.18456106E-06
 2 32 4.66224790E-07
 3  1 0.00000000E+00 0.00000000E+00 0.00000000E+00 0.00000000E+00 0.00000000E+00
 3  2 0.00000000E+00 0.00000000E+00 0.00000000E+00 0.00000000E+00 0.00000000E+00
 3  3-1.43253326E-07 0.00000000E+00 0.00000000E+00 1.07717427E-05 0.00000000E+00
 3  4 0.00000000E+00-2.28908315E-05 0.00000000E+00 0.00000000E+00 4.43621616E-05
 3  5 0.00000000E+00 0.00000000E+00-5.98021486E-05 0.00000000E+00 0.00000000E+00
 3  6 6.40171746E-05 0.00000000E+00 0.00000000E+00-3.43692268E-04 0.00000000E+00
 3  7 0.00000000E+00 2.93254155E-05 0.00000000E+00 0.00000000E+00 0.00000000E+00
 3  8 0.00000000E+00 0.00000000E+00 0.00000000E+00 2.29834563E-06 0.00000000E+00
 3  9 0.00000000E+00 0.00000000E+00 0.00000000E+00 0.00000000E+00-1.95401682E-04
 3 10 0.00000000E+00 0.00000000E+00 0.00000000E+00 0.00000000E+00 0.00000000E+00
 3 11-1.20652608E-04 0.00000000E+00 0.00000000E+00 0.00000000E+00 0.00000000E+00
 3 12 0.00000000E+00 0.00000000E+00 0.00000000E+00 0.00000000E+00 0.00000000E+00
 3 13 0.00000000E+00 0.00000000E+00-1.43253326E-07 0.00000000E+00 0.00000000E+00
 3 14 1.07717427E-05 0.00000000E+00 0.00000000E+00-2.28908315E-05 0.00000000E+00
 3 15 0.00000000E+00 4.43621616E-05 0.00000000E+00 0.00000000E+00-5.98021486E-05
 3 16 0.00000000E+00 0.00000000E+00 6.40171746E-05 0.00000000E+00 0.00000000E+00
 3 17-3.43692268E-04 0.00000000E+00 0.00000000E+00 2.93254155E-05 0.00000000E+00
 3 18 0.00000000E+00 0.00000000E+00 0.00000000E+00 0.00000000E+00 0.00000000E+00
 3 19-2.29834563E-06 0.00000000E+00 0.00000000E+00 0.00000000E+00 0.00000000E+00
 3 20 0.00000000E+00 1.95401682E-04 0.00000000E+00 0.00000000E+00 0.00000000E+00
 3 21 0.00000000E+00 0.00000000E+00 1.20652608E-04 0.00000000E+00-3.80122130E-01
 3 22-3.45684310E-01-4.05647159E-02 5.45513412E-03-2.54097611E-03-4.92935370E-04
 3 23 0.00000000E+00 0.00000000E+00 3.58367976E-04 0.00000000E+00 0.00000000E+00
 3 24-4.75623923E-04 0.00000000E+00 0.00000000E+00 3.80122130E-01 3.45684310E-01
 3 25 4.05647159E-02-5.45513412E-03 2.54097611E-03-4.92935370E-04 0.00000000E+00
 3 26 0.00000000E+00 3.58367976E-04 0.00000000E+00 0.00000000E+00-4.75623923E-04
 3 27 0.00000000E+00 0.00000000E+00 0.00000000E+00 0.00000000E+00 0.00000000E+00
 3 28 1.26803624E-06 0.00000000E+00 0.00000000E+00 0.00000000E+00 0.00000000E+00
 3 29 0.00000000E+00 1.26803624E-06 0.00000000E+00 0.00000000E+00 0.00000000E+00
 3 30 0.00000000E+00 0.00000000E+00 1.26803624E-06 0.00000000E+00 0.00000000E+00
 3 31 0.00000000E+00 0.00000000E+00 0.00000000E+00 1.26803624E-06 0.00000000E+00
 3 32 0.00000000E+00
 4  1-3.81005988E-07 2.49631938E-06-1.23034885E-05-2.65166510E-05-1.16139269E-04
 4  2-1.15411133E-04 4.01211974E-04 2.16192642E-03 2.57489420E-04-6.23842760E-04
 4  3 0.00000000E+00 0.00000000E+00 3.89657362E-07 0.00000000E+00 0.00000000E+00
 4  4 1.04261630E-05 0.00000000E+00 0.00000000E+00-1.95612755E-05 0.00000000E+00
 4  5 0.00000000E+00 3.62501690E-05 0.00000000E+00 0.00000000E+00-5.45771078E-05
 4  6 0.00000000E+00 0.00000000E+00 1.84960495E-04 0.00000000E+00 0.00000000E+00
 4  7-9.35800618E-04 0.00000000E+00 0.00000000E+00-1.03944097E-04-1.07309182E-03
 4  8-1.11727863E-03-1.04713987E-03 0.00000000E+00 0.00000000E+00 0.00000000E+00
 4  9-1.51506283E-04 1.42114085E-04-4.40754602E-04 0.00000000E+00 0.00000000E+00
 4 10 0.00000000E+00 1.48890871E-04 2.79084330E-04-1.18993528E-04 0.00000000E+00
 4 11 0.00000000E+00 0.00000000E+00-3.81005988E-07 2.49631938E-06-1.23034885E-05
 4 12-2.65166510E-05-1.16139269E-04-1.15411133E-04 4.01211974E-04 2.16192642E-03
 4 13 2.57489420E-04-6.23842760E-04 0.00000000E+00 0.00000000E+00-3.89657362E-07
 4 14 0.00000000E+00 0.00000000E+00-1.04261630E-05 0.00000000E+00 0.00000000E+00
 4 15 1.95612755E-05 0.00000000E+00 0.00000000E+00-3.62501690E-05 0.00000000E+00
 4 16 0.00000000E+00 5.45771078E-05 0.00000000E+00 0.00000000E+00-1.84960495E-04
 4 17 0.00000000E+00 0.00000000E+00 9.35800618E-04 0.00000000E+00 0.00000000E+00
 4 18 1.03944097E-04-1.07309182E-03-1.11727863E-03-1.04713987E-03 0.00000000E+00
 4 19 0.00000000E+00 0.00000000E+00-1.51506283E-04 1.42114085E-04-4.40754602E-04
 4 20 0.00000000E+00 0.00000000E+00 0.00000000E+00 1.48890871E-04 2.79084330E-04
 4 21-1.18993528E-04 0.00000000E+00 0.00000000E+00 0.00000000E+00 3.80128840E-01
 4 22 3.45656237E-01 4.06898472E-02-5.78066154E-03 3.20895031E-03 4.81442140E-04
 4 23 0.00000000E+00 0.00000000E+00-3.20341392E-04 0.00000000E+00 0.00000000E+00
 4 24 7.15950130E-04 0.00000000E+00 0.00000000E+00 3.80128840E-01 3.45656237E-01
 4 25 4.06898472E-02-5.78066154E-03 3.20895031E-03-4.81442140E-04 0.00000000E+00
 4 26 0.00000000E+00 3.20341392E-04 0.00000000E+00 0.00000000E+00-7.15950130E-04
 4 27 0.00000000E+00 0.00000000E+00 5.16303212E-06-9.15495990E-05-1.07267366E-04
 4 28 0.00000000E+00-3.40718497E-05 2.16583225E-05 5.16303212E-06-9.15495990E-05
 4 29-1.07267366E-04 0.00000000E+00 3.40718497E-05-2.16583225E-05 5.16303212E-06
 4 30-9.15495990E-05-1.07267366E-04 0.00000000E+00-3.40718497E-05-2.16583225E-05
 4 31 5.16303212E-06-9.15495990E-05-1.07267366E-04 0.00000000E+00 3.40718497E-05
 4 32 2.16583225E-05
 5  1-3.65193080E-02-7.76495216E-02-1.45757825E-01-9.98016046E-02 3.70232649E-01
 5  2 4.34280142E-01 3.07243083E-02-2.36184131E-01 9.69983185E-02-6.09516643E-03
 5  3 0.00000000E+00 0.00000000E+00-9.33482851E-05 0.00000000E+00 0.00000000E+00
 5  4-1.15616298E-04 0.00000000E+00 0.00000000E+00-1.37402841E-04 0.00000000E+00
 5  5 0.00000000E+00-3.16770157E-05 0.00000000E+00 0.00000000E+00 8.31649788E-05
 5  6 0.00000000E+00 0.00000000E+00-2.08846654E-04 0.00000000E+00 0.00000000E+00
 5  7 3.56215556E-04 0.00000000E+00 0.00000000E+00 2.20384903E-03 7.63989851E-02
 5  8 7.68808839E-02 7.64693418E-02 0.00000000E+00 0.00000000E+00 0.00000000E+00
 5  9-1.61494158E-02-1.66193257E-02-1.61465354E-02 0.00000000E+00 0.00000000E+00
 5 10 0.00000000E+00 1.11914781E-03 6.71164378E-04 2.11226619E-03 0.00000000E+00
 5 11 0.00000000E+00 0.00000000E+00 3.65193080E-02 7.76495216E-02 1.45757825E-01
 5 12 9.98016046E-02-3.70232649E-01-4.34280142E-01-3.07243083E-02 2.36184131E-01
 5 13-9.69983185E-02 6.09516643E-03 0.00000000E+00 0.00000000E+00-9.33482851E-05
 5 14 0.00000000E+00 0.00000000E+00-1.15616298E-04 0.00000000E+00 0.00000000E+00
 5 15-1.37402841E-04 0.00000000E+00 0.00000000E+00-3.16770157E-05 0.00000000E+00
 5 16 0.00000000E+00 8.31649788E-05 0.00000000E+00 0.00000000E+00-2.08846654E-04
 5 17 0.00000000E+00 0.00000000E+00 3.56215556E-04 0.00000000E+00 0.00000000E+00
 5 18 2.20384903E-03-7.63989851E-02-7.68808839E-02-7.64693418E-02 0.00000000E+00
 5 19 0.00000000E+00 0.00000000E+00 1.61494158E-02 1.66193257E-02 1.61465354E-02
 5 20 0.00000000E+00 0.00000000E+00 0.00000000E+00-1.11914781E-03-6.71164378E-04
 5 21-2.11226619E-03 0.00000000E+00 0.00000000E+00 0.00000000E+00 0.00000000E+00
 5 22 0.00000000E+00 0.00000000E+00 0.00000000E+00 0.00000000E+00 0.00000000E+00
 5 23 0.00000000E+00 4.80101322E-05 0.00000000E+00 0.00000000E+00 1.46063325E-05
 5 24 0.00000000E+00 0.00000000E+00 4.10150710E-04 0.00000000E+00 0.00000000E+00
 5 25 0.00000000E+00 0.00000000E+00 0.00000000E+00 0.00000000E+00 0.00000000E+00
 5 26 4.80101322E-05 0.00000000E+00 0.00000000E+00 1.46063325E-05 0.00000000E+00
 5 27 0.00000000E+00 4.10150710E-04 6.59610810E-05-1.80829296E-04-2.61905318E-04
 5 28 0.00000000E+00-5.09338952E-05 4.63350952E-05-6.59610810E-05 1.80829296E-04
 5 29 2.61905318E-04 0.00000000E+00-5.09338952E-05 4.63350952E-05-6.59610810E-05
 5 30 1.80829296E-04 2.61905318E-04 0.00000000E+00 5.09338952E-05 4.63350952E-05
 5 31 6.59610810E-05-1.80829296E-04-2.61905318E-04 0.00000000E+00 5.09338952E-05
 5 32 4.63350952E-05
 6  1-3.65194275E-02-7.76478880E-02-1.45764512E-01-9.98226625E-02 3.70161173E-01
 6  2 4.34169872E-01 3.11904762E-02-2.36210263E-01 9.88167435E-02-5.64879369E-03
 6  3 0.00000000E+00 0.00000000E+00-9.41530432E-05 0.00000000E+00 0.00000000E+00
 6  4-1.12070855E-04 0.00000000E+00 0.00000000E+00-1.49597128E-04 0.00000000E+00
 6  5 0.00000000E+00 5.76693843E-07 0.00000000E+00 0.00000000E+00 9.36253832E-06
 6  6 0.00000000E+00 0.00000000E+00-7.65086524E-05 0.00000000E+00 0.00000000E+00
 6  7 4.59006323E-04 0.00000000E+00 0.00000000E+00-2.31604003E-04 7.56686514E-02
 6  8 7.61189477E-02 7.57299512E-02 0.00000000E+00 0.00000000E+00 0.00000000E+00
 6  9-1.70189737E-02-1.73625094E-02-1.68724267E-02 0.00000000E+00 0.00000000E+00
 6 10 0.00000000E+00 4.49971892E-04 7.16780699E-04 5.73085473E-04 0.00000000E+00
 6 11 0.00000000E+00 0.00000000E+00-3.65194275E-02-7.76478880E-02-1.45764512E-01
 6 12-9.98226625E-02 3.70161173E-01 4.34169872E-01 3.11904762E-02-2.36210263E-01
 6 13 9.88167435E-02-5.64879369E-03 0.00000000E+00 0.00000000E+00 9.41530432E-05
 6 14 0.00000000E+00 0.00000000E+00 1.12070855E-04 0.00000000E+00 0.00000000E+00
 6 15 1.49597128E-04 0.00000000E+00 0.00000000E+00-5.76693844E-07 0.00000000E+00
 6 16 0.00000000E+00-9.36253832E-06 0.00000000E+00 0.00000000E+00 7.65086524E-05
 6 17 0.00000000E+00 0.00000000E+00-4.59006323E-04 0.00000000E+00 0.00000000E+00
 6 18 2.31604003E-04 7.56686514E-02 7.61189477E-02 7.57299512E-02 0.00000000E+00
 6 19 0.00000000E+00 0.00000000E+00-1.70189737E-02-1.73625094E-02-1.68724267E-02
 6 20 0.00000000E+00 0.00000000E+00 0.00000000E+00 4.49971892E-04 7.16780699E-04
 6 21 5.73085473E-04 0.00000000E+00 0.00000000E+00 0.00000000E+00-1.15608887E-06
 6 22 2.02963632E-05-4.22293531E-05 6.22337090E-05-2.51979566E-04-3.52926706E-05
 6 23 0.00000000E+00 0.00000000E+00-2.68813779E-05 0.00000000E+00 0.00000000E+00
 6 24-2.67709532E-04 0.00000000E+00 0.00000000E+00-1.15608887E-06 2.02963632E-05
 6 25-4.22293531E-05 6.22337090E-05-2.51979566E-04 3.52926706E-05 0.00000000E+00
 6 26 0.00000000E+00 2.68813779E-05 0.00000000E+00 0.00000000E+00 2.67709532E-04
 6 27 0.00000000E+00 0.00000000E+00-5.07185968E-05 1.18122134E-04-1.75503043E-04
 6 28 0.00000000E+00 4.51536684E-05-3.04956466E-05-5.07185968E-05 1.18122134E-04
 6 29-1.75503043E-04 0.00000000E+00-4.51536684E-05 3.04956466E-05-5.07185968E-05
 6 30 1.18122134E-04-1.75503043E-04 0.00000000E+00 4.51536684E-05 3.04956466E-05
 6 31-5.07185968E-05 1.18122134E-04-1.75503043E-04 0.00000000E+00-4.51536684E-05
 6 32-3.04956466E-05
 7  1 0.00000000E+00 0.00000000E+00 0.00000000E+00 0.00000000E+00 0.00000000E+00
 7  2 0.00000000E+00 0.00000000E+00 0.00000000E+00 0.00000000E+00 0.00000000E+00
 7  3 0.00000000E+00-2.22566198E-01 0.00000000E+00 0.00000000E+00-3.01530739E-01
 7  4 0.00000000E+00 0.00000000E+00-2.52655585E-01 0.00000000E+00 0.00000000E+00
 7  5-5.19063768E-02 0.00000000E+00 0.00000000E+00 3.42456568E-03 0.00000000E+00
 7  6 0.00000000E+00-2.10851056E-03 0.00000000E+00 0.00000000E+00 9.91429466E-04
 7  7 0.00000000E+00 0.00000000E+00-4.73437575E-04 0.00000000E+00 0.00000000E+00
 7  8 0.00000000E+00 0.00000000E+00 0.00000000E+00 0.00000000E+00 3.99734589E-05
 7  9 0.00000000E+00 0.00000000E+00 0.00000000E+00 0.00000000E+00 0.00000000E+00
 7 10 1.30008370E-05 0.00000000E+00 0.00000000E+00 0.00000000E+00 0.00000000E+00
 7 11 0.00000000E+00-4.75617114E-05 0.00000000E+00 0.00000000E+00 0.00000000E+00
 7 12 0.00000000E+00 0.00000000E+00 0.00000000E+00 0.00000000E+00 0.00000000E+00
 7 13 0.00000000E+00 0.00000000E+00 0.00000000E+00 2.22566198E-01 0.00000000E+00
 7 14 0.00000000E+00 3.01530739E-01 0.00000000E+00 0.00000000E+00 2.52655585E-01
 7 15 0.00000000E+00 0.00000000E+00 5.19063768E-02 0.00000000E+00 0.00000000E+00
 7 16-3.42456568E-03 0.00000000E+00 0.00000000E+00 2.10851056E-03 0.00000000E+00
 7 17 0.00000000E+00-9.91429466E-04 0.00000000E+00 0.00000000E+00 4.73437575E-04
 7 18 0.00000000E+00 0.00000000E+00 0.00000000E+00 0.00000000E+00 0.00000000E+00
 7 19 0.00000000E+00 3.99734589E-05 0.00000000E+00 0.00000000E+00 0.00000000E+00
 7 20 0.00000000E+00 0.00000000E+00 1.30008370E-05 0.00000000E+00 0.00000000E+00
 7 21 0.00000000E+00 0.00000000E+00 0.00000000E+00-4.75617114E-05 0.00000000E+00
 7 22 0.00000000E+00 0.00000000E+00 0.00000000E+00 0.00000000E+00 0.00000000E+00
 7 23 0.00000000E+00 0.00000000E+00 0.00000000E+00 0.00000000E+00 0.00000000E+00
 7 24 0.00000000E+00 0.00000000E+00 0.00000000E+00 0.00000000E+00 0.00000000E+00
 7 25 0.00000000E+00 0.00000000E+00 0.00000000E+00 0.00000000E+00 0.00000000E+00
 7 26 0.00000000E+00 0.00000000E+00 0.00000000E+00 0.00000000E+00 0.00000000E+00
 7 27 0.00000000E+00 0.00000000E+00-2.82442019E-06-9.43479086E-05 1.07883399E-04
 7 28 0.00000000E+00 3.90198813E-05-2.79354959E-05-2.82442019E-06-9.43479086E-05
 7 29 1.07883399E-04 0.00000000E+00-3.90198813E-05 2.79354959E-05 2.82442019E-06
 7 30 9.43479086E-05-1.07883399E-04 0.00000000E+00-3.90198813E-05-2.79354959E-05
 7 31 2.82442019E-06 9.43479086E-05-1.07883399E-04 0.00000000E+00 3.90198813E-05
 7 32 2.79354959E-05
 8  1 0.00000000E+00 0.00000000E+00 0.00000000E+00 0.00000000E+00 0.00000000E+00
 8  2 0.00000000E+00 0.00000000E+00 0.00000000E+00 0.00000000E+00 0.00000000E+00
 8  3 0.00000000E+00 2.22566516E-01 0.00000000E+00 0.00000000E+00 3.01529029E-01
 8  4 0.00000000E+00 0.00000000E+00 2.52661010E-01 0.00000000E+00 0.00000000E+00
 8  5 5.18932826E-02 0.00000000E+00 0.00000000E+00-3.39861342E-03 0.00000000E+00
 8  6 0.00000000E+00 2.06048281E-03 0.00000000E+00 0.00000000E+00-9.18859524E-04
 8  7 0.00000000E+00 0.00000000E+00 1.57310038E-04 0.00000000E+00 0.00000000E+00
 8  8 0.00000000E+00 0.00000000E+00 0.00000000E+00 0.00000000E+00-4.24209249E-05
 8  9 0.00000000E+00 0.00000000E+00 0.00000000E+00 0.00000000E+00 0.00000000E+00
 8 10-1.10565033E-05 0.00000000E+00 0.00000000E+00 0.00000000E+00 0.00000000E+00
 8 11 0.00000000E+00 4.56663722E-05 0.00000000E+00 0.00000000E+00 0.00000000E+00
 8 12 0.00000000E+00 0.00000000E+00 0.00000000E+00 0.00000000E+00 0.00000000E+00
 8 13 0.00000000E+00 0.00000000E+00 0.00000000E+00 2.22566516E-01 0.00000000E+00
 8 14 0.00000000E+00 3.01529029E-01 0.00000000E+00 0.00000000E+00 2.52661010E-01
 8 15 0.00000000E+00 0.00000000E+00 5.18932826E-02 0.00000000E+00 0.00000000E+00
 8 16-3.39861342E-03 0.00000000E+00 0.00000000E+00 2.06048281E-03 0.00000000E+00
 8 17 0.00000000E+00-9.18859524E-04 0.00000000E+00 0.00000000E+00 1.57310038E-04
 8 18 0.00000000E+00 0.00000000E+00 0.00000000E+00 0.00000000E+00 0.00000000E+00
 8 19 0.00000000E+00 4.24209249E-05 0.00000000E+00 0.00000000E+00 0.00000000E+00
 8 20 0.00000000E+00 0.00000000E+00 1.10565033E-05 0.00000000E+00 0.00000000E+00
 8 21 0.00000000E+00 0.00000000E+00 0.00000000E+00-4.56663722E-05 0.00000000E+00
 8 22 0.00000000E+00 0.00000000E+00 0.00000000E+00 0.00000000E+00 0.00000000E+00
 8 23 1.33384663E-05 0.00000000E+00 0.00000000E+00-6.77898353E-06 0.00000000E+00
 8 24 0.00000000E+00 5.78813772E-05 0.00000000E+00 0.00000000E+00 0.00000000E+00
 8 25 0.00000000E+00 0.00000000E+00 0.00000000E+00 0.00000000E+00 1.33384663E-05
 8 26 0.00000000E+00 0.00000000E+00-6.77898353E-06 0.00000000E+00 0.00000000E+00
 8 27 5.78813772E-05 0.00000000E+00-7.33579190E-06-6.56901319E-05-5.65783707E-05
 8 28 0.00000000E+00 3.89345608E-05-2.51166367E-05 7.33579190E-06 6.56901319E-05
 8 29 5.65783707E-05 0.00000000E+00 3.89345608E-05-2.51166367E-05-7.33579190E-06
 8 30-6.56901319E-05-5.65783707E-05 0.00000000E+00 3.89345608E-05 2.51166367E-05
 8 31 7.33579190E-06 6.56901319E-05 5.65783707E-05 0.00000000E+00 3.89345608E-05
 8 32 2.51166367E-05
 9  1-1.50690601E-05-3.21469514E-05-5.95349326E-05-3.49114841E-05 1.75856690E-04
 9  2 1.58642823E-04 2.42204426E-06-1.63421690E-04-2.81789765E-05-8.54004484E-04
 9  3 0.00000000E+00 0.00000000E+00 2.22609788E-01 0.00000000E+00 0.00000000E+00
 9  4 3.01603237E-01 0.00000000E+00 0.00000000E+00 2.52378643E-01 0.00000000E+00
 9  5 0.00000000E+00 5.20548070E-02 0.00000000E+00 0.00000000E+00-3.26407420E-03
 9  6 0.00000000E+00 0.00000000E+00 2.27769655E-03 0.00000000E+00 0.00000000E+00
 9  7-1.40058033E-03 0.00000000E+00 0.00000000E+00 8.38012791E-05 2.11301287E-04
 9  8 2.02614944E-04 1.91889807E-04 0.00000000E+00 0.00000000E+00 0.00000000E+00
 9  9 1.91952202E-04 2.44649247E-04 1.03241849E-04 0.00000000E+00 0.00000000E+00
 9 10 0.00000000E+00 7.89232015E-05 3.82686163E-04-2.73848522E-05 0.00000000E+00
 9 11 0.00000000E+00 0.00000000E+00 1.50690601E-05 3.21469514E-05 5.95349326E-05
 9 12 3.49114841E-05-1.75856690E-04-1.58642823E-04-2.42204425E-06 1.63421690E-04
 9 13 2.81789765E-05 8.54004484E-04 0.00000000E+00 0.00000000E+00 2.22609788E-01
 9 14 0.00000000E+00 0.00000000E+00 3.01603237E-01 0.00000000E+00 0.00000000E+00
 9 15 2.52378643E-01 0.00000000E+00 0.00000000E+00 5.20548070E-02 0.00000000E+00
 9 16 0.00000000E+00-3.26407420E-03 0.00000000E+00 0.00000000E+00 2.27769655E-03
 9 17 0.00000000E+00 0.00000000E+00-1.40058033E-03 0.00000000E+00 0.00000000E+00
 9 18 8.38012791E-05-2.11301287E-04-2.02614944E-04-1.91889807E-04 0.00000000E+00
 9 19 0.00000000E+00 0.00000000E+00-1.91952202E-04-2.44649247E-04-1.03241849E-04
 9 20 0.00000000E+00 0.00000000E+00 0.00000000E+00-7.89232015E-05-3.82686163E-04
 9 21 2.73848522E-05 0.00000000E+00 0.00000000E+00 0.00000000E+00 0.00000000E+00
 9 22 0.00000000E+00 0.00000000E+00 0.00000000E+00 0.00000000E+00 0.00000000E+00
 9 23 0.00000000E+00-4.63295153E-05 0.00000000E+00 0.00000000E+00 7.64585484E-05
 9 24 0.00000000E+00 0.00000000E+00-2.51219098E-04 0.00000000E+00 0.00000000E+00
 9 25 0.00000000E+00 0.00000000E+00 0.00000000E+00 0.00000000E+00 0.00000000E+00
 9 26-4.63295153E-05 0.00000000E+00 0.00000000E+00 7.64585484E-05 0.00000000E+00
 9 27 0.00000000E+00-2.51219098E-04 6.54170350E-06 5.84387162E-05 1.71036872E-04
 9 28 0.00000000E+00-7.63587667E-06 3.95620878E-06-6.54170350E-06-5.84387162E-05
 9 29-1.71036872E-04 0.00000000E+00-7.63587667E-06 3.95620878E-06-6.54170350E-06
 9 30-5.84387162E-05-1.71036872E-04 0.00000000E+00 7.63587667E-06 3.95620878E-06
 9 31 6.54170350E-06 5.84387162E-05 1.71036872E-04 0.00000000E+00 7.63587667E-06
 9 32 3.95620878E-06
10  1 1.50648038E-05 3.17395280E-05 6.08183679E-05 3.91013842E-05-1.60315040E-04
10  2-1.36150874E-04-8.44069186E-05-1.41720377E-05 1.29935950E-04 4.50012813E-04
10  3 0.00000000E+00 0.00000000E+00-2.22610236E-01 0.00000000E+00 0.00000000E+00
10  4-3.01600226E-01 0.00000000E+00 0.00000000E+00-2.52387997E-01 0.00000000E+00
10  5 0.00000000E+00-5.20297473E-02 0.00000000E+00 0.00000000E+00 3.19726946E-03
10  6 0.00000000E+00 0.00000000E+00-2.07148950E-03 0.00000000E+00 0.00000000E+00
10  7 1.01289309E-03 0.00000000E+00 0.00000000E+00-4.45699644E-04-4.23625307E-05
10  8-7.37705065E-05-2.81698973E-05 0.00000000E+00 0.00000000E+00 0.00000000E+00
10  9-9.52580788E-05-5.87531947E-05-1.18424976E-04 0.00000000E+00 0.00000000E+00
10 10 0.00000000E+00-5.20399744E-05 7.62226528E-05-1.13249053E-04 0.00000000E+00
10 11 0.00000000E+00 0.00000000E+00 1.50648038E-05 3.17395280E-05 6.08183679E-05
10 12 3.91013842E-05-1.60315040E-04-1.36150874E-04-8.44069186E-05-1.41720377E-05
10 13 1.29935950E-04 4.50012813E-04 0.00000000E+00 0.00000000E+00 2.22610236E-01
10 14 0.00000000E+00 0.00000000E+00 3.01600226E-01 0.00000000E+00 0.00000000E+00
10 15 2.52387997E-01 0.00000000E+00 0.00000000E+00 5.20297473E-02 0.00000000E+00
10 16 0.00000000E+00-3.19726946E-03 0.00000000E+00 0.00000000E+00 2.07148950E-03
10 17 0.00000000E+00 0.00000000E+00-1.01289309E-03 0.00000000E+00 0.00000000E+00
10 18 4.45699644E-04-4.23625307E-05-7.37705065E-05-2.81698974E-05 0.00000000E+00
10 19 0.00000000E+00 0.00000000E+00-9.52580788E-05-5.87531947E-05-1.18424976E-04
10 20 0.00000000E+00 0.00000000E+00 0.00000000E+00-5.20399744E-05 7.62226528E-05
10 21-1.13249053E-04 0.00000000E+00 0.00000000E+00 0.00000000E+00 2.27333363E-06
10 22-1.80440600E-06 3.08329059E-05-1.16880636E-04 6.27778083E-05-4.11581498E-05
10 23 0.00000000E+00 0.00000000E+00 9.23063549E-05 0.00000000E+00 0.00000000E+00
10 24-1.09800479E-04 0.00000000E+00 0.00000000E+00 2.27333363E-06-1.80440600E-06
10 25 3.08329059E-05-1.16880636E-04 6.27778083E-05 4.11581498E-05 0.00000000E+00
10 26 0.00000000E+00-9.23063549E-05 0.00000000E+00 0.00000000E+00 1.09800479E-04
10 27 0.00000000E+00 0.00000000E+00 7.01437113E-06 2.74355375E-05-1.28370529E-04
10 28 0.00000000E+00-2.11632832E-05 1.93701775E-05 7.01437113E-06 2.74355375E-05
10 29-1.28370529E-04 0.00000000E+00 2.11632832E-05-1.93701775E-05 7.01437113E-06
10 30 2.74355375E-05-1.28370529E-04 0.00000000E+00-2.11632832E-05-1.93701775E-05
10 31 7.01437113E-06 2.74355375E-05-1.28370529E-04 0.00000000E+00 2.11632832E-05
10 32 1.93701775E-05
11  1 0.00000000E+00 0.00000000E+00 0.00000000E+00 0.00000000E+00 0.00000000E+00
11  2 0.00000000E+00 0.00000000E+00 0.00000000E+00 0.00000000E+00 0.00000000E+00
11  3 2.22586184E-01 0.00000000E+00 0.00000000E+00 3.01563115E-01 0.00000000E+00
11  4 0.00000000E+00 2.52438864E-01 0.00000000E+00 0.00000000E+00 5.20159281E-02
11  5 0.00000000E+00 0.00000000E+00-3.12320939E-03 0.00000000E+00 0.00000000E+00
11  6 2.04344980E-03 0.00000000E+00 0.00000000E+00-9.99925053E-04 0.00000000E+00
11  7 0.00000000E+00 3.30119324E-04 0.00000000E+00 0.00000000E+00 0.00000000E+00
11  8 0.00000000E+00 0.00000000E+00 0.00000000E+00-1.87976958E-05 0.00000000E+00
11  9 0.00000000E+00 0.00000000E+00 0.00000000E+00 0.00000000E+00-2.78133871E-05
11 10 0.00000000E+00 0.00000000E+00 0.00000000E+00 0.00000000E+00 0.00000000E+00
11 11 1.14970504E-05 0.00000000E+00 0.00000000E+00 0.00000000E+00 0.00000000E+00
11 12 0.00000000E+00 0.00000000E+00 0.00000000E+00 0.00000000E+00 0.00000000E+00
11 13 0.00000000E+00 0.00000000E+00-2.22586183E-01 0.00000000E+00 0.00000000E+00
11 14-3.01563114E-01 0.00000000E+00 0.00000000E+00-2.52438863E-01 0.00000000E+00
11 15 0.00000000E+00-5.20159278E-02 0.00000000E+00 0.00000000E+00 3.12320938E-03
11 16 0.00000000E+00 0.00000000E+00-2.04344979E-03 0.00000000E+00 0.00000000E+00
11 17 9.99925049E-04 0.00000000E+00 0.00000000E+00-3.30119323E-04 0.00000000E+00
11 18 0.00000000E+00 0.00000000E+00 0.00000000E+00 0.00000000E+00 0.00000000E+00
11 19-1.87976956E-05 0.00000000E+00 0.00000000E+00 0.00000000E+00 0.00000000E+00
11 20 0.00000000E+00-2.78133874E-05 0.00000000E+00 0.00000000E+00 0.00000000E+00
11 21 0.00000000E+00 0.00000000E+00 1.14970505E-05 0.00000000E+00 0.00000000E+00
11 22 0.00000000E+00 0.00000000E+00 0.00000000E+00 0.00000000E+00 0.00000000E+00
11 23 0.00000000E+00 4.55007429E-05 0.00000000E+00 0.00000000E+00-8.80380488E-05
11 24 0.00000000E+00 0.00000000E+00 1.55579076E-04 0.00000000E+00 0.00000000E+00
11 25 0.00000000E+00 0.00000000E+00 0.00000000E+00 0.00000000E+00 0.00000000E+00
11 26-4.55007429E-05 0.00000000E+00 0.00000000E+00 8.80380488E-05 0.00000000E+00
11 27 0.00000000E+00-1.55579076E-04 0.00000000E+00 0.00000000E+00 0.00000000E+00
11 28 6.18079610E-07 0.00000000E+00 0.00000000E+00 0.00000000E+00 0.00000000E+00
11 29 0.00000000E+00-6.18079624E-07 0.00000000E+00 0.00000000E+00 0.00000000E+00
11 30 0.00000000E+00 0.00000000E+00-6.18079624E-07 0.00000000E+00 0.00000000E+00
11 31 0.00000000E+00 0.00000000E+00 0.00000000E+00 6.18079610E-07 0.00000000E+00
11 32 0.00000000E+00
12  1 0.00000000E+00 0.00000000E+00 0.00000000E+00 0.00000000E+00 0.00000000E+00
12  2 0.00000000E+00 0.00000000E+00 0.00000000E+00 0.00000000E+00 0.00000000E+00
12  3 2.22586377E-01 0.00000000E+00 0.00000000E+00 3.01561253E-01 0.00000000E+00
12  4 0.00000000E+00 2.52444041E-01 0.00000000E+00 0.00000000E+00 5.20036564E-02
12  5 0.00000000E+00 0.00000000E+00-3.09785728E-03 0.00000000E+00 0.00000000E+00
12  6 1.98637734E-03 0.00000000E+00 0.00000000E+00-8.17716705E-04 0.00000000E+00
12  7 0.00000000E+00 2.21433964E-04 0.00000000E+00 0.00000000E+00 0.00000000E+00
12  8 0.00000000E+00 0.00000000E+00 0.00000000E+00-3.08447041E-05 0.00000000E+00
12  9 0.00000000E+00 0.00000000E+00 0.00000000E+00 0.00000000E+00 5.30612676E-05
12 10 0.00000000E+00 0.00000000E+00 0.00000000E+00 0.00000000E+00 0.00000000E+00
12 11-2.91639551E-05 0.00000000E+00 0.00000000E+00 0.00000000E+00 0.00000000E+00