!    H2Si=CH2...silene...pi to pi* state (same symmetry orbitals)...42 AOs
!    This runs the 3rd input, which is NOT a variational run.
!
!    The point of this run is to teach us that low spin open shell singlet
!    SCF is not variational (if there is a low lying closed shell determinant)
!    unless the two singly occupied orbitals have different space symmetry.
!    That condition ensures orthogonality to the closed shell, lower root,
!    and thus variationality.  Note that the MCSCF program can reproduce
!    the same, non-variational energy obtained in this run, but can also
!    satisfy the variational theorem by running as an explicit 2nd root.
!
!          FINAL E(GVB)= -328.9542428820 in 13 iterations.
!
!    this test takes 0 seconds on 2.66 GHz Cloverton (12 Nov 2009)
!
!    run 0. RHF on ground state, E= -329.0363730016 in 9 iters
--- $contrl scftyp=rhf $end
!
!    run 1. TCSCF on ground state, using the fast AO-integral based GVB,
!           which only uses two determinants: 20 and 02.  This converges
!           onto natural orbitals of CAS, where 11 has a zero CI coef.
!           GVB E= -329.0618695395 in 2 iters
--- $contrl scftyp=gvb $end
--- $scf    nco=11 nseto=0 npair=1 $end
!
!    run 2. The same as run 1, using the more time consuming MCSCF
!           code.  It works with 3 determinants, but since the starting
!           orbitals are the NOs, the 11 determinant has zero CI coef.
!           If RHF starting orbitals were given, this would converge
!           to the same energy, with all three CI coefs non-vanishing.
!           MCSCF E= -329.0618695395 in 2 iters
--- $contrl scftyp=mcscf $end
--- $det    ncore=11 nact=2 nels=2 nstate=1 $end
!
!    run 3. GVB code is not variational when run on an open shell singlet.
!           This should be faster than run 4 due to using AO basis integrals.
!           GVB   E= -328.9542428820 in 13 iters (this E is below run #5)
 $contrl scftyp=gvb $end
 $scf    nco=11 nseto=2 no(1)=1,1 npair=0 $end
!
!    run 4. MCSCF code used in the same fashion as run 3.
!           We need NSTATE=2 to skip over the triplet coupling of the
!           only space occupancy included here: the 11 occupancy.
!           MCSCF E= -328.9542428820 in 13 iters (this E is below run #5)
--- $contrl scftyp=mcscf $end
--- $mcscf  cistep=ormas $end
--- $det    ncore=11 nact=2 nels=2 nstate=2 $end
--- $ormas  nspace=2 mstart(1)=12,13 mine(1)=1,1 maxe(1)=1,1 $end
!
!    run 5. MCSCF code used in a variational manner.
!           The 2nd singlet root is given 100% of the weight.
!           MCSCF E= -328.8122039603 in 16 iters, its two lower roots
!           are g.s.= -329.0282836994, triplet= -328.9192542073
--- $contrl scftyp=mcscf $end
--- $det    ncore=11 nact=2 nels=2 nstate=4 wstate(1)=0,1,0 $end
!
!    run 6. GVB code run in a variational manner.
!           By freezing all orbitals occupied in RHF, and only optimizing
!           the upper singly occupied orbital, we maintain orthogonality
!           of this trial function to the RHF determinant.
!     ===>  Be sure to select reading the RHF orbitals stored below.
!           GVB   E= -328.7797707170 after 5 iterations
--- $contrl scftyp=gvb $end
--- $scf    nco=11 nseto=2 no(1)=1,1 npair=0 $end
--- $mofrz  frz=.true. ifrz(1)=1,2,3,4,5,6,7,8,9,10,11,12 $end
!
!    run 7. MCSCF code used in the same fashion as run 6.
!           only the upper orbital in the 11 determinant is unfrozen.
!     ===>  Be sure to select reading the RHF orbitals stored below.
!           the serial code gets a segmentation violation in Newton-Raphson!
!           MCSCF E= -328.7797707186 after 3 iterations
!           using FCORE insted of MOFRZ does not crash, but freezes
!           one too few orbitals.
--- $contrl scftyp=mcscf $end
--- $system parall=.true. memddi=10 $end
--- $mcscf  cistep=ormas fullnr=.true.
---         mofrz(1)=1,2,3,4,5,6,7,8,9,10,11,12 $end
--- $det    ncore=11 nact=2 nels=2 nstate=2 $end
--- $ormas  nspace=2 mstart(1)=12,13 mine(1)=1,1 maxe(1)=1,1 $end
!
!    run 8. CIS allowing only the top MO of RHF to excite, to all virtuals
!               STATE    1 ENERGY=     -328.7853017315
!               STATE    2 ENERGY=     -328.7797707426
!               STATE    3 ENERGY=     -328.7529440751
!               STATE    4 ENERGY=     -328.7211609198
!           State 2 is the one that is dominated by pi -> pi* (12->13)
!           and this result is an excellent match to run 6.
!           State 1 is of B1 symmetry, so is irrelevant to
!           construction of variational treatments of 1-A1 !
--- $contrl scftyp=rhf cityp=cis $end
--- $cis    nacore=11 iroot=2 $end

Inputs like run 3 and 4 will be variational if and only if the
two orbitals are of different spatial symmetry.  Then the 11
trial function is automatically orthogonal to the ground state,
due to having a different spatial symmetry.

To be a little more precise, runs 4 and 5 using just 11 have a 1x1
Hamiltonian, and so these are variational approximations to the
lowest root of that total space symmetry.  When the orbitals have
the same spatial symmetry (as here), the total symmetry is the same 
as that of the ground state.  Since the pi* orbital is required to
be orthogonal to the pi that wants to be doubly occupied, the
energies of these runs are well above the RHF energy, so it isn't
a very good way to approximate the ground state.

                           switch to triplets!
                 spin symmetry keeps these orthogonal to ground state,
                 so we may variationally optimize a single determinant.
                 Of course all programs should agree on the energy.
!
!    run A.  ROHF code: E= -328.9622286311 after 9 iters
--- $contrl scftyp=rohf mult=3 $end
!
!    run B.   GVB code: E= -328.9622286311 after 9 iters
--- $contrl scftyp=gvb mult=3 $end
--- $scf    nco=11 nseto=2 no(1)=1,1 npair=0 $end
!
!    run C. MCSCF code: E= -328.9622286310 after 9 iters
--- $contrl scftyp=mcscf mult=3 $end
--- $det    ncore=11 nact=2 nels=2 $end


!     The starting orbital should be the FORS(2,2) ground state, 
!     unless the run specifically calls for RHF orbitals instead.
!            this input is shared by all jobs above:
 $contrl runtyp=energy $end
 $system mwords=5 $end
 $basis  gbasis=n31 ngauss=6 ndfunc=1 $end
 $guess  guess=moread norb=42 $end
 $data
silene...pi and pi* lie in the same symmetry type (b1)
Cnv 2

H   1.0    0.0  1.2365262000    -1.5395026882
SI 14.0    0.0   .0000000000     -.7403435983
C   6.0    0.0   .0000000000      .9552689198
H   1.0    0.0   .9080781274     1.5320400275
 $end


           both GVB and RHF orbitals are provided,
           comment out one or the other as needed.


--- GVB ORBITALS --- GENERATED AT Thu Nov 12 14:45:17 2009
these are CASSCF=FORS=TCSCF=GVB-PP(1) orbitals: E(GVB)=  -329.0618695395
 $SCF    CICOEF( 1)=   .97223811,  -.23399372 $END   
 $VEC   
 1  1-5.02047545E-05 1.92511581E-04-5.02047545E-05 1.92511581E-04 9.96859387E-01
 1  2 1.24687710E-02 0.00000000E+00 0.00000000E+00-2.07701927E-05-1.69563404E-02
 1  3 0.00000000E+00 0.00000000E+00-4.64116749E-05 1.75910238E-03 0.00000000E+00
 1  4 0.00000000E+00 7.47621075E-05 5.96217087E-03 5.91707868E-03 5.96715287E-03
 1  5 0.00000000E+00 0.00000000E+00 0.00000000E+00 1.53570980E-06-6.21921463E-05
 1  6 0.00000000E+00 0.00000000E+00 1.53085342E-04 4.01983636E-04 0.00000000E+00
 1  7 0.00000000E+00-1.46858245E-04 1.68847974E-05 3.13802093E-05-8.83914285E-05
 1  8 0.00000000E+00 0.00000000E+00 0.00000000E+00 1.73022987E-05-1.53987031E-04
 1  9 1.73022987E-05-1.53987031E-04
 2  1-2.50917540E-05-2.14535467E-04-2.50917540E-05-2.14535467E-04 1.33203644E-05
 2  2 3.54517280E-05 0.00000000E+00 0.00000000E+00-4.19869048E-06 6.93671641E-04
 2  3 0.00000000E+00 0.00000000E+00 1.72529318E-04 1.74761832E-03 0.00000000E+00
 2  4 0.00000000E+00 1.01114654E-03 5.09374099E-05-3.63085261E-05-4.64666753E-04
 2  5 0.00000000E+00 0.00000000E+00 0.00000000E+00 9.95605055E-01 2.76038593E-02
 2  6 0.00000000E+00 0.00000000E+00-2.82387679E-05-9.67809477E-03 0.00000000E+00
 2  7 0.00000000E+00-6.97491268E-05-2.52726080E-03-1.97217714E-03-1.84714090E-03
 2  8 0.00000000E+00 0.00000000E+00 0.00000000E+00-1.49241425E-04 1.69970143E-03
 2  9-1.49241425E-04 1.69970143E-03
 3  1 3.51407164E-04-1.71827456E-04 3.51407164E-04-1.71827456E-04-2.68177495E-01
 3  2 1.03031783E+00 0.00000000E+00 0.00000000E+00-3.57680343E-03 8.41467060E-03
 3  3 0.00000000E+00 0.00000000E+00-4.77115048E-04-2.22446883E-03 0.00000000E+00
 3  4 0.00000000E+00-9.87606283E-06 1.10788872E-03 1.26913168E-03 9.14975474E-04
 3  5 0.00000000E+00 0.00000000E+00 0.00000000E+00-3.73156263E-04 1.12393292E-04
 3  6 0.00000000E+00 0.00000000E+00-8.32998027E-04-3.20439330E-04 0.00000000E+00
 3  7 0.00000000E+00-4.53342454E-05 2.90009105E-05-1.15879388E-04 8.67364787E-04
 3  8 0.00000000E+00 0.00000000E+00 0.00000000E+00 2.38663301E-05 2.54181332E-04
 3  9 2.38663301E-05 2.54181332E-04
 4  1 0.00000000E+00 0.00000000E+00 0.00000000E+00 0.00000000E+00 0.00000000E+00
 4  2 0.00000000E+00 9.94949098E-01 0.00000000E+00 0.00000000E+00 0.00000000E+00
 4  3 1.91426344E-02 0.00000000E+00 0.00000000E+00 0.00000000E+00-4.62425858E-03
 4  4 0.00000000E+00 0.00000000E+00 0.00000000E+00 0.00000000E+00 0.00000000E+00
 4  5 0.00000000E+00-4.04026307E-04 0.00000000E+00 0.00000000E+00 0.00000000E+00
 4  6 4.59619431E-04 0.00000000E+00 0.00000000E+00 0.00000000E+00 3.26638671E-04
 4  7 0.00000000E+00 0.00000000E+00 0.00000000E+00 0.00000000E+00 0.00000000E+00
 4  8 0.00000000E+00-2.68195476E-04 0.00000000E+00 0.00000000E+00 0.00000000E+00
 4  9 0.00000000E+00 0.00000000E+00
 5  1-8.97337051E-04 1.89456419E-03 8.97337051E-04-1.89456419E-03 0.00000000E+00
 5  2 0.00000000E+00 0.00000000E+00 9.94717731E-01 0.00000000E+00 0.00000000E+00
 5  3 0.00000000E+00 2.04376200E-02 0.00000000E+00 0.00000000E+00 0.00000000E+00
 5  4-2.71968372E-03 0.00000000E+00 0.00000000E+00 0.00000000E+00 0.00000000E+00
 5  5 0.00000000E+00 0.00000000E+00-9.70155088E-04 0.00000000E+00 0.00000000E+00
 5  6 0.00000000E+00 7.22704627E-04 0.00000000E+00 0.00000000E+00 0.00000000E+00
 5  7-3.69317812E-03 0.00000000E+00 0.00000000E+00 0.00000000E+00 0.00000000E+00
 5  8 0.00000000E+00 0.00000000E+00-4.73813128E-04-3.75710377E-04-2.12241137E-03
 5  9 3.75710377E-04 2.12241137E-03
 6  1-5.88590296E-04 5.59119137E-04-5.88590296E-04 5.59119137E-04-9.77529162E-04
 6  2 3.96054797E-03 0.00000000E+00 0.00000000E+00 9.94691520E-01-1.03988908E-03
 6  3 0.00000000E+00 0.00000000E+00 1.99308713E-02 6.60633638E-04 0.00000000E+00
 6  4 0.00000000E+00-3.84458581E-03 9.28318079E-04 6.42159795E-05 5.04625323E-04
 6  5 0.00000000E+00 0.00000000E+00 0.00000000E+00-1.19520164E-03 8.70345147E-04
 6  6 0.00000000E+00 0.00000000E+00-2.91977585E-03-3.13536100E-03 0.00000000E+00
 6  7 0.00000000E+00 1.52183908E-03-1.51986184E-04-3.78195847E-04 2.48320028E-03
 6  8 0.00000000E+00 0.00000000E+00 0.00000000E+00 1.16469589E-04 7.32912052E-04
 6  9 1.16469589E-04 7.32912052E-04
 7  1 2.81321369E-02 1.33980807E-02 2.81321369E-02 1.33980807E-02 2.45532192E-02
 7  2-1.19884243E-01 0.00000000E+00 0.00000000E+00-5.79446130E-02 2.31365087E-01
 7  3 0.00000000E+00 0.00000000E+00 1.20111634E-01 3.62354249E-02 0.00000000E+00
 7  4 0.00000000E+00-4.61595450E-03-1.91944197E-02-1.52784245E-02 4.27919571E-02
 7  5 0.00000000E+00 0.00000000E+00 0.00000000E+00-1.90764549E-01 3.57028011E-01
 7  6 0.00000000E+00 0.00000000E+00 2.63429840E-03 3.23717626E-01 0.00000000E+00
 7  7 0.00000000E+00 2.29478531E-02-1.31073509E-02 2.02136650E-02 1.55892332E-02
 7  8 0.00000000E+00 0.00000000E+00 0.00000000E+00 1.45191919E-01 4.66937371E-02
 7  9 1.45191919E-01 4.66937371E-02
 8  1 1.56241893E-01 1.30447072E-01 1.56241893E-01 1.30447072E-01 4.81759714E-02
 8  2-2.36123269E-01 0.00000000E+00 0.00000000E+00 3.47350206E-02 4.76174796E-01
 8  3 0.00000000E+00 0.00000000E+00-9.72374372E-02 1.06799650E-01 0.00000000E+00
 8  4 0.00000000E+00-4.23969256E-03-2.82825997E-02 4.36503037E-02 1.71309090E-02
 8  5 0.00000000E+00 0.00000000E+00 0.00000000E+00 4.29767298E-02-8.48447429E-02
 8  6 0.00000000E+00 0.00000000E+00-2.08167501E-01-8.70615422E-02 0.00000000E+00
 8  7 0.00000000E+00-8.45662987E-02 7.66588663E-03-1.66227147E-02 6.75462068E-03
 8  8 0.00000000E+00 0.00000000E+00 0.00000000E+00-1.02059418E-01-6.69551441E-02
 8  9-1.02059418E-01-6.69551441E-02
 9  1-6.16192850E-02-5.73038324E-02 6.16192850E-02 5.73038324E-02 0.00000000E+00
 9  2 0.00000000E+00 0.00000000E+00-6.65180397E-02 0.00000000E+00 0.00000000E+00
 9  3 0.00000000E+00 1.52069360E-01 0.00000000E+00 0.00000000E+00 0.00000000E+00
 9  4 1.71777963E-02 0.00000000E+00 0.00000000E+00 0.00000000E+00 0.00000000E+00
 9  5 0.00000000E+00 0.00000000E+00-2.97358108E-03 0.00000000E+00 0.00000000E+00
 9  6 0.00000000E+00 4.17398394E-01 0.00000000E+00 0.00000000E+00 0.00000000E+00
 9  7 2.06630733E-01 0.00000000E+00 0.00000000E+00 0.00000000E+00 0.00000000E+00
 9  8 0.00000000E+00 0.00000000E+00 2.65199472E-02-2.24035514E-01-1.64038687E-01
 9  9 2.24035514E-01 1.64038687E-01
10  1-1.25693328E-01-1.45218782E-01-1.25693328E-01-1.45218782E-01 4.93084965E-03
10  2-2.32033929E-02 0.00000000E+00 0.00000000E+00-1.71180130E-01 6.79341783E-02
10  3 0.00000000E+00 0.00000000E+00 4.23285692E-01-7.39148226E-03 0.00000000E+00
10  4 0.00000000E+00 3.27626031E-02-2.07041269E-03-8.18383811E-02 5.54951237E-02
10  5 0.00000000E+00 0.00000000E+00 0.00000000E+00-2.88925886E-02 4.85374359E-02
10  6 0.00000000E+00 0.00000000E+00-3.96288785E-01 6.17702741E-02 0.00000000E+00
10  7 0.00000000E+00-1.73361236E-01 4.91716741E-03-1.85613763E-02 8.10476199E-03
10  8 0.00000000E+00 0.00000000E+00 0.00000000E+00-1.14572875E-01-1.10205647E-01
10  9-1.14572875E-01-1.10205647E-01
11  1-2.27825571E-01-2.74827996E-01 2.27825571E-01 2.74827996E-01 0.00000000E+00
11  2 0.00000000E+00 0.00000000E+00-1.52129502E-01 0.00000000E+00 0.00000000E+00
11  3 0.00000000E+00 3.92918828E-01 0.00000000E+00 0.00000000E+00 0.00000000E+00
11  4 4.45716556E-02 0.00000000E+00 0.00000000E+00 0.00000000E+00 0.00000000E+00
11  5 0.00000000E+00 0.00000000E+00-1.10958986E-01 0.00000000E+00 0.00000000E+00
11  6 0.00000000E+00-1.35576199E-01 0.00000000E+00 0.00000000E+00 0.00000000E+00
11  7-1.02208248E-01 0.00000000E+00 0.00000000E+00 0.00000000E+00 0.00000000E+00
11  8 0.00000000E+00 0.00000000E+00-1.79918632E-02 8.21249210E-02 6.30676432E-02
11  9-8.21249210E-02-6.30676432E-02
12  1 0.00000000E+00 0.00000000E+00 0.00000000E+00 0.00000000E+00 0.00000000E+00
12  2 0.00000000E+00-1.47248568E-01 0.00000000E+00 0.00000000E+00 0.00000000E+00
12  3 3.95755084E-01 0.00000000E+00 0.00000000E+00 0.00000000E+00 2.41345290E-01
12  4 0.00000000E+00 0.00000000E+00 0.00000000E+00 0.00000000E+00 0.00000000E+00
12  5 0.00000000E+00 5.71575785E-02 0.00000000E+00 0.00000000E+00 0.00000000E+00
12  6 3.91806034E-01 0.00000000E+00 0.00000000E+00 0.00000000E+00 3.37810171E-01
12  7 0.00000000E+00 0.00000000E+00 0.00000000E+00 0.00000000E+00 0.00000000E+00
12  8 0.00000000E+00-1.48840014E-02 0.00000000E+00 0.00000000E+00 0.00000000E+00
12  9 0.00000000E+00 0.00000000E+00
13  1 0.00000000E+00 0.00000000E+00 0.00000000E+00 0.00000000E+00 0.00000000E+00
13  2 0.00000000E+00-1.79396025E-01 0.00000000E+00 0.00000000E+00 0.00000000E+00
13  3 5.91628735E-01 0.00000000E+00 0.00000000E+00 0.00000000E+00 3.67657079E-01
13  4 0.00000000E+00 0.00000000E+00 0.00000000E+00 0.00000000E+00 0.00000000E+00
13  5 0.00000000E+00 6.28167350E-03 0.00000000E+00 0.00000000E+00 0.00000000E+00
13  6-5.66478244E-01 0.00000000E+00 0.00000000E+00 0.00000000E+00-3.44588830E-01
13  7 0.00000000E+00 0.00000000E+00 0.00000000E+00 0.00000000E+00 0.00000000E+00
13  8 0.00000000E+00-1.37944555E-03 0.00000000E+00 0.00000000E+00 0.00000000E+00
13  9 0.00000000E+00 0.00000000E+00
14  1 2.65472727E-02-3.72555986E-02 2.65472727E-02-3.72555986E-02-7.99913468E-03
14  2 6.46970017E-02 0.00000000E+00 0.00000000E+00 9.77741877E-03 1.55943213E-02
14  3 0.00000000E+00 0.00000000E+00-3.80225450E-02-1.05367892E+00 0.00000000E+00
14  4 0.00000000E+00-1.42711581E+00-5.89414982E-02-5.30578386E-02 7.78464265E-02
14  5 0.00000000E+00 0.00000000E+00 0.00000000E+00-1.09296208E-01 7.11233220E-02
14  6 0.00000000E+00 0.00000000E+00-7.26657388E-02 1.50940066E+00 0.00000000E+00
14  7 0.00000000E+00-3.25407090E-01-2.77693604E-02-1.52560894E-02-5.44844504E-03
14  8 0.00000000E+00 0.00000000E+00 0.00000000E+00-1.17998360E-02-9.79519163E-02
14  9-1.17998360E-02-9.79519163E-02
15  1-1.23502986E-01-1.16143921E+00-1.23502986E-01-1.16143921E+00 7.21611250E-03
15  2-9.31528973E-02 0.00000000E+00 0.00000000E+00 2.75888233E-02-1.50764638E-01
15  3 0.00000000E+00 0.00000000E+00-5.88102496E-02 2.09219339E+00 0.00000000E+00
15  4 0.00000000E+00-9.07292911E-01 1.10086173E-01-1.00770388E-01 5.87741467E-03
15  5 0.00000000E+00 0.00000000E+00 0.00000000E+00 2.32096661E-02-5.53829414E-02
15  6 0.00000000E+00 0.00000000E+00 6.15128145E-02-1.12833660E-01 0.00000000E+00
15  7 0.00000000E+00 2.20522076E-01 6.87743163E-03-5.95248848E-03-7.85900632E-03
15  8 0.00000000E+00 0.00000000E+00 0.00000000E+00-3.29624151E-03-8.67801690E-03
15  9-3.29624151E-03-8.67801690E-03
16  1 8.59403064E-02 1.00580487E+00-8.59403064E-02-1.00580487E+00 0.00000000E+00
16  2 0.00000000E+00 0.00000000E+00-2.50987357E-02 0.00000000E+00 0.00000000E+00
16  3 0.00000000E+00 3.98435026E-02 0.00000000E+00 0.00000000E+00 0.00000000E+00
16  4 1.82659627E+00 0.00000000E+00 0.00000000E+00 0.00000000E+00 0.00000000E+00
16  5 0.00000000E+00 0.00000000E+00 1.11826404E-01 0.00000000E+00 0.00000000E+00
16  6 0.00000000E+00-4.44185305E-02 0.00000000E+00 0.00000000E+00 0.00000000E+00
16  7-1.78226382E-01 0.00000000E+00 0.00000000E+00 0.00000000E+00 0.00000000E+00
16  8 0.00000000E+00 0.00000000E+00-3.17018022E-02 8.60586926E-02 2.12990222E-01
16  9-8.60586926E-02-2.12990222E-01
17  1 2.83994824E-02 5.24230462E-02-2.83994824E-02-5.24230462E-02 0.00000000E+00
17  2 0.00000000E+00 0.00000000E+00-1.51847706E-01 0.00000000E+00 0.00000000E+00
17  3 0.00000000E+00 5.95834282E-01 0.00000000E+00 0.00000000E+00 0.00000000E+00
17  4-6.69493385E-01 0.00000000E+00 0.00000000E+00 0.00000000E+00 0.00000000E+00
17  5 0.00000000E+00 0.00000000E+00 7.12958625E-02 0.00000000E+00 0.00000000E+00
17  6 0.00000000E+00 2.01326036E-01 0.00000000E+00 0.00000000E+00 0.00000000E+00
17  7 1.29076080E+00 0.00000000E+00 0.00000000E+00 0.00000000E+00 0.00000000E+00
17  8 0.00000000E+00 0.00000000E+00-2.20986328E-02 6.84757495E-02 1.27524507E+00
17  9-6.84757495E-02-1.27524507E+00
18  1-3.02072318E-02-3.05815502E-01-3.02072318E-02-3.05815502E-01 5.68485040E-02
18  2-1.04487060E-01 0.00000000E+00 0.00000000E+00 1.16236412E-01 1.36802788E+00
18  3 0.00000000E+00 0.00000000E+00-5.17178370E-01-1.03284014E+00 0.00000000E+00
18  4 0.00000000E+00 2.64394128E-01 1.28179982E-01 5.55134537E-02 5.08478298E-02
18  5 0.00000000E+00 0.00000000E+00 0.00000000E+00-1.69726309E-02-3.03239033E-02
18  6 0.00000000E+00 0.00000000E+00 1.53672569E-01 6.53604675E-01 0.00000000E+00
18  7 0.00000000E+00 2.94247054E-01-1.35951003E-02-1.23141134E-02 7.56809933E-03
18  8 0.00000000E+00 0.00000000E+00 0.00000000E+00 1.31720569E-02-4.12447668E-01
18  9 1.31720569E-02-4.12447668E-01
19  1-2.55623387E-02-1.26027310E-01-2.55623387E-02-1.26027310E-01 1.89868457E-02
19  2-3.35485997E-02 0.00000000E+00 0.00000000E+00 1.54328503E-02 4.68284740E-01
19  3 0.00000000E+00 0.00000000E+00-1.23284974E-01-1.00909400E+00 0.00000000E+00
19  4 0.00000000E+00-7.00237584E-01-2.42339423E-02 1.47387480E-02 7.86896706E-02
19  5 0.00000000E+00 0.00000000E+00 0.00000000E+00 8.63993585E-02-8.45706092E-02
19  6 0.00000000E+00 0.00000000E+00-2.22211367E-01-1.54420800E+00 0.00000000E+00
19  7 0.00000000E+00-1.08392363E+00-5.84873588E-03 5.44024484E-03 4.76160893E-03
19  8 0.00000000E+00 0.00000000E+00 0.00000000E+00 3.55609882E-02 1.67271564E+00
19  9 3.55609882E-02 1.67271564E+00
20  1 0.00000000E+00 0.00000000E+00 0.00000000E+00 0.00000000E+00 0.00000000E+00
20  2 0.00000000E+00 2.49257942E-01 0.00000000E+00 0.00000000E+00 0.00000000E+00
20  3-1.18445037E+00 0.00000000E+00 0.00000000E+00 0.00000000E+00 1.31916422E+00
20  4 0.00000000E+00 0.00000000E+00 0.00000000E+00 0.00000000E+00 0.00000000E+00
20  5 0.00000000E+00-3.52081405E-02 0.00000000E+00 0.00000000E+00 0.00000000E+00
20  6-1.31382504E-02 0.00000000E+00 0.00000000E+00 0.00000000E+00-1.32216729E-01
20  7 0.00000000E+00 0.00000000E+00 0.00000000E+00 0.00000000E+00 0.00000000E+00
20  8 0.00000000E+00 2.78551646E-02 0.00000000E+00 0.00000000E+00 0.00000000E+00
20  9 0.00000000E+00 0.00000000E+00
21  1-4.08948686E-02 6.77198893E-01 4.08948686E-02-6.77198893E-01 0.00000000E+00
21  2 0.00000000E+00 0.00000000E+00-2.44187877E-01 0.00000000E+00 0.00000000E+00
21  3 0.00000000E+00 1.22633669E+00 0.00000000E+00 0.00000000E+00 0.00000000E+00
21  4-2.09706134E-01 0.00000000E+00 0.00000000E+00 0.00000000E+00 0.00000000E+00
21  5 0.00000000E+00 0.00000000E+00-4.79424436E-02 0.00000000E+00 0.00000000E+00
21  6 0.00000000E+00-3.12489813E-01 0.00000000E+00 0.00000000E+00 0.00000000E+00
21  7-9.03452816E-01 0.00000000E+00 0.00000000E+00 0.00000000E+00 0.00000000E+00
21  8 0.00000000E+00 0.00000000E+00-2.65220405E-02 7.73755485E-02-1.14193299E+00
21  9-7.73755485E-02 1.14193299E+00
22  1-4.03833755E-02 1.70627092E-01-4.03833755E-02 1.70627092E-01 3.03690524E-02
22  2-2.66927732E-02 0.00000000E+00 0.00000000E+00-2.64768378E-01 8.79113548E-01
22  3 0.00000000E+00 0.00000000E+00 1.42030502E+00-4.98584872E-01 0.00000000E+00
22  4 0.00000000E+00-7.35268172E-01 1.79201490E-01 2.22214783E-01-2.96657547E-01
22  5 0.00000000E+00 0.00000000E+00 0.00000000E+00 5.62801641E-02-1.28613155E-01
22  6 0.00000000E+00 0.00000000E+00 1.68158805E-01-2.67291029E-01 0.00000000E+00
22  7 0.00000000E+00 7.53138799E-01-2.98898437E-02-2.82584803E-02 6.59377698E-02
22  8 0.00000000E+00 0.00000000E+00 0.00000000E+00 1.19769244E-02 3.56474318E-02
22  9 1.19769244E-02 3.56474318E-02
23  1 1.04840539E-02 1.29477107E-01 1.04840539E-02 1.29477107E-01 4.96136852E-03
23  2 1.07851194E-01 0.00000000E+00 0.00000000E+00-4.55821601E-02 5.26025254E-01
23  3 0.00000000E+00 0.00000000E+00 6.92312137E-01 6.55023280E-01 0.00000000E+00
23  4 0.00000000E+00 5.71549601E-01-8.16046065E-02-3.28070244E-01 6.36902691E-01
23  5 0.00000000E+00 0.00000000E+00 0.00000000E+00 1.17408799E-02 4.60862506E-02
23  6 0.00000000E+00 0.00000000E+00-5.41769126E-01-4.20315642E-01 0.00000000E+00
23  7 0.00000000E+00 2.20114299E+00 3.50878821E-02-8.12635350E-02-5.11747722E-03
23  8 0.00000000E+00 0.00000000E+00 0.00000000E+00-2.85260610E-01-5.28628040E-01
23  9-2.85260610E-01-5.28628040E-01
24  1 0.00000000E+00 0.00000000E+00 0.00000000E+00 0.00000000E+00 0.00000000E+00
24  2 0.00000000E+00 0.00000000E+00 0.00000000E+00 0.00000000E+00 0.00000000E+00
24  3 0.00000000E+00 0.00000000E+00 0.00000000E+00 0.00000000E+00 0.00000000E+00
24  4 0.00000000E+00 0.00000000E+00 0.00000000E+00 0.00000000E+00 0.00000000E+00
24  5 9.96944878E-01 0.00000000E+00 0.00000000E+00 0.00000000E+00 0.00000000E+00
24  6 0.00000000E+00 0.00000000E+00 0.00000000E+00 0.00000000E+00 0.00000000E+00
24  7 0.00000000E+00 0.00000000E+00 0.00000000E+00 0.00000000E+00 0.00000000E+00
24  8 4.12555511E-02 0.00000000E+00 0.00000000E+00 0.00000000E+00 0.00000000E+00
24  9 0.00000000E+00 0.00000000E+00
25  1 0.00000000E+00 0.00000000E+00 0.00000000E+00 0.00000000E+00 0.00000000E+00
25  2 0.00000000E+00 2.89441731E-02 0.00000000E+00 0.00000000E+00 0.00000000E+00
25  3-1.22525746E-01 0.00000000E+00 0.00000000E+00 0.00000000E+00 3.38767213E-02
25  4 0.00000000E+00 0.00000000E+00 0.00000000E+00 0.00000000E+00 0.00000000E+00
25  5 0.00000000E+00 9.35332684E-01 0.00000000E+00 0.00000000E+00 0.00000000E+00
25  6-4.31360761E-01 0.00000000E+00 0.00000000E+00 0.00000000E+00 1.57549182E-01
25  7 0.00000000E+00 0.00000000E+00 0.00000000E+00 0.00000000E+00 0.00000000E+00
25  8 0.00000000E+00-8.35392379E-02 0.00000000E+00 0.00000000E+00 0.00000000E+00
25  9 0.00000000E+00 0.00000000E+00
26  1 2.33113100E-01-1.34486382E+00-2.33113100E-01 1.34486382E+00 0.00000000E+00
26  2 0.00000000E+00 0.00000000E+00 6.03036643E-03 0.00000000E+00 0.00000000E+00
26  3 0.00000000E+00-1.83157238E-01 0.00000000E+00 0.00000000E+00 0.00000000E+00
26  4-1.26864315E+00 0.00000000E+00 0.00000000E+00 0.00000000E+00 0.00000000E+00
26  5 0.00000000E+00 0.00000000E+00 8.75248858E-01 0.00000000E+00 0.00000000E+00
26  6 0.00000000E+00-2.64190919E-01 0.00000000E+00 0.00000000E+00 0.00000000E+00
26  7 1.30655542E-01 0.00000000E+00 0.00000000E+00 0.00000000E+00 0.00000000E+00
26  8 0.00000000E+00 0.00000000E+00-9.69589073E-02 2.51839773E-01-5.92415068E-01
26  9-2.51839773E-01 5.92415068E-01
27  1 0.00000000E+00 0.00000000E+00 0.00000000E+00 0.00000000E+00 0.00000000E+00
27  2 0.00000000E+00 1.55602623E-02 0.00000000E+00 0.00000000E+00 0.00000000E+00
27  3-9.78093432E-02 0.00000000E+00 0.00000000E+00 0.00000000E+00-4.43867428E-01
27  4 0.00000000E+00 0.00000000E+00 0.00000000E+00 0.00000000E+00 0.00000000E+00
27  5 0.00000000E+00-4.12138639E-01 0.00000000E+00 0.00000000E+00 0.00000000E+00
27  6-9.31817905E-01 0.00000000E+00 0.00000000E+00 0.00000000E+00 1.34539728E+00
27  7 0.00000000E+00 0.00000000E+00 0.00000000E+00 0.00000000E+00 0.00000000E+00
27  8 0.00000000E+00 6.37722536E-02 0.00000000E+00 0.00000000E+00 0.00000000E+00
27  9 0.00000000E+00 0.00000000E+00
28  1 2.41310666E-01-1.23172108E+00 2.41310666E-01-1.23172108E+00-2.72975853E-03
28  2 2.94901647E-02 0.00000000E+00 0.00000000E+00-1.10313418E-02-1.18445274E-02
28  3 0.00000000E+00 0.00000000E+00 5.23208510E-02 1.56487524E+00 0.00000000E+00
28  4 0.00000000E+00-5.13307764E-01-8.46345285E-01 8.68763600E-01 1.13037436E-01
28  5 0.00000000E+00 0.00000000E+00 0.00000000E+00-3.74728248E-04 2.69559755E-02
28  6 0.00000000E+00 0.00000000E+00-7.54915314E-02-4.14966424E-02 0.00000000E+00
28  7 0.00000000E+00 4.95565862E-01-1.50748052E-02 1.11019045E-02 4.54522993E-03
28  8 0.00000000E+00 0.00000000E+00 0.00000000E+00-6.99939215E-02-1.65208195E-01
28  9-6.99939215E-02-1.65208195E-01
29  1-2.64311557E-01-7.37394716E-02 2.64311557E-01 7.37394716E-02 0.00000000E+00
29  2 0.00000000E+00 0.00000000E+00 1.32048154E-01 0.00000000E+00 0.00000000E+00
29  3 0.00000000E+00-7.29210854E-01 0.00000000E+00 0.00000000E+00 0.00000000E+00
29  4-4.26184959E-01 0.00000000E+00 0.00000000E+00 0.00000000E+00 0.00000000E+00
29  5 0.00000000E+00 0.00000000E+00-3.97991432E-01 0.00000000E+00 0.00000000E+00
29  6 0.00000000E+00-8.49938138E-01 0.00000000E+00 0.00000000E+00 0.00000000E+00
29  7 2.74239075E+00 0.00000000E+00 0.00000000E+00 0.00000000E+00 0.00000000E+00
29  8 0.00000000E+00 0.00000000E+00-5.20064397E-02 2.91154464E-01 1.15326729E+00
29  9-2.91154464E-01-1.15326729E+00
30  1 1.45218593E-01-1.05507494E-01 1.45218593E-01-1.05507494E-01-1.41208581E-02
30  2 1.47933564E-02 0.00000000E+00 0.00000000E+00 6.27960715E-02-4.75310224E-01
30  3 0.00000000E+00 0.00000000E+00-6.99022837E-01-1.14664910E+00 0.00000000E+00
30  4 0.00000000E+00-8.38628625E-01 3.77942064E-01 2.40267596E-01-5.94048856E-01
30  5 0.00000000E+00 0.00000000E+00 0.00000000E+00-9.92629051E-02-1.20534724E+00
30  6 0.00000000E+00 0.00000000E+00-9.27369942E-02 3.40628351E+00 0.00000000E+00
30  7 0.00000000E+00-7.01500412E-01 7.89901961E-02-1.89114897E-01-1.64715038E-01
30  8 0.00000000E+00 0.00000000E+00 0.00000000E+00-4.89854789E-01 8.26287421E-02
30  9-4.89854789E-01 8.26287421E-02
31  1 6.18431993E-01-7.89881450E-01 6.18431993E-01-7.89881450E-01-2.14707266E-02
31  2 1.42722545E-01 0.00000000E+00 0.00000000E+00 1.71152458E-02-2.70783985E-01
31  3 0.00000000E+00 0.00000000E+00-4.54176594E-02 9.19861475E-01 0.00000000E+00
31  4 0.00000000E+00-1.07095219E-01 5.52437044E-01 7.05012483E-02-3.88910647E-01
31  5 0.00000000E+00 0.00000000E+00 0.00000000E+00 1.98644163E-02 2.04348916E-01
31  6 0.00000000E+00 0.00000000E+00-7.79542315E-01-5.94878854E-02 0.00000000E+00
31  7 0.00000000E+00 6.62012224E-01-1.96242148E-02 1.12587785E-01 6.90784280E-03
31  8 0.00000000E+00 0.00000000E+00 0.00000000E+00 3.88459272E-01-4.60526188E-01
31  9 3.88459272E-01-4.60526188E-01
32  1-3.57475300E-01 4.08510154E-01 3.57475300E-01-4.08510154E-01 0.00000000E+00
32  2 0.00000000E+00 0.00000000E+00 5.79334557E-02 0.00000000E+00 0.00000000E+00
32  3 0.00000000E+00-1.23872709E-01 0.00000000E+00 0.00000000E+00 0.00000000E+00
32  4 2.64449609E-01 0.00000000E+00 0.00000000E+00 0.00000000E+00 0.00000000E+00
32  5 0.00000000E+00 0.00000000E+00-2.73153326E-02 0.00000000E+00 0.00000000E+00
32  6 0.00000000E+00 8.30744280E-01 0.00000000E+00 0.00000000E+00 0.00000000E+00
32  7-9.48497432E-01 0.00000000E+00 0.00000000E+00 0.00000000E+00 0.00000000E+00
32  8 0.00000000E+00 0.00000000E+00-2.14035303E-01 6.76956476E-01-1.06608731E+00
32  9-6.76956476E-01 1.06608731E+00
33  1-2.34934150E-01 3.46609853E-01-2.34934150E-01 3.46609853E-01 7.81694534E-03
33  2-6.98229102E-02 0.00000000E+00 0.00000000E+00-1.45499255E-02 5.08155884E-02
33  3 0.00000000E+00 0.00000000E+00-5.00455143E-02-2.90181168E-01 0.00000000E+00
33  4 0.00000000E+00 1.54579859E-01-3.12624590E-01-8.35661075E-02 2.09348727E-01
33  5 0.00000000E+00 0.00000000E+00 0.00000000E+00 2.67685091E-02-1.48917352E+00
33  6 0.00000000E+00 0.00000000E+00-2.44478611E-01 2.83994316E+00 0.00000000E+00
33  7 0.00000000E+00 5.55286243E-01-1.92873547E-01 2.25072086E-02-1.40594138E-01
33  8 0.00000000E+00 0.00000000E+00 0.00000000E+00 5.42173842E-01-1.28493007E+00
33  9 5.42173842E-01-1.28493007E+00
34  1 7.03750845E-01-6.84308098E-01 7.03750845E-01-6.84308098E-01-1.08142853E-03
34  2-1.03577893E-02 0.00000000E+00 0.00000000E+00-1.48756990E-01-6.69508033E-02
34  3 0.00000000E+00 0.00000000E+00 5.30853670E-01 4.73828138E-01 0.00000000E+00
34  4 0.00000000E+00-3.38346581E-01-5.03186609E-02-6.04439115E-01 6.58408586E-01
34  5 0.00000000E+00 0.00000000E+00 0.00000000E+00 3.04700630E-02-4.72527041E-01
34  6 0.00000000E+00 0.00000000E+00 7.46667382E-01-1.07989942E-01 0.00000000E+00