!
! The energy and gradient of an arbitrary 2nd row compound: C(NH2)(OH)FH.
!
!                        TOTAL ENERGY =     -57.3928821087
!                         ----------------------
!                         GRADIENT OF THE ENERGY
!                         ----------------------
!
! UNITS ARE HARTREE/BOHR    E'X               E'Y               E'Z
!    1 C               -0.028292603       0.015784940       0.002876309
!    2 O                0.024933968      -0.012341865      -0.006064656
!    3 H                0.006694696       0.003075813      -0.038451531
!    4 F               -0.012435378      -0.036979734       0.013951091
!    5 H                0.000113993      -0.007529722       0.021181388
!    6 N                0.010593836       0.032216148       0.006913469
!    7 H                0.001601196       0.003949070      -0.000929830
!    8 H               -0.003209707       0.001825351       0.000523760
!
!                   MAXIMUM GRADIENT =    0.038451531
!                       RMS GRADIENT =    0.016899808
!  $VIB
!          IVIB=   0 IATOM=   0 ICOORD=   0 E=      -57.3928821087
! -2.829260309E-02 1.578494044E-02 2.876309029E-03 2.493396764E-02-1.234186482E-02
! -6.064656000E-03 6.694696254E-03 3.075812582E-03-3.845153058E-02-1.243537828E-02
! -3.697973428E-02 1.395109093E-02 1.139926462E-04-7.529722156E-03 2.118138813E-02
!  1.059383581E-02 3.221614763E-02 6.913468626E-03 1.601195827E-03 3.949069549E-03
! -9.298301983E-04-3.209706806E-03 1.825351055E-03 5.237600692E-04
!  9.198861316E-01 1.343780104E+00 1.224740192E+00
!
! This runs takes 220.2 sec on a Dell (x86_64) 2.66 GHz processor (Jan 26, 2017).
  
 $CONTRL runtyp=gradient pp=read units=bohr $END
! $GUESS  GUESS=hcore $END
 $SCF NOCONV=.T. EXTRAP=.T. $END
 $system memory=100000000 $end
 $DATA
arbitrary 2nd row compound: C(NH2)(OH)FH
C1
 C           6.0  -0.04257778     0.02863128    -0.70475406
s 9 1.00
1 0.051344     0.013991
2 0.102619     0.169852
3 0.205100     0.397529
4 0.409924     0.380369
5 0.819297     0.180113
6 1.637494     -0.033512
7 3.272791     -0.121499
8 6.541187     0.015176
9 13.073594     -0.000705
s 1 1.00
1 0.921552     1.000000
s 1 1.00
1 0.132800     1.000000
p 9 1.00
1 0.029281     0.001787
2 0.058547     0.050426
3 0.117063     0.191634
4 0.234064     0.302667
5 0.468003     0.289868
6 0.935757     0.210979
7 1.871016     0.112024
8 3.741035     0.054425
9 7.480076     0.021931
p 1 1.00
1 0.126772     1.000000
p 1 1.00
1 0.376742     1.000000
d 1 1.00
1 0.329486     1.000000
d 1 1.00
1 1.141611     1.000000
f 1 1.00
1 0.773485     1.000000

 O           8.0   2.24345915    -1.11644554     0.12258049
s 9 1.00
1 0.125346     0.055741
2 0.268022     0.304848
3 0.573098     0.453752
4 1.225429     0.295926
5 2.620277     0.019567
6 5.602818     -0.128627
7 11.980245     0.012024
8 25.616801     0.000407
9 54.775216     -0.000076
s 1 1.00
1 1.686633     1.000000
s 1 1.00
1 0.237997     1.000000
p 9 1.00
1 0.083598     0.044958
2 0.167017     0.150175
3 0.333673     0.255999
4 0.666627     0.281879
5 1.331816     0.242835
6 2.660761     0.161134
7 5.315785     0.082308
8 10.620108     0.039899
9 21.217318     0.004679
p 1 1.00
1 0.184696     1.000000
p 1 1.00
1 0.600621     1.000000
d 1 1.00
1 0.669340     1.000000
d 1 1.00
1 2.404278     1.000000
f 1 1.00
1 1.423104     1.000000

 H           1.0   0.06430247     0.01096180    -2.84378894
s 6 1.00
1 6.359201     -0.004943
2 3.546637     0.049579
3 1.493442     0.037176
4 0.551948     0.287908
5 0.207203     0.009543
6 0.079234     0.770084
s 6 1.00
1 6.359201     -0.016672
2 3.546637     -0.005774
3 1.493442     -0.227982
4 0.551948     -0.285652
5 0.207203     -1.071579
6 0.079234     1.423767
s 6 1.00
1 6.359201     -0.018886
2 3.546637     -0.058854
3 1.493442     -0.556988
4 0.551948     -1.084022
5 0.207203     2.721525
6 0.079234     -1.458091
s 1 1.00
1 0.102700     1.000000
p 1 1.00
1 1.407000     1.000000
p 1 1.00
1 0.388000     1.000000
d 1 1.00
1 1.057000     1.000000

 F           9.0  -1.90475923    -1.58939953     0.15434366
s 9 1.00
1 0.172723     0.070240
2 0.364875     0.311088
3 0.770795     0.444675
4 1.628295     0.287011
5 3.439757     0.018759
6 7.266451     -0.128608
7 15.350300     0.009104
8 32.427348     0.000810
9 68.502433     -0.000133
s 1 1.00
1 2.289795     1.000000
s 1 1.00
1 0.327712     1.000000
p 9 1.00
1 0.101001     0.035321
2 0.204414     0.136924
3 0.413707     0.249353
4 0.837289     0.286620
5 1.694565     0.254541
6 3.429580     0.169572
7 6.941026     0.088542
8 14.047737     0.039843
9 28.430799     0.003378
p 1 1.00
1 0.243660     1.000000
p 1 1.00
1 0.804181     1.000000
d 1 1.00
1 0.900763     1.000000
d 1 1.00
1 3.297425     1.000000
f 1 1.00
1 1.859274     1.000000

 H           1.0   2.09322546    -1.59906416     1.87434789
s 6 1.00
1 6.359201     -0.004943
2 3.546637     0.049579
3 1.493442     0.037176
4 0.551948     0.287908
5 0.207203     0.009543
6 0.079234     0.770084
s 6 1.00
1 6.359201     -0.016672
2 3.546637     -0.005774
3 1.493442     -0.227982
4 0.551948     -0.285652
5 0.207203     -1.071579
6 0.079234     1.423767
s 6 1.00
1 6.359201     -0.018886
2 3.546637     -0.058854
3 1.493442     -0.556988
4 0.551948     -1.084022
5 0.207203     2.721525
6 0.079234     -1.458091
s 1 1.00
1 0.102700     1.000000
p 1 1.00
1 1.407000     1.000000
p 1 1.00
1 0.388000     1.000000
d 1 1.00
1 1.057000     1.000000

 N           7.0  -0.41867433     2.61089216     0.15287245
s 9 1.00
1 0.098869     0.067266
2 0.211443     0.334290
3 0.452197     0.454257
4 0.967080     0.267861
5 2.068221     0.000248
6 4.423150     -0.132606
7 9.459462     0.014437
8 20.230246     0.000359
9 43.264919     -0.000094
s 1 1.00
1 1.202183     1.000000
s 1 1.00
1 0.163243     1.000000
p 9 1.00
1 0.073234     0.035758
2 0.145867     0.153945
3 0.290535     0.277656
4 0.578683     0.297676
5 1.152612     0.234403
6 2.295756     0.140321
7 4.572652     0.067219
8 9.107739     0.031594
9 18.140657     0.003301
p 1 1.00
1 0.170104     1.000000
p 1 1.00
1 0.517547     1.000000
d 1 1.00
1 0.483567     1.000000
d 1 1.00
1 1.712416     1.000000
f 1 1.00
1 1.093097     1.000000

 H           1.0   1.10789489     3.65500311    -0.21878903
s 6 1.00
1 6.359201     -0.004943
2 3.546637     0.049579
3 1.493442     0.037176
4 0.551948     0.287908
5 0.207203     0.009543
6 0.079234     0.770084
s 6 1.00
1 6.359201     -0.016672
2 3.546637     -0.005774
3 1.493442     -0.227982
4 0.551948     -0.285652
5 0.207203     -1.071579
6 0.079234     1.423767
s 6 1.00
1 6.359201     -0.018886
2 3.546637     -0.058854
3 1.493442     -0.556988
4 0.551948     -1.084022
5 0.207203     2.721525
6 0.079234     -1.458091
s 1 1.00
1 0.102700     1.000000
p 1 1.00
1 1.407000     1.000000
p 1 1.00
1 0.388000     1.000000
d 1 1.00
1 1.057000     1.000000

 H           1.0  -0.88407597     2.72122648     1.97691047
s 6 1.00
1 6.359201     -0.004943
2 3.546637     0.049579
3 1.493442     0.037176
4 0.551948     0.287908
5 0.207203     0.009543
6 0.079234     0.770084
s 6 1.00
1 6.359201     -0.016672
2 3.546637     -0.005774
3 1.493442     -0.227982
4 0.551948     -0.285652
5 0.207203     -1.071579
6 0.079234     1.423767
s 6 1.00
1 6.359201     -0.018886
2 3.546637     -0.058854
3 1.493442     -0.556988
4 0.551948     -1.084022
5 0.207203     2.721525
6 0.079234     -1.458091
s 1 1.00
1 0.102700     1.000000
p 1 1.00
1 1.407000     1.000000
p 1 1.00
1 0.388000     1.000000
d 1 1.00
1 1.057000     1.000000

 $END

 $ECP
C-QMC GEN 2 1
3
4.00000000 1 8.35973821
33.43895285 3 4.48361888
-19.17537323 2 3.93831258
1
22.55164191 2 5.02991637
O-QMC GEN 2 1
3
6.00000000 1 9.29793903
55.78763416 3 8.86492204
-38.81978498 2 8.62925665
1
38.41914135 2 8.71924452
H-QMC GEN 0 0
3
1.00000000 1 4.47692410
4.47692410 3 2.97636451
-4.32112340 2 3.01841596
F-QMC GEN 2 1
3
7.00000000 1 11.39210685
79.74474797 3 10.74911370
-49.45159098 2 10.45120693
1
50.25646328 2 11.30345826
H-QMC 
N-QMC GEN 2 1
3
5.00000000 1 9.23501007
46.17505034 3 7.66830008
-30.18893534 2 7.34486070
1
31.69720409 2 6.99536540
H-QMC 
H-QMC 
 $END
