!
! The energy and gradient of an arbitrary 6th row compound: Pb(BiH2)(PoH)AtH.
!
!                        TOTAL ENERGY =     -29.3586170837
!                        ----------------------
!                         GRADIENT OF THE ENERGY
!                         ----------------------
!
! UNITS ARE HARTREE/BOHR    E'X               E'Y               E'Z
!    1 PB               0.005149711      -0.019687177       0.021652938
!    2 PO               0.003029743       0.003300702      -0.014636248
!    3 H               -0.002786060       0.000436097       0.021445340
!    4 AT              -0.013152367      -0.005073622      -0.001498688
!    5 H                0.019163230      -0.022002915      -0.007860742
!    6 BI              -0.026699339      -0.010994452      -0.006018036
!    7 H                0.003771411       0.030733929      -0.002442938
!    8 H                0.011523672       0.023287437      -0.010641625
!
!                   MAXIMUM GRADIENT =    0.030733929
!                       RMS GRADIENT =    0.014891669
!  $VIB
!          IVIB=   0 IATOM=   0 ICOORD=   0 E=      -29.3586170837
!  5.149710501E-03-1.968717654E-02 2.165293766E-02 3.029742629E-03 3.300702371E-03
! -1.463624838E-02-2.786060266E-03 4.360970306E-04 2.144534006E-02-1.315236706E-02
! -5.073622310E-03-1.498688036E-03 1.916323030E-02-2.200291517E-02-7.860742002E-03
! -2.669933925E-02-1.099445173E-02-6.018036343E-03 3.771411340E-03 3.073392946E-02
! -2.442938327E-03 1.152367180E-02 2.328743689E-02-1.064162464E-02
! -3.163025672E+00-3.871566765E+00-8.708659631E-01
!
! This runs takes 22.4 sec on six Dell (x86_64) 3.46 GHz processors (Jan 28, 2017).
 
 $contrl runtyp=gradient pp=read units=bohr $end
! $guess  guess=hcore $end
 $guess  guess=huckel $end
!$SCF NOCONV=.T. EXTRAP=.T. $END
! $scf    diis=.true. $end
 $data
arbitrary 6th row compound: Pb(BiH2)(PoH)AtH
C1
 PB         82.0000    -0.12929839    -0.14371238    -1.67249213
s 9 1.00
1 0.073981     0.324264
2 0.147087     0.571155
3 0.292431     0.374051
4 0.581400     0.124749
5 1.155914     -1.112721
6 2.298139     0.681231
7 4.569061     -0.191716
8 9.084013     0.037806
9 18.060446     -0.005225
s 1 1.00
1 0.093738     1.000000
s 1 1.00
1 0.216294     1.000000
p 9 1.00
1 0.036515     0.171402
2 0.072248     0.355473
3 0.142946     0.438265
4 0.282828     0.182315
5 0.559594     0.038526
6 1.107191     -0.295227
7 2.190647     0.129708
8 4.334333     -0.025877
9 8.575748     0.003106
p 1 1.00
1 0.364049     1.000000
p 1 1.00
1 0.064386     1.000000
d 1 1.00
1 0.172323     1.000000
d 1 1.00
1 0.607293     1.000000
f 1 1.00
1 0.238404     1.000000

 PO         84.0000    -3.53569188     3.30186034     0.54293376
s 9 1.00
1 0.088283     0.231892
2 0.178248     0.604604
3 0.359891     0.486838
4 0.726636     -0.020877
5 1.467111     -0.915693
6 2.962164     0.530287
7 5.980742     -0.134624
8 12.075388     0.024651
9 24.380753     -0.003353
s 1 1.00
1 0.121540     1.000000
s 1 1.00
1 0.294130     1.000000
p 9 1.00
1 0.044924     0.081132
2 0.089086     0.312154
3 0.176659     0.485758
4 0.350319     0.289954
5 0.694690     -0.005099
6 1.377585     -0.290284
7 2.731780     0.120724
8 5.417177     -0.021788
9 10.742374     0.002411
p 1 1.00
1 0.085474     1.000000
p 1 1.00
1 0.447719     1.000000
d 1 1.00
1 0.223321     1.000000
d 1 1.00
1 0.766801     1.000000
f 1 1.00
1 0.260178     1.000000

 H           1.0000     0.28066908     0.30097443    -4.83379601
s 6 1.00
1 6.359201     -0.004943
2 3.546637     0.049579
3 1.493442     0.037176
4 0.551948     0.287908
5 0.207203     0.009543
6 0.079234     0.770084
s 6 1.00
1 6.359201     -0.016672
2 3.546637     -0.005774
3 1.493442     -0.227982
4 0.551948     -0.285652
5 0.207203     -1.071579
6 0.079234     1.423767
s 6 1.00
1 6.359201     -0.018886
2 3.546637     -0.058854
3 1.493442     -0.556988
4 0.551948     -1.084022
5 0.207203     2.721525
6 0.079234     -1.458091
s 1 1.00
1 0.102700     1.000000
p 1 1.00
1 1.407000     1.000000
p 1 1.00
1 0.388000     1.000000
d 1 1.00
1 1.057000     1.000000

 AT         85.0000     4.45079732     1.68343354     0.50282710
s 9 1.00
1 0.100143     0.225290
2 0.199361     0.601541
3 0.396881     0.515609
4 0.790095     -0.010167
5 1.572891     -0.996102
6 3.131250     0.588717
7 6.233573     -0.152415
8 12.409558     0.028000
9 24.704472     -0.003759
s 1 1.00
1 0.126317     1.000000
s 1 1.00
1 0.348625     1.000000
p 9 1.00
1 0.053678     0.126224
2 0.104254     0.308300
3 0.202485     0.458455
4 0.393270     0.283998
5 0.763818     0.007241
6 1.483503     -0.319237
7 2.881292     0.136193
8 5.596107     -0.024849
9 10.868879     0.002680
p 1 1.00
1 0.505772     1.000000
p 1 1.00
1 0.098494     1.000000
d 1 1.00
1 0.251072     1.000000
d 1 1.00
1 0.812390     1.000000
f 1 1.00
1 0.303469     1.000000

 H           1.0000    -1.90464538     1.02400878     2.52940066
s 6 1.00
1 6.359201     -0.004943
2 3.546637     0.049579
3 1.493442     0.037176
4 0.551948     0.287908
5 0.207203     0.009543
6 0.079234     0.770084
s 6 1.00
1 6.359201     -0.016672
2 3.546637     -0.005774
3 1.493442     -0.227982
4 0.551948     -0.285652
5 0.207203     -1.071579
6 0.079234     1.423767
s 6 1.00
1 6.359201     -0.018886
2 3.546637     -0.058854
3 1.493442     -0.556988
4 0.551948     -1.084022
5 0.207203     2.721525
6 0.079234     -1.458091
s 1 1.00
1 0.102700     1.000000
p 1 1.00
1 1.407000     1.000000
p 1 1.00
1 0.388000     1.000000
d 1 1.00
1 1.057000     1.000000

 BI         83.0000    -0.86304454    -4.86714845     0.59278199
s 9 1.00
1 0.082248     0.282386
2 0.164490     0.593494
3 0.328968     0.424216
4 0.657912     0.038472
5 1.315777     -0.999227
6 2.631462     0.598472
7 5.262739     -0.160394
8 10.525107     0.030465
9 21.049473     -0.004168
s 1 1.00
1 0.106821     1.000000
s 1 1.00
1 0.302685     1.000000
p 9 1.00
1 0.044793     0.143664
2 0.087289     0.347153
3 0.170104     0.460130
4 0.331490     0.210922
5 0.645988     0.005175
6 1.258866     -0.293261
7 2.453207     0.131047
8 4.780671     -0.025394
9 9.316301     0.002893
p 1 1.00
1 0.418167     1.000000
p 1 1.00
1 0.080749     1.000000
d 1 1.00
1 0.202607     1.000000
d 1 1.00
1 0.774412     1.000000
f 1 1.00
1 0.256449     1.000000

 H           1.0000     2.25799144    -3.76990925    -0.71385850
s 6 1.00
1 6.359201     -0.004943
2 3.546637     0.049579
3 1.493442     0.037176
4 0.551948     0.287908
5 0.207203     0.009543
6 0.079234     0.770084
s 6 1.00
1 6.359201     -0.016672
2 3.546637     -0.005774
3 1.493442     -0.227982
4 0.551948     -0.285652
5 0.207203     -1.071579
6 0.079234     1.423767
s 6 1.00
1 6.359201     -0.018886
2 3.546637     -0.058854
3 1.493442     -0.556988
4 0.551948     -1.084022
5 0.207203     2.721525
6 0.079234     -1.458091
s 1 1.00
1 0.102700     1.000000
p 1 1.00
1 1.407000     1.000000
p 1 1.00
1 0.388000     1.000000
d 1 1.00
1 1.057000     1.000000

 H           1.0000     0.28149633    -2.24545762     2.61496419
s 6 1.00
1 6.359201     -0.004943
2 3.546637     0.049579
3 1.493442     0.037176
4 0.551948     0.287908
5 0.207203     0.009543
6 0.079234     0.770084
s 6 1.00
1 6.359201     -0.016672
2 3.546637     -0.005774
3 1.493442     -0.227982
4 0.551948     -0.285652
5 0.207203     -1.071579
6 0.079234     1.423767
s 6 1.00
1 6.359201     -0.018886
2 3.546637     -0.058854
3 1.493442     -0.556988
4 0.551948     -1.084022
5 0.207203     2.721525
6 0.079234     -1.458091
s 1 1.00
1 0.102700     1.000000
p 1 1.00
1 1.407000     1.000000
p 1 1.00
1 0.388000     1.000000
d 1 1.00
1 1.057000     1.000000

 $end

 $ECP
Pb-QMC GEN 78 4
3
4.00000000 1 1.33905502
5.35622008 3 3.57680327
-25.11165802 2 1.08584447
1
121.69447681 2 1.89957262
1
114.36466627 2 1.64009233
1
49.32959048 2 0.93051806
1
45.59434323 2 1.07638351
Po-QMC GEN 78 4
3
6.00000000 1 1.12915012
6.77490072 3 3.57645639
-27.15687722 2 1.43566151
1
123.68767392 2 2.45166968
1
116.36047985 2 2.06261668
1
81.32822758 2 1.28212112
1
80.59441478 2 1.32883356
H-QMC GEN 0 0
3
1.00000000 1 4.47692410
4.47692410 3 2.97636451
-4.32112340 2 3.01841596
At-QMC GEN 78 4
3
7.00000000 1 1.03089969
7.21629781 3 3.69262441
-29.19452905 2 1.45693225
1
128.68209352 2 2.56609159
1
119.35613288 2 2.15280178
1
80.33152157 2 1.37630746
1
80.58962589 2 1.47835294
H-QMC 
Bi-QMC GEN 78 4
3
5.00000000 1 1.32337887
6.61689433 3 3.57500194
-25.11872438 2 1.26988106
1
121.69346942 2 2.17897203
1
114.36404033 2 1.85248885
1
59.32816833 2 1.10815262
1
55.59430794 2 1.13749297
H-QMC 
H-QMC 
 $END
