!
! The energy and gradient of an arbitrary 3rd row compound: Si(PH2)(SH)ClH...RM1 structure.
!
!                      TOTAL ENERGY =     -37.3579562463
!                         ----------------------
!                         GRADIENT OF THE ENERGY
!                         ----------------------
!
! UNITS ARE HARTREE/BOHR    E'X               E'Y               E'Z
!    1 SI               0.014122233       0.075917294      -0.013927695
!    2 S                0.025462291      -0.025993074       0.003172492
!    3 H                0.002986906       0.004295266       0.007115883
!    4 CL              -0.033792891      -0.018967321       0.012727307
!    5 H               -0.000532454      -0.000797636       0.006321867
!    6 P               -0.000596961      -0.041952813      -0.022381367
!    7 H               -0.005873012       0.005773406      -0.001051518
!    8 H               -0.001776113       0.001724878       0.008023031
!
!                   MAXIMUM GRADIENT =    0.075917294
!                       RMS GRADIENT =    0.022055075
!  $VIB
!          IVIB=   0 IATOM=   0 ICOORD=   0 E=      -37.3579562463
!  1.412223274E-02 7.591729415E-02-1.392769458E-02 2.546229131E-02-2.599307373E-02
!  3.172491559E-03 2.986906354E-03 4.295265915E-03 7.115883060E-03-3.379289141E-02
! -1.896732107E-02 1.272730714E-02-5.324539275E-04-7.976363455E-04 6.321866934E-03
! -5.969606792E-04-4.195281253E-02-2.238136668E-02-5.873011678E-03 5.773406021E-03
! -1.051518247E-03-1.776112705E-03 1.724877587E-03 8.023030812E-03
!  2.836927283E-01 1.895327584E+00 4.205374328E-01
!
! This runs takes 35.9 sec on four Dell (x86_64) 3.16 GHz processors (Jan 26, 2017).
 
 $contrl runtyp=gradient pp=read units=bohr $end
! $guess  guess=hcore $end
 $SCF NOCONV=.T. EXTRAP=.T. $END
 $DATA
arbitrary 3rd row compound: Si(PH2)(SH)ClH...RM1 structure.
C1
SI 14.0000     0.04092514     0.19406992    -0.93979742
s 9 1.00
1 0.059887     0.167492
2 0.130108     0.532550
3 0.282668     0.464290
4 0.614115     -0.002322
5 1.334205     -0.268234
6 2.898645     0.031921
7 6.297493     -0.000106
8 13.681707     -0.000145
9 29.724387     0.000067
s 1 1.00
1 0.090113     1.000000
s 1 1.00
1 0.507467     1.000000
p 9 1.00
1 0.036525     0.078761
2 0.076137     0.308331
3 0.158712     0.417773
4 0.330843     0.281676
5 0.689658     0.069876
6 1.437625     -0.056306
7 2.996797     0.000744
8 6.246966     -0.000259
9 13.022097     -0.000022
p 1 1.00
1 0.056148     1.000000
p 1 1.00
1 0.146758     1.000000
d 1 1.00
1 0.170395     1.000000
d 1 1.00
1 0.539756     1.000000
f 1 1.00
1 0.352999     1.000000

S 16.0000     3.09141775    -2.62529714     0.19833739
s 9 1.00
1 0.095120     0.140074
2 0.202385     0.490942
3 0.430611     0.515297
4 0.916203     0.050320
5 1.949388     -0.298908
6 4.147674     0.019827
7 8.824926     0.007266
8 18.776623     -0.001602
9 39.950656     0.000271
s 1 1.00
1 0.146642     1.000000
s 1 1.00
1 0.792025     1.000000
p 9 1.00
1 0.057087     0.081938
2 0.115901     0.251826
3 0.235305     0.376344
4 0.477723     0.320902
5 0.969889     0.143779
6 1.969099     -0.045543
7 3.997726     -0.017191
8 8.116307     0.002580
9 16.477979     -0.000222
p 1 1.00
1 0.088694     1.000000
p 1 1.00
1 0.247967     1.000000
d 1 1.00
1 0.292889     1.000000
d 1 1.00
1 0.950659     1.000000
f 1 1.00
1 0.573218     1.000000

H 1.0000     0.15869095     0.32013823    -3.66248625
s 6 1.00
1 6.359201     -0.004943
2 3.546637     0.049579
3 1.493442     0.037176
4 0.551948     0.287908
5 0.207203     0.009543
6 0.079234     0.770084
s 6 1.00
1 6.359201     -0.016672
2 3.546637     -0.005774
3 1.493442     -0.227982
4 0.551948     -0.285652
5 0.207203     -1.071579
6 0.079234     1.423767
s 6 1.00
1 6.359201     -0.018886
2 3.546637     -0.058854
3 1.493442     -0.556988
4 0.551948     -1.084022
5 0.207203     2.721525
6 0.079234     -1.458091
s 1 1.00
1 0.102700     1.000000
p 1 1.00
1 1.407000     1.000000
p 1 1.00
1 0.388000     1.000000
d 1 1.00
1 1.057000     1.000000

CL 17.0000    -3.57599472    -1.55974995     0.25131840
s 9 1.00
1 0.119944     0.148917
2 0.257348     0.503616
3 0.552157     0.523995
4 1.184691     0.013612
5 2.541836     -0.328846
6 5.453681     0.056309
7 11.701243     -0.001301
8 25.105812     -0.000294
9 53.866226     0.000076
s 1 1.00
1 0.185613     1.000000
s 1 1.00
1 0.991560     1.000000
p 9 1.00
1 0.074374     0.084925
2 0.155084     0.270658
3 0.323378     0.396022
4 0.674303     0.324325
5 1.406043     0.100661
6 2.931855     -0.069802
7 6.113450     -0.000951
8 12.747651     0.001501
9 26.581165     -0.000249
p 1 1.00
1 0.112268     1.000000
p 1 1.00
1 0.309583     1.000000
d 1 1.00
1 0.352357     1.000000
d 1 1.00
1 1.128796     1.000000
f 1 1.00
1 0.731999     1.000000

H 1.0000     2.50603524    -2.70918094     2.65376343
s 6 1.00
1 6.359201     -0.004943
2 3.546637     0.049579
3 1.493442     0.037176
4 0.551948     0.287908
5 0.207203     0.009543
6 0.079234     0.770084
s 6 1.00
1 6.359201     -0.016672
2 3.546637     -0.005774
3 1.493442     -0.227982
4 0.551948     -0.285652
5 0.207203     -1.071579
6 0.079234     1.423767
s 6 1.00
1 6.359201     -0.018886
2 3.546637     -0.058854
3 1.493442     -0.556988
4 0.551948     -1.084022
5 0.207203     2.721525
6 0.079234     -1.458091
s 1 1.00
1 0.102700     1.000000
p 1 1.00
1 1.407000     1.000000
p 1 1.00
1 0.388000     1.000000
d 1 1.00
1 1.057000     1.000000

P 15.0000     0.64762841     3.95832353     0.28781426
s 9 1.00
1 0.074718     0.140225
2 0.160834     0.506746
3 0.346202     0.499893
4 0.745215     0.037301
5 1.604109     -0.284591
6 3.452917     0.024766
7 7.432561     0.001798
8 15.998924     -0.000314
9 34.438408     0.000088
s 1 1.00
1 0.115288     1.000000
s 1 1.00
1 0.646066     1.000000
p 9 1.00
1 0.050242     0.072095
2 0.102391     0.278735
3 0.208669     0.411034
4 0.425256     0.304724
5 0.866651     0.091727
6 1.766191     -0.057060
7 3.599410     -0.005103
8 7.335418     0.000328
9 14.949217     -0.000046
p 1 1.00
1 0.076568     1.000000
p 1 1.00
1 0.200301     1.000000
d 1 1.00
1 0.234543     1.000000
d 1 1.00
1 0.753299     1.000000
f 1 1.00
1 0.468762     1.000000

H 1.0000    -1.68958586     5.00975708    -0.49351232
s 6 1.00
1 6.359201     -0.004943
2 3.546637     0.049579
3 1.493442     0.037176
4 0.551948     0.287908
5 0.207203     0.009543
6 0.079234     0.770084
s 6 1.00
1 6.359201     -0.016672
2 3.546637     -0.005774
3 1.493442     -0.227982
4 0.551948     -0.285652
5 0.207203     -1.071579
6 0.079234     1.423767
s 6 1.00
1 6.359201     -0.018886
2 3.546637     -0.058854
3 1.493442     -0.556988
4 0.551948     -1.084022
5 0.207203     2.721525
6 0.079234     -1.458091
s 1 1.00
1 0.102700     1.000000
p 1 1.00
1 1.407000     1.000000
p 1 1.00
1 0.388000     1.000000
d 1 1.00
1 1.057000     1.000000

H 1.0000     0.06670778     3.80795706     2.89637408
s 6 1.00
1 6.359201     -0.004943
2 3.546637     0.049579
3 1.493442     0.037176
4 0.551948     0.287908
5 0.207203     0.009543
6 0.079234     0.770084
s 6 1.00
1 6.359201     -0.016672
2 3.546637     -0.005774
3 1.493442     -0.227982
4 0.551948     -0.285652
5 0.207203     -1.071579
6 0.079234     1.423767
s 6 1.00
1 6.359201     -0.018886
2 3.546637     -0.058854
3 1.493442     -0.556988
4 0.551948     -1.084022
5 0.207203     2.721525
6 0.079234     -1.458091
s 1 1.00
1 0.102700     1.000000
p 1 1.00
1 1.407000     1.000000
p 1 1.00
1 0.388000     1.000000
d 1 1.00
1 1.057000     1.000000

 $end

 $ECP
Si-QMC GEN 10 2
3
4.00000000 1 1.80721061
7.22884246 3 9.99633089
-13.06725590 2 2.50043232
1
21.20531613 2 2.26686403
1
15.43693603 2 2.11659661
S-QMC GEN 10 2
3
6.00000000 1 2.42178462
14.53070769 3 6.74148698
-17.52965289 2 3.06094751
1
25.99260928 2 2.94272173
1
18.93356489 2 2.84566981
H-QMC GEN 0 0
3
1.00000000 1 4.47692410
4.47692410 3 2.97636451
-4.32112340 2 3.01841596
Cl-QMC GEN 10 2
3
7.00000000 1 2.41079533
16.87556731 3 5.29139158
-18.80917558 2 2.91105513
1
28.59107316 2 3.34528827
1
19.37583724 2 3.12408551
H-QMC 
P-QMC GEN 10 2
3
5.00000000 1 2.02622810
10.13114051 3 9.95970113
-14.94375088 2 2.74841795
1
23.62479480 2 2.60470698
1
18.18547203 2 2.54957900
H-QMC 
H-QMC 
 $END
