!
! The energy and gradient of an arbitrary 4th row compound: Ge(AsH2)(SeH)BrH...PM3 structure.
!
!                        TOTAL ENERGY =     -34.4597524268  
!                         ----------------------
!                         GRADIENT OF THE ENERGY
!                         ----------------------
!
! UNITS ARE HARTREE/BOHR    E'X               E'Y               E'Z
!    1 GE               0.000841244       0.012194427      -0.007084534
!    2 SE               0.007368465      -0.008355577      -0.005853789
!    3 H                0.002057471       0.006038084       0.007906322
!    4 BR              -0.007791373      -0.004370032       0.003097847
!    5 H               -0.000044872      -0.000811936       0.009719104
!    6 AS               0.003736808      -0.008264985      -0.011791741
!    7 H               -0.004223149       0.005277201      -0.002795682
!    8 H               -0.001944593      -0.001707183       0.006802473
!
!                   MAXIMUM GRADIENT =    0.012194427
!                       RMS GRADIENT =    0.006368838
!  $VIB
!          IVIB=   0 IATOM=   0 ICOORD=   0 E=      -34.4597524268
!  8.412437371E-04 1.219442716E-02-7.084534246E-03 7.368464760E-03-8.355577124E-03
! -5.853788585E-03 2.057470668E-03 6.038083961E-03 7.906321942E-03-7.791372684E-03
! -4.370031579E-03 3.097847258E-03-4.487202696E-05-8.119361830E-04 9.719104442E-03
!  3.736807810E-03-8.264985168E-03-1.179174140E-02-4.223148895E-03 5.277201465E-03
! -2.795682193E-03-1.944593371E-03-1.707182536E-03 6.802472784E-03
!  7.441506925E-01 1.448279126E+00 1.503857370E-01
!
! This runs takes 31.3 sec on four Dell (x86_64) 3.16 GHz processors (Jan 26, 2017).

 $contrl runtyp=gradient pp=read units=bohr $end
! $guess  guess=hcore $end
 $guess  guess=huckel $end
!$SCF NOCONV=.T. EXTRAP=.T. $END
! $scf    diis=.true. $end
 $data
arbitrary 4th row compound: Ge(AsH2)(SeH)BrH...PM3 structure.
C1
GE         32.0000     0.00616240     0.07470743    -0.94226498
s 9 1.00
1 0.066287     0.213230
2 0.150128     0.605570
3 0.340013     0.413442
4 0.770064     -0.106356
5 1.744049     -0.364579
6 3.949940     0.127448
7 8.945864     -0.017166
8 20.260687     0.002454
9 45.886614     -0.000355
s 1 1.00
1 0.091049     1.000000
s 1 1.00
1 0.445676     1.000000
p 9 1.00
1 0.036511     0.098680
2 0.080524     0.372290
3 0.177593     0.443836
4 0.391677     0.232585
5 0.863832     0.000058
6 1.905157     -0.108282
7 4.201772     0.021894
8 9.266892     -0.001911
9 20.437873     0.000181
p 1 1.00
1 0.040412     1.000000
p 1 1.00
1 0.092450     1.000000
d 1 1.00
1 0.130147     1.000000
d 1 1.00
1 0.323826     1.000000
f 1 1.00
1 0.352814     1.000000

SE         34.0000     3.09026873    -3.00923160     0.24642501
s 9 1.00
1 0.096883     0.200965
2 0.217674     0.615093
3 0.489067     0.462636
4 1.098828     -0.204179
5 2.468828     -0.307584
6 5.546920     0.109895
7 12.462726     -0.012288
8 28.001040     0.001205
9 62.912258     -0.000132
s 1 1.00
1 0.130387     1.000000
s 1 1.00
1 0.584755     1.000000
p 9 1.00
1 0.056147     0.073504
2 0.122259     0.334692
3 0.266220     0.473323
4 0.579694     0.276571
5 1.262286     -0.032356
6 2.748631     -0.103709
7 5.985152     0.020181
8 13.032685     -0.001095
9 28.378708     0.000019
p 1 1.00
1 0.069683     1.000000
p 1 1.00
1 0.141231     1.000000
d 1 1.00
1 0.195235     1.000000
d 1 1.00
1 0.471051     1.000000
f 1 1.00
1 0.466246     1.000000

H           1.0000     0.11344217     0.21716523    -3.77108009
s 6 1.00
1 6.359201     -0.004943
2 3.546637     0.049579
3 1.493442     0.037176
4 0.551948     0.287908
5 0.207203     0.009543
6 0.079234     0.770084
s 6 1.00
1 6.359201     -0.016672
2 3.546637     -0.005774
3 1.493442     -0.227982
4 0.551948     -0.285652
5 0.207203     -1.071579
6 0.079234     1.423767
s 6 1.00
1 6.359201     -0.018886
2 3.546637     -0.058854
3 1.493442     -0.556988
4 0.551948     -1.084022
5 0.207203     2.721525
6 0.079234     -1.458091
s 1 1.00
1 0.102700     1.000000
p 1 1.00
1 1.407000     1.000000
p 1 1.00
1 0.388000     1.000000
d 1 1.00
1 1.057000     1.000000

BR         35.0000    -3.98215942    -1.39657798     0.29237907
s 9 1.00
1 0.114626     0.199832
2 0.253024     0.605806
3 0.558520     0.486414
4 1.232866     -0.208964
5 2.721403     -0.328448
6 6.007171     0.118471
7 13.260109     -0.013112
8 29.270100     0.001206
9 64.610234     -0.000121
s 1 1.00
1 0.154401     1.000000
s 1 1.00
1 0.660618     1.000000
p 9 1.00
1 0.067990     0.107992
2 0.145507     0.331860
3 0.311403     0.442871
4 0.666441     0.283256
5 1.426267     -0.026045
6 3.052389     -0.111323
7 6.532494     0.021712
8 13.980353     -0.001188
9 29.919703     0.000022
p 1 1.00
1 0.078655     1.000000
p 1 1.00
1 0.164043     1.000000
d 1 1.00
1 0.234980     1.000000
d 1 1.00
1 0.568017     1.000000
f 1 1.00
1 0.555711     1.000000

H           1.0000     2.67529902    -2.83482178     2.99436467
s 6 1.00
1 6.359201     -0.004943
2 3.546637     0.049579
3 1.493442     0.037176
4 0.551948     0.287908
5 0.207203     0.009543
6 0.079234     0.770084
s 6 1.00
1 6.359201     -0.016672
2 3.546637     -0.005774
3 1.493442     -0.227982
4 0.551948     -0.285652
5 0.207203     -1.071579
6 0.079234     1.423767
s 6 1.00
1 6.359201     -0.018886
2 3.546637     -0.058854
3 1.493442     -0.556988
4 0.551948     -1.084022
5 0.207203     2.721525
6 0.079234     -1.458091
s 1 1.00
1 0.102700     1.000000
p 1 1.00
1 1.407000     1.000000
p 1 1.00
1 0.388000     1.000000
d 1 1.00
1 1.057000     1.000000

AS         33.0000     0.99036039     4.29934327     0.30365761
s 9 1.00
1 0.079412     0.192043
2 0.178687     0.611682
3 0.402068     0.439261
4 0.904702     -0.110280
5 2.035691     -0.394179
6 4.580555     0.145632
7 10.306811     -0.021379
8 23.191593     0.003205
9 52.183937     -0.000469
s 1 1.00
1 0.113088     1.000000
s 1 1.00
1 0.540159     1.000000
p 9 1.00
1 0.050626     0.105058
2 0.108692     0.361819
3 0.233354     0.452107
4 0.500995     0.231243
5 1.075603     -0.009549
6 2.309248     -0.121767
7 4.957802     0.028648
8 10.644071     -0.002941
9 22.852115     0.000293
p 1 1.00
1 0.612326     1.000000
p 1 1.00
1 0.100851     1.000000
d 1 1.00
1 0.165790     1.000000
d 1 1.00
1 0.412063     1.000000
f 1 1.00
1 0.425290     1.000000

H           1.0000    -1.42275437     5.47808017    -0.71321707
s 6 1.00
1 6.359201     -0.004943
2 3.546637     0.049579
3 1.493442     0.037176
4 0.551948     0.287908
5 0.207203     0.009543
6 0.079234     0.770084
s 6 1.00
1 6.359201     -0.016672
2 3.546637     -0.005774
3 1.493442     -0.227982
4 0.551948     -0.285652
5 0.207203     -1.071579
6 0.079234     1.423767
s 6 1.00
1 6.359201     -0.018886
2 3.546637     -0.058854
3 1.493442     -0.556988
4 0.551948     -1.084022
5 0.207203     2.721525
6 0.079234     -1.458091
s 1 1.00
1 0.102700     1.000000
p 1 1.00
1 1.407000     1.000000
p 1 1.00
1 0.388000     1.000000
d 1 1.00
1 1.057000     1.000000

H           1.0000     0.06136627     4.06471444     3.00999291
s 6 1.00
1 6.359201     -0.004943
2 3.546637     0.049579
3 1.493442     0.037176
4 0.551948     0.287908
5 0.207203     0.009543
6 0.079234     0.770084
s 6 1.00
1 6.359201     -0.016672
2 3.546637     -0.005774
3 1.493442     -0.227982
4 0.551948     -0.285652
5 0.207203     -1.071579
6 0.079234     1.423767
s 6 1.00
1 6.359201     -0.018886
2 3.546637     -0.058854
3 1.493442     -0.556988
4 0.551948     -1.084022
5 0.207203     2.721525
6 0.079234     -1.458091
s 1 1.00
1 0.102700     1.000000
p 1 1.00
1 1.407000     1.000000
p 1 1.00
1 0.388000     1.000000
d 1 1.00
1 1.057000     1.000000

 $end

 $ECP
Ge-QMC GEN 28 3
3
4.00000000 1 1.88492329
7.53969315 3 9.98137268
-13.13622589 2 1.98008364
1
61.26369269 2 3.03315885
1
55.52495744 2 2.76564031
1
23.49168485 2 1.66026543
Se-QMC GEN 28 3
3
6.00000000 1 1.73494732
10.40968393 3 6.91632737
-17.83199463 2 3.10551681
1
85.94238004 2 4.67503354
1
78.84838432 2 4.34256579
1
30.92151589 2 2.61905005
H-QMC GEN 0 0
3
1.00000000 1 4.47692410
4.47692410 3 2.97636451
-4.32112340 2 3.01841596
Br-QMC GEN 28 3
3
7.00000000 1 1.86793881
13.07557164 3 5.30536536
-18.79056037 2 3.32134623
1
88.58537968 2 5.17694821
1
79.43718432 2 4.80714881
1
29.35463757 2 3.03534088
H-QMC 
As-QMC GEN 28 3
3
5.00000000 1 1.21796059
6.08980295 3 9.96302171
-14.92625816 2 1.86158567
1
73.75553709 2 3.54546456
1
68.03580909 2 3.28664249
1
23.32540737 2 1.95862616
H-QMC 
H-QMC 
 $END
