!
! The energy of a water molecule.
!
!                        TOTAL ENERGY =     -16.9528116943
! This runs takes 1.9 sec on a Dell (x86_64) 2.66 GHz processor (Sept 15, 2017). 

 $CONTRL 
         ispher=1
         PP=READ $END
 $SYSTEM MWORDS=1000 $END
 $DATA
water
C1
O 8.0 -0.564282 -0.573389 -2.52729
s 9 1.00
1 0.125346     0.055741
2 0.268022     0.304848
3 0.573098     0.453752
4 1.225429     0.295926
5 2.620277     0.019567
6 5.602818     -0.128627
7 11.980245     0.012024
8 25.616801     0.000407
9 54.775216     -0.000076
s 1 1.00
1 1.686633     1.000000
s 1 1.00
1 0.237997     1.000000
p 9 1.00
1 0.083598     0.044958
2 0.167017     0.150175
3 0.333673     0.255999
4 0.666627     0.281879
5 1.331816     0.242835
6 2.660761     0.161134
7 5.315785     0.082308
8 10.620108     0.039899
9 21.217318     0.004679
p 1 1.00
1 0.184696     1.000000
p 1 1.00
1 0.600621     1.000000
d 1 1.00
1 0.669340     1.000000
d 1 1.00
1 2.404278     1.000000
f 1 1.00
1 1.423104     1.000000

H 1.0 -0.080858 -1.335857 -2.192111
s 6 1.00
1 6.359201     -0.004943
2 3.546637     0.049579
3 1.493442     0.037176
4 0.551948     0.287908
5 0.207203     0.009543
6 0.079234     0.770084
s 6 1.00
1 6.359201     -0.016672
2 3.546637     -0.005774
3 1.493442     -0.227982
4 0.551948     -0.285652
5 0.207203     -1.071579
6 0.079234     1.423767
s 6 1.00
1 6.359201     -0.018886
2 3.546637     -0.058854
3 1.493442     -0.556988
4 0.551948     -1.084022
5 0.207203     2.721525
6 0.079234     -1.458091
s 1 1.00
1 0.102700     1.000000
p 1 1.00
1 1.407000     1.000000
p 1 1.00
1 0.388000     1.000000
d 1 1.00
1 1.057000     1.000000

H 1.0 0.119062 -0.063496 -2.973049
s 6 1.00
1 6.359201     -0.004943
2 3.546637     0.049579
3 1.493442     0.037176
4 0.551948     0.287908
5 0.207203     0.009543
6 0.079234     0.770084
s 6 1.00
1 6.359201     -0.016672
2 3.546637     -0.005774
3 1.493442     -0.227982
4 0.551948     -0.285652
5 0.207203     -1.071579
6 0.079234     1.423767
s 6 1.00
1 6.359201     -0.018886
2 3.546637     -0.058854
3 1.493442     -0.556988
4 0.551948     -1.084022
5 0.207203     2.721525
6 0.079234     -1.458091
s 1 1.00
1 0.102700     1.000000
p 1 1.00
1 1.407000     1.000000
p 1 1.00
1 0.388000     1.000000
d 1 1.00
1 1.057000     1.000000

 $END
 $ECP
O-QMC GEN 2 1
3
6.00000000 1 9.29793903
55.78763416 3 8.86492204
-38.81978498 2 8.62925665
1
38.41914135 2 8.71924452
H-QMC GEN 0 1
3
1.00000000 1 4.47692410
4.47692410 3 2.97636451
-4.32112340 2 3.01841596
1
0.00  2 20.0
H-QMC GEN
 $END
