! This is a sample input of geometry optimization for optimized Be4H8
! with DFTB3. Here, DFTB3 includes both the third-order Taylor expansion of
! DFT energy (NDFTB=3 + HUBDER values) and the damping of gamna function
! for pairs that include hydrogen atom (DAMPXH=.TRUE. and DAMPEX=4.20).
! Note that HUBDER and DAMPEX values given here are only tentative
! values and no parameterization has been conducted.
!
! The total energy is -5.0869522019 (Hartree) after 26 geometry
! optimization cycles.
!
! Disclaimer: these parameters are provided so that the correctness of
! the DFTB code in GAMESS can be tested. For production DFTB runs,
! please obtain parameters from the official site www.dftb.org.
!
! You will have to edit the path below in $DFTBSK to run this input.
!
! Do not run DFTB in parallel (except FMO-DFTB, see exam04.inp)!
!
! This file was provided by Yoshio Nishimoto and Stephan Irle, 
! and the parameters were generated by Yoshifumi Nishimura (Nagoya U., Japan).
!
 $CONTRL RUNTYP=OPTIMIZE NPRINT=-5 $END
 $STATPT NSTEP=200 OPTTOL=1.0D-09 $END
 $SYSTEM MWORDS=40 $END
 $SCF CONV=1.0D-12 $END
 $BASIS GBASIS=DFTB $END
 $DFTB
   NDFTB=3 HUBDER(1)=-0.14,-0.20
   DAMPXH=.TRUE. DAMPEX=4.20
 $END
!  --- !!!! modify the path below !!!! ---
 $DFTBSK
   Be Be "/usr/local/dftb/parameters/Be-Be.spl"
   Be H  "/usr/local/dftb/parameters/Be-H.spl"
   H  Be "/usr/local/dftb/parameters/H-Be.spl"
   H  H  "/usr/local/dftb/parameters/H-H.spl"
 $END
 $DATA
 Be4H8
 C1 
 BE          4.0   0.0527524464   0.0000001565   0.0005128380
 BE          4.0   2.0374673839  -0.0000000727  -0.0005165646
 BE          4.0   4.0155753262  -0.0000005686   0.0001397033
 BE          4.0   6.0003213808  -0.0000011158  -0.0004305479
 H           1.0  -1.2697111116   0.0000002688   0.0003150976
 H           1.0   7.3227975817   0.0000021349   0.0003583763
 H           1.0   1.0523231998   1.1018850828  -0.0001825147
 H           1.0   1.0523229731  -1.1018849751  -0.0001821323
 H           1.0   3.0261963727   0.0000006865   1.1018438360
 H           1.0   3.0268082781   0.0000002324  -1.1021792719
 H           1.0   5.0008024687   1.1018900455   0.0001597168
 H           1.0   5.0008018861  -1.1018916367   0.0001602771
 $END

! TRAVIS-CI SMALL

