! This is a sample input of gradient calculation for Be8H16 with FMO-DFTB-D,
! where "DFTB" is SCC-DFTB (DFTB2). Dispersion correction (suffix of -D) with
! the UFF formulation is included.
!
! The calculated energy with FMO-DFTB should be
! Total energy of the molecule: Eunco+D(2)=        -10.032071495
! and the corresponding full calculation should be -10.0336858881 Hartree.
!
! The dispersion contribution calculated with FMO-DFTB is 0.037660860,
! and this reproduces the value with full calculation exactly:
! UFF-TYPE DISPERSION ENERGY                     =        0.0376608596
!
! Each fragment contains Be2H6 (two BeH2 unit per fragment). With one BeH2
! unit per fragment (NFRAG=8 and NACUT=3), following energy with FMO-DFTB-D
! will be obtained.
! Total energy of the molecule: Eunco+D(2)=         -9.933965778
!
! Disclaimer: these parameters are provided so that the correctness of
! the DFTB code in GAMESS can be tested. For production DFTB runs,
! please obtain parameters from the official site www.dftb.org.
!
! You will have to edit the path below in $DFTBSK to run this input.
!
! You may run FMO-DFTB in parallel with the condition that NGROUP in $GDDI 
! be equal to the total number of CPU cores. Or you may run sequentially
! omitting $GDDI (as below).
!
! This file was provided by Yoshio Nishimoto and Stephan Irle, 
! and the parameters were generated by Yoshifumi Nishimura (Nagoya U., Japan).
!
 $CONTRL RUNTYP=GRADIENT NPRINT=-5 $END
 $SYSTEM MWORDS=40 $END
 $BASIS GBASIS=DFTB $END
 $DFTB NDFTB=2 DISP=UFF $END
!  --- !!!! modify the path below !!!! ---
 $DFTBSK
   Be Be "/usr/local/dftb/parameters/Be-Be.spl"
   Be H  "/usr/local/dftb/parameters/Be-H.spl"
   H  Be "/usr/local/dftb/parameters/H-Be.spl"
   H  H  "/usr/local/dftb/parameters/H-H.spl"
 $END
 $FMO
   RESDIM=2.0
   NFRAG=4
   NACUT=6
 $END
 $FMOPRP
   NPRINT=8
 $END
 $DATA
 Be8H16
C1
 BE          4.0
 H           1.0
 $END
 $FMOXYZ
 BE          4.0   3.0390000000  -2.8822950000  -4.1352320000
 H           1.0   1.8434562434  -3.1165655879  -3.3851501265
 H           1.0   3.1828321632  -3.4833091661  -5.3185177886
 BE          4.0   4.9596610000  -2.7158660000  -2.1181570000
 H           1.0   4.1862385206  -3.2125150780  -3.1799315682
 H           1.0   5.9661150065  -1.7776386581  -2.3199165802
 BE          4.0   1.3325970000  -3.6588350000  -2.2152450000
 H           1.0   1.8204480714  -3.1232189416  -0.9374404516
 H           1.0   0.3900915695  -4.5871414946  -2.0836882748
 BE          4.0   2.8357920000  -2.2859940000  -0.4634240000
 H           1.0   2.7438006395  -0.9072939067  -0.3324600932
 H           1.0   4.1783102520  -2.7199578126  -0.8729875478
 BE          4.0   3.4734830000  -0.2274840000  -3.5159170000
 H           1.0   4.8626845960  -0.0288080339  -3.5798378882
 H           1.0   2.9943364257  -1.3842994704  -4.1575520744
 BE          4.0   2.9279870000   0.4640220000  -0.9968790000
 H           1.0   2.7391749378   0.2817067075  -2.4463418397
 H           1.0   1.9442109579   1.2327913416  -0.5126207513
 BE          4.0   6.1974480000  -0.3939330000  -2.9832180000
 H           1.0   6.2853272566   0.4337508795  -1.8156444791
 H           1.0   7.2026392922  -0.4405178821  -3.8617909490
 BE          4.0   5.6179070000   0.6710590000  -0.5930070000
 H           1.0   6.2485012450   0.7202046490   0.5814642308
 H           1.0   4.2451415795   0.8563333249  -0.7322888839
 $END

! TRAVIS-CI SMALL

