! This is a sample input of Hessian calculation for optimized Be3H6,
! using analytical second-order geometrical derivative of SCC-DFTB
! energy.
!
! The total energy is -3.7982789033 (Hartree) after 12 SCF cycles.
! All gradient elements must be less than 1.0d-09.
!
! Expected vibrational modes are following:
!
!    7     173.517    A        1.988338    0.253103
!    8     173.517    A        1.988338    0.253103
!    9     406.628    A        1.526303    0.701499
!   10     406.628    A        1.526303    0.701499
!   11     543.216    A        1.282380    1.289899
!   12     543.216    A        1.282380    1.289899
!   13     571.630    A        3.759312    0.000000
!   14     647.845    A        1.007825    0.000000
!   15     806.440    A        1.142666    1.184474
!   16     806.440    A        1.142666    1.184474
!   17     980.914    A        3.821351    1.352164
!   18    1311.991    A        1.050360    0.333643
!   19    1311.992    A        1.050360    0.333644
!   20    1327.311    A        1.056415    0.000000
!   21    1368.644    A        1.179844   29.175421
!   22    1709.010    A        1.118188    7.079916
!   23    1709.010    A        1.118188    7.079915
!   24    1761.979    A        1.009949    0.000000
!   25    1792.685    A        1.071139    2.810081
!   26    2177.396    A        1.131545   10.103135
!   27    2180.579    A        1.130051    0.000000
!
! The harmonic zero point energy (without scaling) is 32.466448 kcal/mol
!
! The optimized structure reproduces the structural parameters
! shown in the paper (J. Plasma Fusion Res. 2013, 89, 583-598.)
! up to two decimal places.
!
! Disclaimer: these parameters are provided so that the correctness of
! the DFTB code in GAMESS can be tested. For production DFTB runs,
! please obtain parameters from the official site www.dftb.org.
!
! You will have to edit the path below in $DFTBSK to run this input.
!
! Do not run DFTB in parallel (except FMO-DFTB, see exam04.inp)!
!
! This file was provided by Yoshio Nishimoto and Stephan Irle, 
! and the parameters were generated by Yoshifumi Nishimura (Nagoya U., Japan).
!
 $CONTRL RUNTYP=HESSIAN NPRINT=-5 $END
 $FORCE PROJCT=.TRUE. $END
 $SYSTEM MWORDS=40 $END
 $SCF CONV=1.0D-12 $END
 $BASIS GBASIS=DFTB $END
 $DFTB NDFTB=2 $END
!  --- !!!! modify the path below !!!! ---
 $DFTBSK
   Be Be "/usr/local/dftb/parameters/Be-Be.spl"
   Be H  "/usr/local/dftb/parameters/Be-H.spl"
   H  Be "/usr/local/dftb/parameters/H-Be.spl"
   H  H  "/usr/local/dftb/parameters/H-H.spl"
 $END
 $DATA
 BE3H6
 C1 
 BE          4.0   0.0402267998  -0.0000000417  -0.0000000366
 BE          4.0   2.0247228393   0.0000002791  -0.0000005132
 BE          4.0   4.0092188712   0.0000000020   0.0000001400
 H           1.0  -1.2821005591  -0.0000003656   0.0000014837
 H           1.0   5.3315462333  -0.0000006589   0.0000006308
 H           1.0   1.0433666784   1.1017445375  -0.0000009113
 H           1.0   1.0433670156  -1.1017443011  -0.0000004155
 H           1.0   3.0060785309   0.0000005119   1.1017442271
 H           1.0   3.0060792111   0.0000000370  -1.1017446046
 $END

! TRAVIS-CI SMALL

